Mg Nb  O Pb 
 1.0000000000000000
    16.9705627484771391    0.0000000000000013    0.0000000000000000
    -0.0000000000000013   16.9705627484771391    0.0000000000000000
     0.0000000000000000    0.0000000000000000    8.0000000000000000
 Mg  Nb  O   Pb 
  12  24 108  36
Cartesian
 11.3137084989847594  8.4852813742385695  6.0000000000000000
  2.8284271247461898  0.0000000000000002  2.0000000000000000
 14.1421356237309492  0.0000000000000011  2.0000000000000000
 11.3137084989847594 -2.8284271247461894  6.0000000000000000
 11.3137084989847594  2.8284271247461898  6.0000000000000000
  8.4852813742385695  0.0000000000000007  2.0000000000000000
 16.9705627484771391 -2.8284271247461890  6.0000000000000000
  8.4852813742385695  5.6568542494923797  2.0000000000000000
  2.8284271247461890 11.3137084989847594  2.0000000000000000
 14.1421356237309492 11.3137084989847594  2.0000000000000000
 14.1421356237309492  5.6568542494923806  2.0000000000000000
  8.4852813742385678 11.3137084989847594  2.0000000000000000
 14.1421356237309492  5.6568542494923806  6.0000000000000000
  2.8284271247461894  5.6568542494923797  6.0000000000000000
  8.4852813742385678 11.3137084989847594  6.0000000000000000
 16.9705627484771391  2.8284271247461907  2.0000000000000000
  8.4852813742385695  5.6568542494923797  6.0000000000000000
  5.6568542494923797  2.8284271247461898  6.0000000000000000
 16.9705627484771391 -2.8284271247461890  2.0000000000000000
  5.6568542494923797  8.4852813742385695  2.0000000000000000
 14.1421356237309492  0.0000000000000011  6.0000000000000000
  2.8284271247461890 11.3137084989847594  6.0000000000000000
  5.6568542494923797  8.4852813742385695  6.0000000000000000
 11.3137084989847594 -2.8284271247461894  2.0000000000000000
  5.6568542494923797  2.8284271247461898  2.0000000000000000
  8.4852813742385695  0.0000000000000007  6.0000000000000000
 11.3137084989847594  8.4852813742385695  2.0000000000000000
 16.9705627484771391  2.8284271247461907  6.0000000000000000
 11.3137084989847594  2.8284271247461898  2.0000000000000000
 16.9705627484771391  8.4852813742385695  6.0000000000000000
  2.8284271247461894  5.6568542494923797  2.0000000000000000
  5.6568542494923806 -2.8284271247461898  6.0000000000000000
  5.6568542494923806 -2.8284271247461898  2.0000000000000000
 16.9705627484771391  8.4852813742385695  2.0000000000000000
 14.1421356237309492 11.3137084989847594  6.0000000000000000
  2.8284271247461898  0.0000000000000002  6.0000000000000000
 14.1421356237309492  0.0000000000000011  0.0000000000000000
  7.0710678118654746  7.0710678118654746  6.0000000000000000
  7.0710678118654746  4.2426406871192848  6.0000000000000000
  9.8994949366116636  7.0710678118654746  6.0000000000000000
  9.8994949366116636  9.8994949366116654  6.0000000000000000
 11.3137084989847594  2.8284271247461898  4.0000000000000000
  9.8994949366116654  4.2426406871192848  6.0000000000000000
 11.3137084989847594  8.4852813742385695  0.0000000000000000
  7.0710678118654737  9.8994949366116636  6.0000000000000000
  7.0710678118654737 12.7279220613578552  6.0000000000000000
  9.8994949366116654  1.4142135623730949  6.0000000000000000
  8.4852813742385678 11.3137084989847594  4.0000000000000000
  8.4852813742385678 11.3137084989847594  0.0000000000000000
  7.0710678118654737 12.7279220613578552  2.0000000000000000
  9.8994949366116636  7.0710678118654746  2.0000000000000000
  9.8994949366116636  9.8994949366116654  2.0000000000000000
  7.0710678118654737  9.8994949366116636  2.0000000000000000
 11.3137084989847594  8.4852813742385695  4.0000000000000000
 12.7279220613578552  1.4142135623730960  2.0000000000000000
  9.8994949366116654  1.4142135623730949  2.0000000000000000
 16.9705627484771391 -2.8284271247461890  0.0000000000000000
 16.9705627484771391  8.4852813742385695  4.0000000000000000
 12.7279220613578552  9.8994949366116636  6.0000000000000000
 12.7279220613578552 12.7279220613578552  6.0000000000000000
 14.1421356237309492 11.3137084989847594  4.0000000000000000
 15.5563491861040450  7.0710678118654746  2.0000000000000000
 15.5563491861040450  9.8994949366116654  2.0000000000000000
 16.9705627484771391  8.4852813742385695  0.0000000000000000
 12.7279220613578552  9.8994949366116636  2.0000000000000000
 12.7279220613578552 12.7279220613578552  2.0000000000000000
 14.1421356237309492 11.3137084989847594  0.0000000000000000
 15.5563491861040450  1.4142135623730958  6.0000000000000000
 15.5563491861040450  4.2426406871192857  6.0000000000000000
 16.9705627484771391  2.8284271247461907  4.0000000000000000
 12.7279220613578552  4.2426406871192857  6.0000000000000000
 12.7279220613578552 -1.4142135623730940  2.0000000000000000
 12.7279220613578552  7.0710678118654755  6.0000000000000000
 15.5563491861040450  1.4142135623730958  2.0000000000000000
 15.5563491861040450  4.2426406871192857  2.0000000000000000
 16.9705627484771391  2.8284271247461907  0.0000000000000000
 12.7279220613578552  4.2426406871192857  2.0000000000000000
 12.7279220613578552  7.0710678118654755  2.0000000000000000
 14.1421356237309492  5.6568542494923806  0.0000000000000000
 15.5563491861040450 -4.2426406871192839  6.0000000000000000
 15.5563491861040450 -1.4142135623730938  6.0000000000000000
 16.9705627484771391 -2.8284271247461890  4.0000000000000000
  8.4852813742385695  5.6568542494923797  4.0000000000000000
 12.7279220613578552  1.4142135623730960  6.0000000000000000
 14.1421356237309492  0.0000000000000011  4.0000000000000000
 15.5563491861040450 -4.2426406871192839  2.0000000000000000
 15.5563491861040450 -1.4142135623730938  2.0000000000000000
 14.1421356237309492  5.6568542494923806  4.0000000000000000
 12.7279220613578552 -1.4142135623730940  6.0000000000000000
 15.5563491861040450  7.0710678118654746  6.0000000000000000
  1.4142135623730943  9.8994949366116636  2.0000000000000000
  4.2426406871192857  4.2426406871192848  2.0000000000000000
  5.6568542494923797  8.4852813742385695  4.0000000000000000
  1.4142135623730943  9.8994949366116636  6.0000000000000000
  1.4142135623730951 -1.4142135623730949  6.0000000000000000
  1.4142135623730940 12.7279220613578552  6.0000000000000000
  2.8284271247461890 11.3137084989847594  4.0000000000000000
  4.2426406871192848  7.0710678118654746  2.0000000000000000
  5.6568542494923806 -2.8284271247461898  4.0000000000000000
  4.2426406871192848  9.8994949366116654  2.0000000000000000
  5.6568542494923797  8.4852813742385695  0.0000000000000000
  4.2426406871192857 -1.4142135623730947  6.0000000000000000
 15.5563491861040450  9.8994949366116654  6.0000000000000000
  1.4142135623730940 12.7279220613578552  2.0000000000000000
  2.8284271247461890 11.3137084989847594  0.0000000000000000
  4.2426406871192857 -4.2426406871192848  6.0000000000000000
  4.2426406871192857  1.4142135623730949  6.0000000000000000
  4.2426406871192857  4.2426406871192848  6.0000000000000000
  5.6568542494923797  2.8284271247461898  4.0000000000000000
  2.8284271247461894  5.6568542494923797  0.0000000000000000
  1.4142135623730947  4.2426406871192848  6.0000000000000000
  1.4142135623730945  7.0710678118654746  2.0000000000000000
  1.4142135623730945  7.0710678118654746  6.0000000000000000
  2.8284271247461894  5.6568542494923797  4.0000000000000000
  4.2426406871192857  1.4142135623730949  2.0000000000000000
  1.4142135623730947  4.2426406871192848  2.0000000000000000
  1.4142135623730949  1.4142135623730951  6.0000000000000000
  4.2426406871192848  7.0710678118654746  6.0000000000000000
  4.2426406871192848  9.8994949366116654  6.0000000000000000
  8.4852813742385695  0.0000000000000007  0.0000000000000000
  9.8994949366116654  4.2426406871192848  2.0000000000000000
 11.3137084989847594  2.8284271247461898  0.0000000000000000
  2.8284271247461898  0.0000000000000002  0.0000000000000000
  7.0710678118654746  4.2426406871192848  2.0000000000000000
  1.4142135623730949  1.4142135623730951  2.0000000000000000
  7.0710678118654746  7.0710678118654746  2.0000000000000000
  8.4852813742385695  5.6568542494923797  0.0000000000000000
  9.8994949366116654 -4.2426406871192839  6.0000000000000000
  1.4142135623730951 -1.4142135623730949  2.0000000000000000
  9.8994949366116654 -1.4142135623730943  6.0000000000000000
 11.3137084989847594 -2.8284271247461894  4.0000000000000000
  2.8284271247461898  0.0000000000000002  4.0000000000000000
  7.0710678118654746 -1.4142135623730945  6.0000000000000000
  5.6568542494923797  2.8284271247461898  0.0000000000000000
  7.0710678118654746  1.4142135623730956  6.0000000000000000
  7.0710678118654746  1.4142135623730956  2.0000000000000000
  7.0710678118654746 -1.4142135623730945  2.0000000000000000
  4.2426406871192857 -4.2426406871192848  2.0000000000000000
 11.3137084989847594 -2.8284271247461894  0.0000000000000000
  5.6568542494923806 -2.8284271247461898  0.0000000000000000
  9.8994949366116654 -1.4142135623730943  2.0000000000000000
  9.8994949366116654 -4.2426406871192839  2.0000000000000000
  4.2426406871192857 -1.4142135623730947  2.0000000000000000
  8.4852813742385695  0.0000000000000007  4.0000000000000000
 11.3137084989847594 11.3137084989847594  4.0000000000000000
 14.1421356237309492  8.4852813742385695  4.0000000000000000
  2.8284271247461903 -2.8284271247461898  4.0000000000000000
 14.1421356237309492  8.4852813742385695  0.0000000000000000
  2.8284271247461903 -2.8284271247461898  0.0000000000000000
 14.1421356237309492  2.8284271247461907  4.0000000000000000
  0.0000000000000000  0.0000000000000000  4.0000000000000000
 -0.0000000000000004  5.6568542494923797  0.0000000000000000
 11.3137084989847594 11.3137084989847594  0.0000000000000000
  5.6568542494923797  5.6568542494923797  4.0000000000000000
 11.3137084989847594  5.6568542494923806  4.0000000000000000
  8.4852813742385695  2.8284271247461898  0.0000000000000000
  8.4852813742385695  2.8284271247461898  4.0000000000000000
  5.6568542494923797  5.6568542494923797  0.0000000000000000
  5.6568542494923788 11.3137084989847594  0.0000000000000000
  8.4852813742385695 -2.8284271247461894  4.0000000000000000
  8.4852813742385695  8.4852813742385695  0.0000000000000000
  5.6568542494923797  0.0000000000000004  4.0000000000000000
  5.6568542494923788 11.3137084989847594  4.0000000000000000
  8.4852813742385695 -2.8284271247461894  0.0000000000000000
  8.4852813742385695  8.4852813742385695  4.0000000000000000
  5.6568542494923797  0.0000000000000004  0.0000000000000000
 11.3137084989847594  0.0000000000000009  0.0000000000000000
  2.8284271247461894  8.4852813742385695  4.0000000000000000
 14.1421356237309492 -2.8284271247461890  0.0000000000000000
 -0.0000000000000009 11.3137084989847594  4.0000000000000000
 11.3137084989847594  0.0000000000000009  4.0000000000000000
  2.8284271247461894  8.4852813742385695  0.0000000000000000
 14.1421356237309492 -2.8284271247461890  4.0000000000000000
 -0.0000000000000009 11.3137084989847594  0.0000000000000000
 11.3137084989847594  5.6568542494923806  0.0000000000000000
  2.8284271247461898  2.8284271247461898  4.0000000000000000
 14.1421356237309492  2.8284271247461907  0.0000000000000000
 -0.0000000000000004  5.6568542494923797  4.0000000000000000
  2.8284271247461898  2.8284271247461898  0.0000000000000000
  0.0000000000000000  0.0000000000000000  0.0000000000000000
