(written by ASE)

8640 atoms
4 atom types

0.0                      48  xlo xhi
0.0                      48  ylo yhi
0.0                      48  zlo zhi

Atoms # atomic

     1   2                       0                       0                       0
     2   4                       2                       2                       2
     3   3                       2                       2                       0
     4   3                       0                       2                       2
     5   3                       2                       0                       2
     6   2                       0                       0                       4
     7   4                       2                       2                       6
     8   3                       2                       2                       4
     9   3                       0                       2                       6
    10   3                       2                       0                       6
    11   1                       0                       0                       8
    12   4                       2                       2                      10
    13   3                       2                       2                       8
    14   3                       0                       2                      10
    15   3                       2                       0                      10
    16   1                       0                       0                      12
    17   4                       2                       2                      14
    18   3                       2                       2                      12
    19   3                       0                       2                      14
    20   3                       2                       0                      14
    21   2                       0                       0                      16
    22   4                       2                       2                      18
    23   3                       2                       2                      16
    24   3                       0                       2                      18
    25   3                       2                       0                      18
    26   2                       0                       0                      20
    27   4                       2                       2                      22
    28   3                       2                       2                      20
    29   3                       0                       2                      22
    30   3                       2                       0                      22
    31   2                       0                       0                      24
    32   4                       2                       2                      26
    33   3                       2                       2                      24
    34   3                       0                       2                      26
    35   3                       2                       0                      26
    36   2                       0                       0                      28
    37   4                       2                       2                      30
    38   3                       2                       2                      28
    39   3                       0                       2                      30
    40   3                       2                       0                      30
    41   2                       0                       0                      32
    42   4                       2                       2                      34
    43   3                       2                       2                      32
    44   3                       0                       2                      34
    45   3                       2                       0                      34
    46   2                       0                       0                      36
    47   4                       2                       2                      38
    48   3                       2                       2                      36
    49   3                       0                       2                      38
    50   3                       2                       0                      38
    51   1                       0                       0                      40
    52   4                       2                       2                      42
    53   3                       2                       2                      40
    54   3                       0                       2                      42
    55   3                       2                       0                      42
    56   1                       0                       0                      44
    57   4                       2                       2                      46
    58   3                       2                       2                      44
    59   3                       0                       2                      46
    60   3                       2                       0                      46
    61   2                       0                       4                       0
    62   4                       2                       6                       2
    63   3                       2                       6                       0
    64   3                       0                       6                       2
    65   3                       2                       4                       2
    66   2                       0                       4                       4
    67   4                       2                       6                       6
    68   3                       2                       6                       4
    69   3                       0                       6                       6
    70   3                       2                       4                       6
    71   2                       0                       4                       8
    72   4                       2                       6                      10
    73   3                       2                       6                       8
    74   3                       0                       6                      10
    75   3                       2                       4                      10
    76   1                       0                       4                      12
    77   4                       2                       6                      14
    78   3                       2                       6                      12
    79   3                       0                       6                      14
    80   3                       2                       4                      14
    81   2                       0                       4                      16
    82   4                       2                       6                      18
    83   3                       2                       6                      16
    84   3                       0                       6                      18
    85   3                       2                       4                      18
    86   1                       0                       4                      20
    87   4                       2                       6                      22
    88   3                       2                       6                      20
    89   3                       0                       6                      22
    90   3                       2                       4                      22
    91   2                       0                       4                      24
    92   4                       2                       6                      26
    93   3                       2                       6                      24
    94   3                       0                       6                      26
    95   3                       2                       4                      26
    96   1                       0                       4                      28
    97   4                       2                       6                      30
    98   3                       2                       6                      28
    99   3                       0                       6                      30
   100   3                       2                       4                      30
   101   2                       0                       4                      32
   102   4                       2                       6                      34
   103   3                       2                       6                      32
   104   3                       0                       6                      34
   105   3                       2                       4                      34
   106   1                       0                       4                      36
   107   4                       2                       6                      38
   108   3                       2                       6                      36
   109   3                       0                       6                      38
   110   3                       2                       4                      38
   111   2                       0                       4                      40
   112   4                       2                       6                      42
   113   3                       2                       6                      40
   114   3                       0                       6                      42
   115   3                       2                       4                      42
   116   1                       0                       4                      44
   117   4                       2                       6                      46
   118   3                       2                       6                      44
   119   3                       0                       6                      46
   120   3                       2                       4                      46
   121   2                       0                       8                       0
   122   4                       2                      10                       2
   123   3                       2                      10                       0
   124   3                       0                      10                       2
   125   3                       2                       8                       2
   126   1                       0                       8                       4
   127   4                       2                      10                       6
   128   3                       2                      10                       4
   129   3                       0                      10                       6
   130   3                       2                       8                       6
   131   1                       0                       8                       8
   132   4                       2                      10                      10
   133   3                       2                      10                       8
   134   3                       0                      10                      10
   135   3                       2                       8                      10
   136   1                       0                       8                      12
   137   4                       2                      10                      14
   138   3                       2                      10                      12
   139   3                       0                      10                      14
   140   3                       2                       8                      14
   141   2                       0                       8                      16
   142   4                       2                      10                      18
   143   3                       2                      10                      16
   144   3                       0                      10                      18
   145   3                       2                       8                      18
   146   1                       0                       8                      20
   147   4                       2                      10                      22
   148   3                       2                      10                      20
   149   3                       0                      10                      22
   150   3                       2                       8                      22
   151   2                       0                       8                      24
   152   4                       2                      10                      26
   153   3                       2                      10                      24
   154   3                       0                      10                      26
   155   3                       2                       8                      26
   156   1                       0                       8                      28
   157   4                       2                      10                      30
   158   3                       2                      10                      28
   159   3                       0                      10                      30
   160   3                       2                       8                      30
   161   2                       0                       8                      32
   162   4                       2                      10                      34
   163   3                       2                      10                      32
   164   3                       0                      10                      34
   165   3                       2                       8                      34
   166   2                       0                       8                      36
   167   4                       2                      10                      38
   168   3                       2                      10                      36
   169   3                       0                      10                      38
   170   3                       2                       8                      38
   171   2                       0                       8                      40
   172   4                       2                      10                      42
   173   3                       2                      10                      40
   174   3                       0                      10                      42
   175   3                       2                       8                      42
   176   2                       0                       8                      44
   177   4                       2                      10                      46
   178   3                       2                      10                      44
   179   3                       0                      10                      46
   180   3                       2                       8                      46
   181   2                       0                      12                       0
   182   4                       2                      14                       2
   183   3                       2                      14                       0
   184   3                       0                      14                       2
   185   3                       2                      12                       2
   186   2                       0                      12                       4
   187   4                       2                      14                       6
   188   3                       2                      14                       4
   189   3                       0                      14                       6
   190   3                       2                      12                       6
   191   2                       0                      12                       8
   192   4                       2                      14                      10
   193   3                       2                      14                       8
   194   3                       0                      14                      10
   195   3                       2                      12                      10
   196   2                       0                      12                      12
   197   4                       2                      14                      14
   198   3                       2                      14                      12
   199   3                       0                      14                      14
   200   3                       2                      12                      14
   201   1                       0                      12                      16
   202   4                       2                      14                      18
   203   3                       2                      14                      16
   204   3                       0                      14                      18
   205   3                       2                      12                      18
   206   1                       0                      12                      20
   207   4                       2                      14                      22
   208   3                       2                      14                      20
   209   3                       0                      14                      22
   210   3                       2                      12                      22
   211   2                       0                      12                      24
   212   4                       2                      14                      26
   213   3                       2                      14                      24
   214   3                       0                      14                      26
   215   3                       2                      12                      26
   216   2                       0                      12                      28
   217   4                       2                      14                      30
   218   3                       2                      14                      28
   219   3                       0                      14                      30
   220   3                       2                      12                      30
   221   2                       0                      12                      32
   222   4                       2                      14                      34
   223   3                       2                      14                      32
   224   3                       0                      14                      34
   225   3                       2                      12                      34
   226   1                       0                      12                      36
   227   4                       2                      14                      38
   228   3                       2                      14                      36
   229   3                       0                      14                      38
   230   3                       2                      12                      38
   231   1                       0                      12                      40
   232   4                       2                      14                      42
   233   3                       2                      14                      40
   234   3                       0                      14                      42
   235   3                       2                      12                      42
   236   1                       0                      12                      44
   237   4                       2                      14                      46
   238   3                       2                      14                      44
   239   3                       0                      14                      46
   240   3                       2                      12                      46
   241   1                       0                      16                       0
   242   4                       2                      18                       2
   243   3                       2                      18                       0
   244   3                       0                      18                       2
   245   3                       2                      16                       2
   246   1                       0                      16                       4
   247   4                       2                      18                       6
   248   3                       2                      18                       4
   249   3                       0                      18                       6
   250   3                       2                      16                       6
   251   2                       0                      16                       8
   252   4                       2                      18                      10
   253   3                       2                      18                       8
   254   3                       0                      18                      10
   255   3                       2                      16                      10
   256   2                       0                      16                      12
   257   4                       2                      18                      14
   258   3                       2                      18                      12
   259   3                       0                      18                      14
   260   3                       2                      16                      14
   261   2                       0                      16                      16
   262   4                       2                      18                      18
   263   3                       2                      18                      16
   264   3                       0                      18                      18
   265   3                       2                      16                      18
   266   2                       0                      16                      20
   267   4                       2                      18                      22
   268   3                       2                      18                      20
   269   3                       0                      18                      22
   270   3                       2                      16                      22
   271   2                       0                      16                      24
   272   4                       2                      18                      26
   273   3                       2                      18                      24
   274   3                       0                      18                      26
   275   3                       2                      16                      26
   276   1                       0                      16                      28
   277   4                       2                      18                      30
   278   3                       2                      18                      28
   279   3                       0                      18                      30
   280   3                       2                      16                      30
   281   2                       0                      16                      32
   282   4                       2                      18                      34
   283   3                       2                      18                      32
   284   3                       0                      18                      34
   285   3                       2                      16                      34
   286   1                       0                      16                      36
   287   4                       2                      18                      38
   288   3                       2                      18                      36
   289   3                       0                      18                      38
   290   3                       2                      16                      38
   291   2                       0                      16                      40
   292   4                       2                      18                      42
   293   3                       2                      18                      40
   294   3                       0                      18                      42
   295   3                       2                      16                      42
   296   2                       0                      16                      44
   297   4                       2                      18                      46
   298   3                       2                      18                      44
   299   3                       0                      18                      46
   300   3                       2                      16                      46
   301   1                       0                      20                       0
   302   4                       2                      22                       2
   303   3                       2                      22                       0
   304   3                       0                      22                       2
   305   3                       2                      20                       2
   306   2                       0                      20                       4
   307   4                       2                      22                       6
   308   3                       2                      22                       4
   309   3                       0                      22                       6
   310   3                       2                      20                       6
   311   1                       0                      20                       8
   312   4                       2                      22                      10
   313   3                       2                      22                       8
   314   3                       0                      22                      10
   315   3                       2                      20                      10
   316   1                       0                      20                      12
   317   4                       2                      22                      14
   318   3                       2                      22                      12
   319   3                       0                      22                      14
   320   3                       2                      20                      14
   321   1                       0                      20                      16
   322   4                       2                      22                      18
   323   3                       2                      22                      16
   324   3                       0                      22                      18
   325   3                       2                      20                      18
   326   1                       0                      20                      20
   327   4                       2                      22                      22
   328   3                       2                      22                      20
   329   3                       0                      22                      22
   330   3                       2                      20                      22
   331   2                       0                      20                      24
   332   4                       2                      22                      26
   333   3                       2                      22                      24
   334   3                       0                      22                      26
   335   3                       2                      20                      26
   336   2                       0                      20                      28
   337   4                       2                      22                      30
   338   3                       2                      22                      28
   339   3                       0                      22                      30
   340   3                       2                      20                      30
   341   2                       0                      20                      32
   342   4                       2                      22                      34
   343   3                       2                      22                      32
   344   3                       0                      22                      34
   345   3                       2                      20                      34
   346   2                       0                      20                      36
   347   4                       2                      22                      38
   348   3                       2                      22                      36
   349   3                       0                      22                      38
   350   3                       2                      20                      38
   351   1                       0                      20                      40
   352   4                       2                      22                      42
   353   3                       2                      22                      40
   354   3                       0                      22                      42
   355   3                       2                      20                      42
   356   1                       0                      20                      44
   357   4                       2                      22                      46
   358   3                       2                      22                      44
   359   3                       0                      22                      46
   360   3                       2                      20                      46
   361   2                       0                      24                       0
   362   4                       2                      26                       2
   363   3                       2                      26                       0
   364   3                       0                      26                       2
   365   3                       2                      24                       2
   366   2                       0                      24                       4
   367   4                       2                      26                       6
   368   3                       2                      26                       4
   369   3                       0                      26                       6
   370   3                       2                      24                       6
   371   1                       0                      24                       8
   372   4                       2                      26                      10
   373   3                       2                      26                       8
   374   3                       0                      26                      10
   375   3                       2                      24                      10
   376   2                       0                      24                      12
   377   4                       2                      26                      14
   378   3                       2                      26                      12
   379   3                       0                      26                      14
   380   3                       2                      24                      14
   381   2                       0                      24                      16
   382   4                       2                      26                      18
   383   3                       2                      26                      16
   384   3                       0                      26                      18
   385   3                       2                      24                      18
   386   2                       0                      24                      20
   387   4                       2                      26                      22
   388   3                       2                      26                      20
   389   3                       0                      26                      22
   390   3                       2                      24                      22
   391   2                       0                      24                      24
   392   4                       2                      26                      26
   393   3                       2                      26                      24
   394   3                       0                      26                      26
   395   3                       2                      24                      26
   396   1                       0                      24                      28
   397   4                       2                      26                      30
   398   3                       2                      26                      28
   399   3                       0                      26                      30
   400   3                       2                      24                      30
   401   1                       0                      24                      32
   402   4                       2                      26                      34
   403   3                       2                      26                      32
   404   3                       0                      26                      34
   405   3                       2                      24                      34
   406   1                       0                      24                      36
   407   4                       2                      26                      38
   408   3                       2                      26                      36
   409   3                       0                      26                      38
   410   3                       2                      24                      38
   411   2                       0                      24                      40
   412   4                       2                      26                      42
   413   3                       2                      26                      40
   414   3                       0                      26                      42
   415   3                       2                      24                      42
   416   2                       0                      24                      44
   417   4                       2                      26                      46
   418   3                       2                      26                      44
   419   3                       0                      26                      46
   420   3                       2                      24                      46
   421   2                       0                      28                       0
   422   4                       2                      30                       2
   423   3                       2                      30                       0
   424   3                       0                      30                       2
   425   3                       2                      28                       2
   426   1                       0                      28                       4
   427   4                       2                      30                       6
   428   3                       2                      30                       4
   429   3                       0                      30                       6
   430   3                       2                      28                       6
   431   1                       0                      28                       8
   432   4                       2                      30                      10
   433   3                       2                      30                       8
   434   3                       0                      30                      10
   435   3                       2                      28                      10
   436   1                       0                      28                      12
   437   4                       2                      30                      14
   438   3                       2                      30                      12
   439   3                       0                      30                      14
   440   3                       2                      28                      14
   441   1                       0                      28                      16
   442   4                       2                      30                      18
   443   3                       2                      30                      16
   444   3                       0                      30                      18
   445   3                       2                      28                      18
   446   2                       0                      28                      20
   447   4                       2                      30                      22
   448   3                       2                      30                      20
   449   3                       0                      30                      22
   450   3                       2                      28                      22
   451   2                       0                      28                      24
   452   4                       2                      30                      26
   453   3                       2                      30                      24
   454   3                       0                      30                      26
   455   3                       2                      28                      26
   456   2                       0                      28                      28
   457   4                       2                      30                      30
   458   3                       2                      30                      28
   459   3                       0                      30                      30
   460   3                       2                      28                      30
   461   2                       0                      28                      32
   462   4                       2                      30                      34
   463   3                       2                      30                      32
   464   3                       0                      30                      34
   465   3                       2                      28                      34
   466   2                       0                      28                      36
   467   4                       2                      30                      38
   468   3                       2                      30                      36
   469   3                       0                      30                      38
   470   3                       2                      28                      38
   471   2                       0                      28                      40
   472   4                       2                      30                      42
   473   3                       2                      30                      40
   474   3                       0                      30                      42
   475   3                       2                      28                      42
   476   1                       0                      28                      44
   477   4                       2                      30                      46
   478   3                       2                      30                      44
   479   3                       0                      30                      46
   480   3                       2                      28                      46
   481   2                       0                      32                       0
   482   4                       2                      34                       2
   483   3                       2                      34                       0
   484   3                       0                      34                       2
   485   3                       2                      32                       2
   486   2                       0                      32                       4
   487   4                       2                      34                       6
   488   3                       2                      34                       4
   489   3                       0                      34                       6
   490   3                       2                      32                       6
   491   1                       0                      32                       8
   492   4                       2                      34                      10
   493   3                       2                      34                       8
   494   3                       0                      34                      10
   495   3                       2                      32                      10
   496   2                       0                      32                      12
   497   4                       2                      34                      14
   498   3                       2                      34                      12
   499   3                       0                      34                      14
   500   3                       2                      32                      14
   501   1                       0                      32                      16
   502   4                       2                      34                      18
   503   3                       2                      34                      16
   504   3                       0                      34                      18
   505   3                       2                      32                      18
   506   2                       0                      32                      20
   507   4                       2                      34                      22
   508   3                       2                      34                      20
   509   3                       0                      34                      22
   510   3                       2                      32                      22
   511   1                       0                      32                      24
   512   4                       2                      34                      26
   513   3                       2                      34                      24
   514   3                       0                      34                      26
   515   3                       2                      32                      26
   516   2                       0                      32                      28
   517   4                       2                      34                      30
   518   3                       2                      34                      28
   519   3                       0                      34                      30
   520   3                       2                      32                      30
   521   2                       0                      32                      32
   522   4                       2                      34                      34
   523   3                       2                      34                      32
   524   3                       0                      34                      34
   525   3                       2                      32                      34
   526   2                       0                      32                      36
   527   4                       2                      34                      38
   528   3                       2                      34                      36
   529   3                       0                      34                      38
   530   3                       2                      32                      38
   531   1                       0                      32                      40
   532   4                       2                      34                      42
   533   3                       2                      34                      40
   534   3                       0                      34                      42
   535   3                       2                      32                      42
   536   2                       0                      32                      44
   537   4                       2                      34                      46
   538   3                       2                      34                      44
   539   3                       0                      34                      46
   540   3                       2                      32                      46
   541   2                       0                      36                       0
   542   4                       2                      38                       2
   543   3                       2                      38                       0
   544   3                       0                      38                       2
   545   3                       2                      36                       2
   546   2                       0                      36                       4
   547   4                       2                      38                       6
   548   3                       2                      38                       4
   549   3                       0                      38                       6
   550   3                       2                      36                       6
   551   2                       0                      36                       8
   552   4                       2                      38                      10
   553   3                       2                      38                       8
   554   3                       0                      38                      10
   555   3                       2                      36                      10
   556   2                       0                      36                      12
   557   4                       2                      38                      14
   558   3                       2                      38                      12
   559   3                       0                      38                      14
   560   3                       2                      36                      14
   561   2                       0                      36                      16
   562   4                       2                      38                      18
   563   3                       2                      38                      16
   564   3                       0                      38                      18
   565   3                       2                      36                      18
   566   2                       0                      36                      20
   567   4                       2                      38                      22
   568   3                       2                      38                      20
   569   3                       0                      38                      22
   570   3                       2                      36                      22
   571   2                       0                      36                      24
   572   4                       2                      38                      26
   573   3                       2                      38                      24
   574   3                       0                      38                      26
   575   3                       2                      36                      26
   576   1                       0                      36                      28
   577   4                       2                      38                      30
   578   3                       2                      38                      28
   579   3                       0                      38                      30
   580   3                       2                      36                      30
   581   2                       0                      36                      32
   582   4                       2                      38                      34
   583   3                       2                      38                      32
   584   3                       0                      38                      34
   585   3                       2                      36                      34
   586   1                       0                      36                      36
   587   4                       2                      38                      38
   588   3                       2                      38                      36
   589   3                       0                      38                      38
   590   3                       2                      36                      38
   591   1                       0                      36                      40
   592   4                       2                      38                      42
   593   3                       2                      38                      40
   594   3                       0                      38                      42
   595   3                       2                      36                      42
   596   2                       0                      36                      44
   597   4                       2                      38                      46
   598   3                       2                      38                      44
   599   3                       0                      38                      46
   600   3                       2                      36                      46
   601   1                       0                      40                       0
   602   4                       2                      42                       2
   603   3                       2                      42                       0
   604   3                       0                      42                       2
   605   3                       2                      40                       2
   606   2                       0                      40                       4
   607   4                       2                      42                       6
   608   3                       2                      42                       4
   609   3                       0                      42                       6
   610   3                       2                      40                       6
   611   2                       0                      40                       8
   612   4                       2                      42                      10
   613   3                       2                      42                       8
   614   3                       0                      42                      10
   615   3                       2                      40                      10
   616   1                       0                      40                      12
   617   4                       2                      42                      14
   618   3                       2                      42                      12
   619   3                       0                      42                      14
   620   3                       2                      40                      14
   621   1                       0                      40                      16
   622   4                       2                      42                      18
   623   3                       2                      42                      16
   624   3                       0                      42                      18
   625   3                       2                      40                      18
   626   2                       0                      40                      20
   627   4                       2                      42                      22
   628   3                       2                      42                      20
   629   3                       0                      42                      22
   630   3                       2                      40                      22
   631   2                       0                      40                      24
   632   4                       2                      42                      26
   633   3                       2                      42                      24
   634   3                       0                      42                      26
   635   3                       2                      40                      26
   636   1                       0                      40                      28
   637   4                       2                      42                      30
   638   3                       2                      42                      28
   639   3                       0                      42                      30
   640   3                       2                      40                      30
   641   2                       0                      40                      32
   642   4                       2                      42                      34
   643   3                       2                      42                      32
   644   3                       0                      42                      34
   645   3                       2                      40                      34
   646   2                       0                      40                      36
   647   4                       2                      42                      38
   648   3                       2                      42                      36
   649   3                       0                      42                      38
   650   3                       2                      40                      38
   651   2                       0                      40                      40
   652   4                       2                      42                      42
   653   3                       2                      42                      40
   654   3                       0                      42                      42
   655   3                       2                      40                      42
   656   2                       0                      40                      44
   657   4                       2                      42                      46
   658   3                       2                      42                      44
   659   3                       0                      42                      46
   660   3                       2                      40                      46
   661   2                       0                      44                       0
   662   4                       2                      46                       2
   663   3                       2                      46                       0
   664   3                       0                      46                       2
   665   3                       2                      44                       2
   666   2                       0                      44                       4
   667   4                       2                      46                       6
   668   3                       2                      46                       4
   669   3                       0                      46                       6
   670   3                       2                      44                       6
   671   2                       0                      44                       8
   672   4                       2                      46                      10
   673   3                       2                      46                       8
   674   3                       0                      46                      10
   675   3                       2                      44                      10
   676   2                       0                      44                      12
   677   4                       2                      46                      14
   678   3                       2                      46                      12
   679   3                       0                      46                      14
   680   3                       2                      44                      14
   681   2                       0                      44                      16
   682   4                       2                      46                      18
   683   3                       2                      46                      16
   684   3                       0                      46                      18
   685   3                       2                      44                      18
   686   1                       0                      44                      20
   687   4                       2                      46                      22
   688   3                       2                      46                      20
   689   3                       0                      46                      22
   690   3                       2                      44                      22
   691   2                       0                      44                      24
   692   4                       2                      46                      26
   693   3                       2                      46                      24
   694   3                       0                      46                      26
   695   3                       2                      44                      26
   696   2                       0                      44                      28
   697   4                       2                      46                      30
   698   3                       2                      46                      28
   699   3                       0                      46                      30
   700   3                       2                      44                      30
   701   2                       0                      44                      32
   702   4                       2                      46                      34
   703   3                       2                      46                      32
   704   3                       0                      46                      34
   705   3                       2                      44                      34
   706   1                       0                      44                      36
   707   4                       2                      46                      38
   708   3                       2                      46                      36
   709   3                       0                      46                      38
   710   3                       2                      44                      38
   711   2                       0                      44                      40
   712   4                       2                      46                      42
   713   3                       2                      46                      40
   714   3                       0                      46                      42
   715   3                       2                      44                      42
   716   2                       0                      44                      44
   717   4                       2                      46                      46
   718   3                       2                      46                      44
   719   3                       0                      46                      46
   720   3                       2                      44                      46
   721   1                       4                       0                       0
   722   4                       6                       2                       2
   723   3                       6                       2                       0
   724   3                       4                       2                       2
   725   3                       6                       0                       2
   726   1                       4                       0                       4
   727   4                       6                       2                       6
   728   3                       6                       2                       4
   729   3                       4                       2                       6
   730   3                       6                       0                       6
   731   2                       4                       0                       8
   732   4                       6                       2                      10
   733   3                       6                       2                       8
   734   3                       4                       2                      10
   735   3                       6                       0                      10
   736   2                       4                       0                      12
   737   4                       6                       2                      14
   738   3                       6                       2                      12
   739   3                       4                       2                      14
   740   3                       6                       0                      14
   741   1                       4                       0                      16
   742   4                       6                       2                      18
   743   3                       6                       2                      16
   744   3                       4                       2                      18
   745   3                       6                       0                      18
   746   2                       4                       0                      20
   747   4                       6                       2                      22
   748   3                       6                       2                      20
   749   3                       4                       2                      22
   750   3                       6                       0                      22
   751   2                       4                       0                      24
   752   4                       6                       2                      26
   753   3                       6                       2                      24
   754   3                       4                       2                      26
   755   3                       6                       0                      26
   756   2                       4                       0                      28
   757   4                       6                       2                      30
   758   3                       6                       2                      28
   759   3                       4                       2                      30
   760   3                       6                       0                      30
   761   1                       4                       0                      32
   762   4                       6                       2                      34
   763   3                       6                       2                      32
   764   3                       4                       2                      34
   765   3                       6                       0                      34
   766   1                       4                       0                      36
   767   4                       6                       2                      38
   768   3                       6                       2                      36
   769   3                       4                       2                      38
   770   3                       6                       0                      38
   771   2                       4                       0                      40
   772   4                       6                       2                      42
   773   3                       6                       2                      40
   774   3                       4                       2                      42
   775   3                       6                       0                      42
   776   2                       4                       0                      44
   777   4                       6                       2                      46
   778   3                       6                       2                      44
   779   3                       4                       2                      46
   780   3                       6                       0                      46
   781   2                       4                       4                       0
   782   4                       6                       6                       2
   783   3                       6                       6                       0
   784   3                       4                       6                       2
   785   3                       6                       4                       2
   786   2                       4                       4                       4
   787   4                       6                       6                       6
   788   3                       6                       6                       4
   789   3                       4                       6                       6
   790   3                       6                       4                       6
   791   2                       4                       4                       8
   792   4                       6                       6                      10
   793   3                       6                       6                       8
   794   3                       4                       6                      10
   795   3                       6                       4                      10
   796   2                       4                       4                      12
   797   4                       6                       6                      14
   798   3                       6                       6                      12
   799   3                       4                       6                      14
   800   3                       6                       4                      14
   801   1                       4                       4                      16
   802   4                       6                       6                      18
   803   3                       6                       6                      16
   804   3                       4                       6                      18
   805   3                       6                       4                      18
   806   1                       4                       4                      20
   807   4                       6                       6                      22
   808   3                       6                       6                      20
   809   3                       4                       6                      22
   810   3                       6                       4                      22
   811   2                       4                       4                      24
   812   4                       6                       6                      26
   813   3                       6                       6                      24
   814   3                       4                       6                      26
   815   3                       6                       4                      26
   816   1                       4                       4                      28
   817   4                       6                       6                      30
   818   3                       6                       6                      28
   819   3                       4                       6                      30
   820   3                       6                       4                      30
   821   2                       4                       4                      32
   822   4                       6                       6                      34
   823   3                       6                       6                      32
   824   3                       4                       6                      34
   825   3                       6                       4                      34
   826   2                       4                       4                      36
   827   4                       6                       6                      38
   828   3                       6                       6                      36
   829   3                       4                       6                      38
   830   3                       6                       4                      38
   831   2                       4                       4                      40
   832   4                       6                       6                      42
   833   3                       6                       6                      40
   834   3                       4                       6                      42
   835   3                       6                       4                      42
   836   1                       4                       4                      44
   837   4                       6                       6                      46
   838   3                       6                       6                      44
   839   3                       4                       6                      46
   840   3                       6                       4                      46
   841   1                       4                       8                       0
   842   4                       6                      10                       2
   843   3                       6                      10                       0
   844   3                       4                      10                       2
   845   3                       6                       8                       2
   846   1                       4                       8                       4
   847   4                       6                      10                       6
   848   3                       6                      10                       4
   849   3                       4                      10                       6
   850   3                       6                       8                       6
   851   2                       4                       8                       8
   852   4                       6                      10                      10
   853   3                       6                      10                       8
   854   3                       4                      10                      10
   855   3                       6                       8                      10
   856   2                       4                       8                      12
   857   4                       6                      10                      14
   858   3                       6                      10                      12
   859   3                       4                      10                      14
   860   3                       6                       8                      14
   861   2                       4                       8                      16
   862   4                       6                      10                      18
   863   3                       6                      10                      16
   864   3                       4                      10                      18
   865   3                       6                       8                      18
   866   2                       4                       8                      20
   867   4                       6                      10                      22
   868   3                       6                      10                      20
   869   3                       4                      10                      22
   870   3                       6                       8                      22
   871   2                       4                       8                      24
   872   4                       6                      10                      26
   873   3                       6                      10                      24
   874   3                       4                      10                      26
   875   3                       6                       8                      26
   876   2                       4                       8                      28
   877   4                       6                      10                      30
   878   3                       6                      10                      28
   879   3                       4                      10                      30
   880   3                       6                       8                      30
   881   2                       4                       8                      32
   882   4                       6                      10                      34
   883   3                       6                      10                      32
   884   3                       4                      10                      34
   885   3                       6                       8                      34
   886   2                       4                       8                      36
   887   4                       6                      10                      38
   888   3                       6                      10                      36
   889   3                       4                      10                      38
   890   3                       6                       8                      38
   891   2                       4                       8                      40
   892   4                       6                      10                      42
   893   3                       6                      10                      40
   894   3                       4                      10                      42
   895   3                       6                       8                      42
   896   2                       4                       8                      44
   897   4                       6                      10                      46
   898   3                       6                      10                      44
   899   3                       4                      10                      46
   900   3                       6                       8                      46
   901   2                       4                      12                       0
   902   4                       6                      14                       2
   903   3                       6                      14                       0
   904   3                       4                      14                       2
   905   3                       6                      12                       2
   906   1                       4                      12                       4
   907   4                       6                      14                       6
   908   3                       6                      14                       4
   909   3                       4                      14                       6
   910   3                       6                      12                       6
   911   2                       4                      12                       8
   912   4                       6                      14                      10
   913   3                       6                      14                       8
   914   3                       4                      14                      10
   915   3                       6                      12                      10
   916   2                       4                      12                      12
   917   4                       6                      14                      14
   918   3                       6                      14                      12
   919   3                       4                      14                      14
   920   3                       6                      12                      14
   921   1                       4                      12                      16
   922   4                       6                      14                      18
   923   3                       6                      14                      16
   924   3                       4                      14                      18
   925   3                       6                      12                      18
   926   2                       4                      12                      20
   927   4                       6                      14                      22
   928   3                       6                      14                      20
   929   3                       4                      14                      22
   930   3                       6                      12                      22
   931   2                       4                      12                      24
   932   4                       6                      14                      26
   933   3                       6                      14                      24
   934   3                       4                      14                      26
   935   3                       6                      12                      26
   936   2                       4                      12                      28
   937   4                       6                      14                      30
   938   3                       6                      14                      28
   939   3                       4                      14                      30
   940   3                       6                      12                      30
   941   2                       4                      12                      32
   942   4                       6                      14                      34
   943   3                       6                      14                      32
   944   3                       4                      14                      34
   945   3                       6                      12                      34
   946   1                       4                      12                      36
   947   4                       6                      14                      38
   948   3                       6                      14                      36
   949   3                       4                      14                      38
   950   3                       6                      12                      38
   951   2                       4                      12                      40
   952   4                       6                      14                      42
   953   3                       6                      14                      40
   954   3                       4                      14                      42
   955   3                       6                      12                      42
   956   2                       4                      12                      44
   957   4                       6                      14                      46
   958   3                       6                      14                      44
   959   3                       4                      14                      46
   960   3                       6                      12                      46
   961   1                       4                      16                       0
   962   4                       6                      18                       2
   963   3                       6                      18                       0
   964   3                       4                      18                       2
   965   3                       6                      16                       2
   966   1                       4                      16                       4
   967   4                       6                      18                       6
   968   3                       6                      18                       4
   969   3                       4                      18                       6
   970   3                       6                      16                       6
   971   2                       4                      16                       8
   972   4                       6                      18                      10
   973   3                       6                      18                       8
   974   3                       4                      18                      10
   975   3                       6                      16                      10
   976   1                       4                      16                      12
   977   4                       6                      18                      14
   978   3                       6                      18                      12
   979   3                       4                      18                      14
   980   3                       6                      16                      14
   981   2                       4                      16                      16
   982   4                       6                      18                      18
   983   3                       6                      18                      16
   984   3                       4                      18                      18
   985   3                       6                      16                      18
   986   2                       4                      16                      20
   987   4                       6                      18                      22
   988   3                       6                      18                      20
   989   3                       4                      18                      22
   990   3                       6                      16                      22
   991   2                       4                      16                      24
   992   4                       6                      18                      26
   993   3                       6                      18                      24
   994   3                       4                      18                      26
   995   3                       6                      16                      26
   996   1                       4                      16                      28
   997   4                       6                      18                      30
   998   3                       6                      18                      28
   999   3                       4                      18                      30
  1000   3                       6                      16                      30
  1001   2                       4                      16                      32
  1002   4                       6                      18                      34
  1003   3                       6                      18                      32
  1004   3                       4                      18                      34
  1005   3                       6                      16                      34
  1006   2                       4                      16                      36
  1007   4                       6                      18                      38
  1008   3                       6                      18                      36
  1009   3                       4                      18                      38
  1010   3                       6                      16                      38
  1011   2                       4                      16                      40
  1012   4                       6                      18                      42
  1013   3                       6                      18                      40
  1014   3                       4                      18                      42
  1015   3                       6                      16                      42
  1016   2                       4                      16                      44
  1017   4                       6                      18                      46
  1018   3                       6                      18                      44
  1019   3                       4                      18                      46
  1020   3                       6                      16                      46
  1021   1                       4                      20                       0
  1022   4                       6                      22                       2
  1023   3                       6                      22                       0
  1024   3                       4                      22                       2
  1025   3                       6                      20                       2
  1026   1                       4                      20                       4
  1027   4                       6                      22                       6
  1028   3                       6                      22                       4
  1029   3                       4                      22                       6
  1030   3                       6                      20                       6
  1031   2                       4                      20                       8
  1032   4                       6                      22                      10
  1033   3                       6                      22                       8
  1034   3                       4                      22                      10
  1035   3                       6                      20                      10
  1036   1                       4                      20                      12
  1037   4                       6                      22                      14
  1038   3                       6                      22                      12
  1039   3                       4                      22                      14
  1040   3                       6                      20                      14
  1041   1                       4                      20                      16
  1042   4                       6                      22                      18
  1043   3                       6                      22                      16
  1044   3                       4                      22                      18
  1045   3                       6                      20                      18
  1046   2                       4                      20                      20
  1047   4                       6                      22                      22
  1048   3                       6                      22                      20
  1049   3                       4                      22                      22
  1050   3                       6                      20                      22
  1051   1                       4                      20                      24
  1052   4                       6                      22                      26
  1053   3                       6                      22                      24
  1054   3                       4                      22                      26
  1055   3                       6                      20                      26
  1056   1                       4                      20                      28
  1057   4                       6                      22                      30
  1058   3                       6                      22                      28
  1059   3                       4                      22                      30
  1060   3                       6                      20                      30
  1061   1                       4                      20                      32
  1062   4                       6                      22                      34
  1063   3                       6                      22                      32
  1064   3                       4                      22                      34
  1065   3                       6                      20                      34
  1066   2                       4                      20                      36
  1067   4                       6                      22                      38
  1068   3                       6                      22                      36
  1069   3                       4                      22                      38
  1070   3                       6                      20                      38
  1071   2                       4                      20                      40
  1072   4                       6                      22                      42
  1073   3                       6                      22                      40
  1074   3                       4                      22                      42
  1075   3                       6                      20                      42
  1076   1                       4                      20                      44
  1077   4                       6                      22                      46
  1078   3                       6                      22                      44
  1079   3                       4                      22                      46
  1080   3                       6                      20                      46
  1081   1                       4                      24                       0
  1082   4                       6                      26                       2
  1083   3                       6                      26                       0
  1084   3                       4                      26                       2
  1085   3                       6                      24                       2
  1086   2                       4                      24                       4
  1087   4                       6                      26                       6
  1088   3                       6                      26                       4
  1089   3                       4                      26                       6
  1090   3                       6                      24                       6
  1091   2                       4                      24                       8
  1092   4                       6                      26                      10
  1093   3                       6                      26                       8
  1094   3                       4                      26                      10
  1095   3                       6                      24                      10
  1096   2                       4                      24                      12
  1097   4                       6                      26                      14
  1098   3                       6                      26                      12
  1099   3                       4                      26                      14
  1100   3                       6                      24                      14
  1101   2                       4                      24                      16
  1102   4                       6                      26                      18
  1103   3                       6                      26                      16
  1104   3                       4                      26                      18
  1105   3                       6                      24                      18
  1106   1                       4                      24                      20
  1107   4                       6                      26                      22
  1108   3                       6                      26                      20
  1109   3                       4                      26                      22
  1110   3                       6                      24                      22
  1111   2                       4                      24                      24
  1112   4                       6                      26                      26
  1113   3                       6                      26                      24
  1114   3                       4                      26                      26
  1115   3                       6                      24                      26
  1116   2                       4                      24                      28
  1117   4                       6                      26                      30
  1118   3                       6                      26                      28
  1119   3                       4                      26                      30
  1120   3                       6                      24                      30
  1121   2                       4                      24                      32
  1122   4                       6                      26                      34
  1123   3                       6                      26                      32
  1124   3                       4                      26                      34
  1125   3                       6                      24                      34
  1126   1                       4                      24                      36
  1127   4                       6                      26                      38
  1128   3                       6                      26                      36
  1129   3                       4                      26                      38
  1130   3                       6                      24                      38
  1131   1                       4                      24                      40
  1132   4                       6                      26                      42
  1133   3                       6                      26                      40
  1134   3                       4                      26                      42
  1135   3                       6                      24                      42
  1136   1                       4                      24                      44
  1137   4                       6                      26                      46
  1138   3                       6                      26                      44
  1139   3                       4                      26                      46
  1140   3                       6                      24                      46
  1141   2                       4                      28                       0
  1142   4                       6                      30                       2
  1143   3                       6                      30                       0
  1144   3                       4                      30                       2
  1145   3                       6                      28                       2
  1146   2                       4                      28                       4
  1147   4                       6                      30                       6
  1148   3                       6                      30                       4
  1149   3                       4                      30                       6
  1150   3                       6                      28                       6
  1151   2                       4                      28                       8
  1152   4                       6                      30                      10
  1153   3                       6                      30                       8
  1154   3                       4                      30                      10
  1155   3                       6                      28                      10
  1156   1                       4                      28                      12
  1157   4                       6                      30                      14
  1158   3                       6                      30                      12
  1159   3                       4                      30                      14
  1160   3                       6                      28                      14
  1161   1                       4                      28                      16
  1162   4                       6                      30                      18
  1163   3                       6                      30                      16
  1164   3                       4                      30                      18
  1165   3                       6                      28                      18
  1166   2                       4                      28                      20
  1167   4                       6                      30                      22
  1168   3                       6                      30                      20
  1169   3                       4                      30                      22
  1170   3                       6                      28                      22
  1171   2                       4                      28                      24
  1172   4                       6                      30                      26
  1173   3                       6                      30                      24
  1174   3                       4                      30                      26
  1175   3                       6                      28                      26
  1176   2                       4                      28                      28
  1177   4                       6                      30                      30
  1178   3                       6                      30                      28
  1179   3                       4                      30                      30
  1180   3                       6                      28                      30
  1181   2                       4                      28                      32
  1182   4                       6                      30                      34
  1183   3                       6                      30                      32
  1184   3                       4                      30                      34
  1185   3                       6                      28                      34
  1186   2                       4                      28                      36
  1187   4                       6                      30                      38
  1188   3                       6                      30                      36
  1189   3                       4                      30                      38
  1190   3                       6                      28                      38
  1191   1                       4                      28                      40
  1192   4                       6                      30                      42
  1193   3                       6                      30                      40
  1194   3                       4                      30                      42
  1195   3                       6                      28                      42
  1196   1                       4                      28                      44
  1197   4                       6                      30                      46
  1198   3                       6                      30                      44
  1199   3                       4                      30                      46
  1200   3                       6                      28                      46
  1201   1                       4                      32                       0
  1202   4                       6                      34                       2
  1203   3                       6                      34                       0
  1204   3                       4                      34                       2
  1205   3                       6                      32                       2
  1206   2                       4                      32                       4
  1207   4                       6                      34                       6
  1208   3                       6                      34                       4
  1209   3                       4                      34                       6
  1210   3                       6                      32                       6
  1211   2                       4                      32                       8
  1212   4                       6                      34                      10
  1213   3                       6                      34                       8
  1214   3                       4                      34                      10
  1215   3                       6                      32                      10
  1216   2                       4                      32                      12
  1217   4                       6                      34                      14
  1218   3                       6                      34                      12
  1219   3                       4                      34                      14
  1220   3                       6                      32                      14
  1221   2                       4                      32                      16
  1222   4                       6                      34                      18
  1223   3                       6                      34                      16
  1224   3                       4                      34                      18
  1225   3                       6                      32                      18
  1226   1                       4                      32                      20
  1227   4                       6                      34                      22
  1228   3                       6                      34                      20
  1229   3                       4                      34                      22
  1230   3                       6                      32                      22
  1231   1                       4                      32                      24
  1232   4                       6                      34                      26
  1233   3                       6                      34                      24
  1234   3                       4                      34                      26
  1235   3                       6                      32                      26
  1236   1                       4                      32                      28
  1237   4                       6                      34                      30
  1238   3                       6                      34                      28
  1239   3                       4                      34                      30
  1240   3                       6                      32                      30
  1241   2                       4                      32                      32
  1242   4                       6                      34                      34
  1243   3                       6                      34                      32
  1244   3                       4                      34                      34
  1245   3                       6                      32                      34
  1246   2                       4                      32                      36
  1247   4                       6                      34                      38
  1248   3                       6                      34                      36
  1249   3                       4                      34                      38
  1250   3                       6                      32                      38
  1251   2                       4                      32                      40
  1252   4                       6                      34                      42
  1253   3                       6                      34                      40
  1254   3                       4                      34                      42
  1255   3                       6                      32                      42
  1256   2                       4                      32                      44
  1257   4                       6                      34                      46
  1258   3                       6                      34                      44
  1259   3                       4                      34                      46
  1260   3                       6                      32                      46
  1261   2                       4                      36                       0
  1262   4                       6                      38                       2
  1263   3                       6                      38                       0
  1264   3                       4                      38                       2
  1265   3                       6                      36                       2
  1266   2                       4                      36                       4
  1267   4                       6                      38                       6
  1268   3                       6                      38                       4
  1269   3                       4                      38                       6
  1270   3                       6                      36                       6
  1271   2                       4                      36                       8
  1272   4                       6                      38                      10
  1273   3                       6                      38                       8
  1274   3                       4                      38                      10
  1275   3                       6                      36                      10
  1276   1                       4                      36                      12
  1277   4                       6                      38                      14
  1278   3                       6                      38                      12
  1279   3                       4                      38                      14
  1280   3                       6                      36                      14
  1281   2                       4                      36                      16
  1282   4                       6                      38                      18
  1283   3                       6                      38                      16
  1284   3                       4                      38                      18
  1285   3                       6                      36                      18
  1286   2                       4                      36                      20
  1287   4                       6                      38                      22
  1288   3                       6                      38                      20
  1289   3                       4                      38                      22
  1290   3                       6                      36                      22
  1291   2                       4                      36                      24
  1292   4                       6                      38                      26
  1293   3                       6                      38                      24
  1294   3                       4                      38                      26
  1295   3                       6                      36                      26
  1296   2                       4                      36                      28
  1297   4                       6                      38                      30
  1298   3                       6                      38                      28
  1299   3                       4                      38                      30
  1300   3                       6                      36                      30
  1301   2                       4                      36                      32
  1302   4                       6                      38                      34
  1303   3                       6                      38                      32
  1304   3                       4                      38                      34
  1305   3                       6                      36                      34
  1306   2                       4                      36                      36
  1307   4                       6                      38                      38
  1308   3                       6                      38                      36
  1309   3                       4                      38                      38
  1310   3                       6                      36                      38
  1311   1                       4                      36                      40
  1312   4                       6                      38                      42
  1313   3                       6                      38                      40
  1314   3                       4                      38                      42
  1315   3                       6                      36                      42
  1316   2                       4                      36                      44
  1317   4                       6                      38                      46
  1318   3                       6                      38                      44
  1319   3                       4                      38                      46
  1320   3                       6                      36                      46
  1321   2                       4                      40                       0
  1322   4                       6                      42                       2
  1323   3                       6                      42                       0
  1324   3                       4                      42                       2
  1325   3                       6                      40                       2
  1326   2                       4                      40                       4
  1327   4                       6                      42                       6
  1328   3                       6                      42                       4
  1329   3                       4                      42                       6
  1330   3                       6                      40                       6
  1331   1                       4                      40                       8
  1332   4                       6                      42                      10
  1333   3                       6                      42                       8
  1334   3                       4                      42                      10
  1335   3                       6                      40                      10
  1336   1                       4                      40                      12
  1337   4                       6                      42                      14
  1338   3                       6                      42                      12
  1339   3                       4                      42                      14
  1340   3                       6                      40                      14
  1341   2                       4                      40                      16
  1342   4                       6                      42                      18
  1343   3                       6                      42                      16
  1344   3                       4                      42                      18
  1345   3                       6                      40                      18
  1346   1                       4                      40                      20
  1347   4                       6                      42                      22
  1348   3                       6                      42                      20
  1349   3                       4                      42                      22
  1350   3                       6                      40                      22
  1351   2                       4                      40                      24
  1352   4                       6                      42                      26
  1353   3                       6                      42                      24
  1354   3                       4                      42                      26
  1355   3                       6                      40                      26
  1356   2                       4                      40                      28
  1357   4                       6                      42                      30
  1358   3                       6                      42                      28
  1359   3                       4                      42                      30
  1360   3                       6                      40                      30
  1361   1                       4                      40                      32
  1362   4                       6                      42                      34
  1363   3                       6                      42                      32
  1364   3                       4                      42                      34
  1365   3                       6                      40                      34
  1366   1                       4                      40                      36
  1367   4                       6                      42                      38
  1368   3                       6                      42                      36
  1369   3                       4                      42                      38
  1370   3                       6                      40                      38
  1371   1                       4                      40                      40
  1372   4                       6                      42                      42
  1373   3                       6                      42                      40
  1374   3                       4                      42                      42
  1375   3                       6                      40                      42
  1376   2                       4                      40                      44
  1377   4                       6                      42                      46
  1378   3                       6                      42                      44
  1379   3                       4                      42                      46
  1380   3                       6                      40                      46
  1381   2                       4                      44                       0
  1382   4                       6                      46                       2
  1383   3                       6                      46                       0
  1384   3                       4                      46                       2
  1385   3                       6                      44                       2
  1386   2                       4                      44                       4
  1387   4                       6                      46                       6
  1388   3                       6                      46                       4
  1389   3                       4                      46                       6
  1390   3                       6                      44                       6
  1391   2                       4                      44                       8
  1392   4                       6                      46                      10
  1393   3                       6                      46                       8
  1394   3                       4                      46                      10
  1395   3                       6                      44                      10
  1396   1                       4                      44                      12
  1397   4                       6                      46                      14
  1398   3                       6                      46                      12
  1399   3                       4                      46                      14
  1400   3                       6                      44                      14
  1401   2                       4                      44                      16
  1402   4                       6                      46                      18
  1403   3                       6                      46                      16
  1404   3                       4                      46                      18
  1405   3                       6                      44                      18
  1406   2                       4                      44                      20
  1407   4                       6                      46                      22
  1408   3                       6                      46                      20
  1409   3                       4                      46                      22
  1410   3                       6                      44                      22
  1411   2                       4                      44                      24
  1412   4                       6                      46                      26
  1413   3                       6                      46                      24
  1414   3                       4                      46                      26
  1415   3                       6                      44                      26
  1416   1                       4                      44                      28
  1417   4                       6                      46                      30
  1418   3                       6                      46                      28
  1419   3                       4                      46                      30
  1420   3                       6                      44                      30
  1421   2                       4                      44                      32
  1422   4                       6                      46                      34
  1423   3                       6                      46                      32
  1424   3                       4                      46                      34
  1425   3                       6                      44                      34
  1426   1                       4                      44                      36
  1427   4                       6                      46                      38
  1428   3                       6                      46                      36
  1429   3                       4                      46                      38
  1430   3                       6                      44                      38
  1431   2                       4                      44                      40
  1432   4                       6                      46                      42
  1433   3                       6                      46                      40
  1434   3                       4                      46                      42
  1435   3                       6                      44                      42
  1436   2                       4                      44                      44
  1437   4                       6                      46                      46
  1438   3                       6                      46                      44
  1439   3                       4                      46                      46
  1440   3                       6                      44                      46
  1441   2                       8                       0                       0
  1442   4                      10                       2                       2
  1443   3                      10                       2                       0
  1444   3                       8                       2                       2
  1445   3                      10                       0                       2
  1446   2                       8                       0                       4
  1447   4                      10                       2                       6
  1448   3                      10                       2                       4
  1449   3                       8                       2                       6
  1450   3                      10                       0                       6
  1451   1                       8                       0                       8
  1452   4                      10                       2                      10
  1453   3                      10                       2                       8
  1454   3                       8                       2                      10
  1455   3                      10                       0                      10
  1456   1                       8                       0                      12
  1457   4                      10                       2                      14
  1458   3                      10                       2                      12
  1459   3                       8                       2                      14
  1460   3                      10                       0                      14
  1461   2                       8                       0                      16
  1462   4                      10                       2                      18
  1463   3                      10                       2                      16
  1464   3                       8                       2                      18
  1465   3                      10                       0                      18
  1466   1                       8                       0                      20
  1467   4                      10                       2                      22
  1468   3                      10                       2                      20
  1469   3                       8                       2                      22
  1470   3                      10                       0                      22
  1471   2                       8                       0                      24
  1472   4                      10                       2                      26
  1473   3                      10                       2                      24
  1474   3                       8                       2                      26
  1475   3                      10                       0                      26
  1476   1                       8                       0                      28
  1477   4                      10                       2                      30
  1478   3                      10                       2                      28
  1479   3                       8                       2                      30
  1480   3                      10                       0                      30
  1481   2                       8                       0                      32
  1482   4                      10                       2                      34
  1483   3                      10                       2                      32
  1484   3                       8                       2                      34
  1485   3                      10                       0                      34
  1486   2                       8                       0                      36
  1487   4                      10                       2                      38
  1488   3                      10                       2                      36
  1489   3                       8                       2                      38
  1490   3                      10                       0                      38
  1491   1                       8                       0                      40
  1492   4                      10                       2                      42
  1493   3                      10                       2                      40
  1494   3                       8                       2                      42
  1495   3                      10                       0                      42
  1496   1                       8                       0                      44
  1497   4                      10                       2                      46
  1498   3                      10                       2                      44
  1499   3                       8                       2                      46
  1500   3                      10                       0                      46
  1501   1                       8                       4                       0
  1502   4                      10                       6                       2
  1503   3                      10                       6                       0
  1504   3                       8                       6                       2
  1505   3                      10                       4                       2
  1506   2                       8                       4                       4
  1507   4                      10                       6                       6
  1508   3                      10                       6                       4
  1509   3                       8                       6                       6
  1510   3                      10                       4                       6
  1511   1                       8                       4                       8
  1512   4                      10                       6                      10
  1513   3                      10                       6                       8
  1514   3                       8                       6                      10
  1515   3                      10                       4                      10
  1516   2                       8                       4                      12
  1517   4                      10                       6                      14
  1518   3                      10                       6                      12
  1519   3                       8                       6                      14
  1520   3                      10                       4                      14
  1521   2                       8                       4                      16
  1522   4                      10                       6                      18
  1523   3                      10                       6                      16
  1524   3                       8                       6                      18
  1525   3                      10                       4                      18
  1526   2                       8                       4                      20
  1527   4                      10                       6                      22
  1528   3                      10                       6                      20
  1529   3                       8                       6                      22
  1530   3                      10                       4                      22
  1531   2                       8                       4                      24
  1532   4                      10                       6                      26
  1533   3                      10                       6                      24
  1534   3                       8                       6                      26
  1535   3                      10                       4                      26
  1536   2                       8                       4                      28
  1537   4                      10                       6                      30
  1538   3                      10                       6                      28
  1539   3                       8                       6                      30
  1540   3                      10                       4                      30
  1541   1                       8                       4                      32
  1542   4                      10                       6                      34
  1543   3                      10                       6                      32
  1544   3                       8                       6                      34
  1545   3                      10                       4                      34
  1546   2                       8                       4                      36
  1547   4                      10                       6                      38
  1548   3                      10                       6                      36
  1549   3                       8                       6                      38
  1550   3                      10                       4                      38
  1551   1                       8                       4                      40
  1552   4                      10                       6                      42
  1553   3                      10                       6                      40
  1554   3                       8                       6                      42
  1555   3                      10                       4                      42
  1556   1                       8                       4                      44
  1557   4                      10                       6                      46
  1558   3                      10                       6                      44
  1559   3                       8                       6                      46
  1560   3                      10                       4                      46
  1561   2                       8                       8                       0
  1562   4                      10                      10                       2
  1563   3                      10                      10                       0
  1564   3                       8                      10                       2
  1565   3                      10                       8                       2
  1566   1                       8                       8                       4
  1567   4                      10                      10                       6
  1568   3                      10                      10                       4
  1569   3                       8                      10                       6
  1570   3                      10                       8                       6
  1571   1                       8                       8                       8
  1572   4                      10                      10                      10
  1573   3                      10                      10                       8
  1574   3                       8                      10                      10
  1575   3                      10                       8                      10
  1576   2                       8                       8                      12
  1577   4                      10                      10                      14
  1578   3                      10                      10                      12
  1579   3                       8                      10                      14
  1580   3                      10                       8                      14
  1581   1                       8                       8                      16
  1582   4                      10                      10                      18
  1583   3                      10                      10                      16
  1584   3                       8                      10                      18
  1585   3                      10                       8                      18
  1586   2                       8                       8                      20
  1587   4                      10                      10                      22
  1588   3                      10                      10                      20
  1589   3                       8                      10                      22
  1590   3                      10                       8                      22
  1591   1                       8                       8                      24
  1592   4                      10                      10                      26
  1593   3                      10                      10                      24
  1594   3                       8                      10                      26
  1595   3                      10                       8                      26
  1596   2                       8                       8                      28
  1597   4                      10                      10                      30
  1598   3                      10                      10                      28
  1599   3                       8                      10                      30
  1600   3                      10                       8                      30
  1601   2                       8                       8                      32
  1602   4                      10                      10                      34
  1603   3                      10                      10                      32
  1604   3                       8                      10                      34
  1605   3                      10                       8                      34
  1606   2                       8                       8                      36
  1607   4                      10                      10                      38
  1608   3                      10                      10                      36
  1609   3                       8                      10                      38
  1610   3                      10                       8                      38
  1611   1                       8                       8                      40
  1612   4                      10                      10                      42
  1613   3                      10                      10                      40
  1614   3                       8                      10                      42
  1615   3                      10                       8                      42
  1616   2                       8                       8                      44
  1617   4                      10                      10                      46
  1618   3                      10                      10                      44
  1619   3                       8                      10                      46
  1620   3                      10                       8                      46
  1621   1                       8                      12                       0
  1622   4                      10                      14                       2
  1623   3                      10                      14                       0
  1624   3                       8                      14                       2
  1625   3                      10                      12                       2
  1626   2                       8                      12                       4
  1627   4                      10                      14                       6
  1628   3                      10                      14                       4
  1629   3                       8                      14                       6
  1630   3                      10                      12                       6
  1631   2                       8                      12                       8
  1632   4                      10                      14                      10
  1633   3                      10                      14                       8
  1634   3                       8                      14                      10
  1635   3                      10                      12                      10
  1636   2                       8                      12                      12
  1637   4                      10                      14                      14
  1638   3                      10                      14                      12
  1639   3                       8                      14                      14
  1640   3                      10                      12                      14
  1641   2                       8                      12                      16
  1642   4                      10                      14                      18
  1643   3                      10                      14                      16
  1644   3                       8                      14                      18
  1645   3                      10                      12                      18
  1646   2                       8                      12                      20
  1647   4                      10                      14                      22
  1648   3                      10                      14                      20
  1649   3                       8                      14                      22
  1650   3                      10                      12                      22
  1651   2                       8                      12                      24
  1652   4                      10                      14                      26
  1653   3                      10                      14                      24
  1654   3                       8                      14                      26
  1655   3                      10                      12                      26
  1656   2                       8                      12                      28
  1657   4                      10                      14                      30
  1658   3                      10                      14                      28
  1659   3                       8                      14                      30
  1660   3                      10                      12                      30
  1661   2                       8                      12                      32
  1662   4                      10                      14                      34
  1663   3                      10                      14                      32
  1664   3                       8                      14                      34
  1665   3                      10                      12                      34
  1666   2                       8                      12                      36
  1667   4                      10                      14                      38
  1668   3                      10                      14                      36
  1669   3                       8                      14                      38
  1670   3                      10                      12                      38
  1671   2                       8                      12                      40
  1672   4                      10                      14                      42
  1673   3                      10                      14                      40
  1674   3                       8                      14                      42
  1675   3                      10                      12                      42
  1676   2                       8                      12                      44
  1677   4                      10                      14                      46
  1678   3                      10                      14                      44
  1679   3                       8                      14                      46
  1680   3                      10                      12                      46
  1681   2                       8                      16                       0
  1682   4                      10                      18                       2
  1683   3                      10                      18                       0
  1684   3                       8                      18                       2
  1685   3                      10                      16                       2
  1686   2                       8                      16                       4
  1687   4                      10                      18                       6
  1688   3                      10                      18                       4
  1689   3                       8                      18                       6
  1690   3                      10                      16                       6
  1691   2                       8                      16                       8
  1692   4                      10                      18                      10
  1693   3                      10                      18                       8
  1694   3                       8                      18                      10
  1695   3                      10                      16                      10
  1696   2                       8                      16                      12
  1697   4                      10                      18                      14
  1698   3                      10                      18                      12
  1699   3                       8                      18                      14
  1700   3                      10                      16                      14
  1701   2                       8                      16                      16
  1702   4                      10                      18                      18
  1703   3                      10                      18                      16
  1704   3                       8                      18                      18
  1705   3                      10                      16                      18
  1706   2                       8                      16                      20
  1707   4                      10                      18                      22
  1708   3                      10                      18                      20
  1709   3                       8                      18                      22
  1710   3                      10                      16                      22
  1711   1                       8                      16                      24
  1712   4                      10                      18                      26
  1713   3                      10                      18                      24
  1714   3                       8                      18                      26
  1715   3                      10                      16                      26
  1716   1                       8                      16                      28
  1717   4                      10                      18                      30
  1718   3                      10                      18                      28
  1719   3                       8                      18                      30
  1720   3                      10                      16                      30
  1721   2                       8                      16                      32
  1722   4                      10                      18                      34
  1723   3                      10                      18                      32
  1724   3                       8                      18                      34
  1725   3                      10                      16                      34
  1726   2                       8                      16                      36
  1727   4                      10                      18                      38
  1728   3                      10                      18                      36
  1729   3                       8                      18                      38
  1730   3                      10                      16                      38
  1731   2                       8                      16                      40
  1732   4                      10                      18                      42
  1733   3                      10                      18                      40
  1734   3                       8                      18                      42
  1735   3                      10                      16                      42
  1736   2                       8                      16                      44
  1737   4                      10                      18                      46
  1738   3                      10                      18                      44
  1739   3                       8                      18                      46
  1740   3                      10                      16                      46
  1741   2                       8                      20                       0
  1742   4                      10                      22                       2
  1743   3                      10                      22                       0
  1744   3                       8                      22                       2
  1745   3                      10                      20                       2
  1746   1                       8                      20                       4
  1747   4                      10                      22                       6
  1748   3                      10                      22                       4
  1749   3                       8                      22                       6
  1750   3                      10                      20                       6
  1751   1                       8                      20                       8
  1752   4                      10                      22                      10
  1753   3                      10                      22                       8
  1754   3                       8                      22                      10
  1755   3                      10                      20                      10
  1756   2                       8                      20                      12
  1757   4                      10                      22                      14
  1758   3                      10                      22                      12
  1759   3                       8                      22                      14
  1760   3                      10                      20                      14
  1761   1                       8                      20                      16
  1762   4                      10                      22                      18
  1763   3                      10                      22                      16
  1764   3                       8                      22                      18
  1765   3                      10                      20                      18
  1766   2                       8                      20                      20
  1767   4                      10                      22                      22
  1768   3                      10                      22                      20
  1769   3                       8                      22                      22
  1770   3                      10                      20                      22
  1771   1                       8                      20                      24
  1772   4                      10                      22                      26
  1773   3                      10                      22                      24
  1774   3                       8                      22                      26
  1775   3                      10                      20                      26
  1776   2                       8                      20                      28
  1777   4                      10                      22                      30
  1778   3                      10                      22                      28
  1779   3                       8                      22                      30
  1780   3                      10                      20                      30
  1781   2                       8                      20                      32
  1782   4                      10                      22                      34
  1783   3                      10                      22                      32
  1784   3                       8                      22                      34
  1785   3                      10                      20                      34
  1786   1                       8                      20                      36
  1787   4                      10                      22                      38
  1788   3                      10                      22                      36
  1789   3                       8                      22                      38
  1790   3                      10                      20                      38
  1791   1                       8                      20                      40
  1792   4                      10                      22                      42
  1793   3                      10                      22                      40
  1794   3                       8                      22                      42
  1795   3                      10                      20                      42
  1796   2                       8                      20                      44
  1797   4                      10                      22                      46
  1798   3                      10                      22                      44
  1799   3                       8                      22                      46
  1800   3                      10                      20                      46
  1801   2                       8                      24                       0
  1802   4                      10                      26                       2
  1803   3                      10                      26                       0
  1804   3                       8                      26                       2
  1805   3                      10                      24                       2
  1806   2                       8                      24                       4
  1807   4                      10                      26                       6
  1808   3                      10                      26                       4
  1809   3                       8                      26                       6
  1810   3                      10                      24                       6
  1811   2                       8                      24                       8
  1812   4                      10                      26                      10
  1813   3                      10                      26                       8
  1814   3                       8                      26                      10
  1815   3                      10                      24                      10
  1816   1                       8                      24                      12
  1817   4                      10                      26                      14
  1818   3                      10                      26                      12
  1819   3                       8                      26                      14
  1820   3                      10                      24                      14
  1821   2                       8                      24                      16
  1822   4                      10                      26                      18
  1823   3                      10                      26                      16
  1824   3                       8                      26                      18
  1825   3                      10                      24                      18
  1826   2                       8                      24                      20
  1827   4                      10                      26                      22
  1828   3                      10                      26                      20
  1829   3                       8                      26                      22
  1830   3                      10                      24                      22
  1831   1                       8                      24                      24
  1832   4                      10                      26                      26
  1833   3                      10                      26                      24
  1834   3                       8                      26                      26
  1835   3                      10                      24                      26
  1836   1                       8                      24                      28
  1837   4                      10                      26                      30
  1838   3                      10                      26                      28
  1839   3                       8                      26                      30
  1840   3                      10                      24                      30
  1841   2                       8                      24                      32
  1842   4                      10                      26                      34
  1843   3                      10                      26                      32
  1844   3                       8                      26                      34
  1845   3                      10                      24                      34
  1846   2                       8                      24                      36
  1847   4                      10                      26                      38
  1848   3                      10                      26                      36
  1849   3                       8                      26                      38
  1850   3                      10                      24                      38
  1851   2                       8                      24                      40
  1852   4                      10                      26                      42
  1853   3                      10                      26                      40
  1854   3                       8                      26                      42
  1855   3                      10                      24                      42
  1856   2                       8                      24                      44
  1857   4                      10                      26                      46
  1858   3                      10                      26                      44
  1859   3                       8                      26                      46
  1860   3                      10                      24                      46
  1861   1                       8                      28                       0
  1862   4                      10                      30                       2
  1863   3                      10                      30                       0
  1864   3                       8                      30                       2
  1865   3                      10                      28                       2
  1866   2                       8                      28                       4
  1867   4                      10                      30                       6
  1868   3                      10                      30                       4
  1869   3                       8                      30                       6
  1870   3                      10                      28                       6
  1871   2                       8                      28                       8
  1872   4                      10                      30                      10
  1873   3                      10                      30                       8
  1874   3                       8                      30                      10
  1875   3                      10                      28                      10
  1876   2                       8                      28                      12
  1877   4                      10                      30                      14
  1878   3                      10                      30                      12
  1879   3                       8                      30                      14
  1880   3                      10                      28                      14
  1881   2                       8                      28                      16
  1882   4                      10                      30                      18
  1883   3                      10                      30                      16
  1884   3                       8                      30                      18
  1885   3                      10                      28                      18
  1886   2                       8                      28                      20
  1887   4                      10                      30                      22
  1888   3                      10                      30                      20
  1889   3                       8                      30                      22
  1890   3                      10                      28                      22
  1891   2                       8                      28                      24
  1892   4                      10                      30                      26
  1893   3                      10                      30                      24
  1894   3                       8                      30                      26
  1895   3                      10                      28                      26
  1896   1                       8                      28                      28
  1897   4                      10                      30                      30
  1898   3                      10                      30                      28
  1899   3                       8                      30                      30
  1900   3                      10                      28                      30
  1901   1                       8                      28                      32
  1902   4                      10                      30                      34
  1903   3                      10                      30                      32
  1904   3                       8                      30                      34
  1905   3                      10                      28                      34
  1906   1                       8                      28                      36
  1907   4                      10                      30                      38
  1908   3                      10                      30                      36
  1909   3                       8                      30                      38
  1910   3                      10                      28                      38
  1911   1                       8                      28                      40
  1912   4                      10                      30                      42
  1913   3                      10                      30                      40
  1914   3                       8                      30                      42
  1915   3                      10                      28                      42
  1916   1                       8                      28                      44
  1917   4                      10                      30                      46
  1918   3                      10                      30                      44
  1919   3                       8                      30                      46
  1920   3                      10                      28                      46
  1921   2                       8                      32                       0
  1922   4                      10                      34                       2
  1923   3                      10                      34                       0
  1924   3                       8                      34                       2
  1925   3                      10                      32                       2
  1926   2                       8                      32                       4
  1927   4                      10                      34                       6
  1928   3                      10                      34                       4
  1929   3                       8                      34                       6
  1930   3                      10                      32                       6
  1931   2                       8                      32                       8
  1932   4                      10                      34                      10
  1933   3                      10                      34                       8
  1934   3                       8                      34                      10
  1935   3                      10                      32                      10
  1936   2                       8                      32                      12
  1937   4                      10                      34                      14
  1938   3                      10                      34                      12
  1939   3                       8                      34                      14
  1940   3                      10                      32                      14
  1941   2                       8                      32                      16
  1942   4                      10                      34                      18
  1943   3                      10                      34                      16
  1944   3                       8                      34                      18
  1945   3                      10                      32                      18
  1946   2                       8                      32                      20
  1947   4                      10                      34                      22
  1948   3                      10                      34                      20
  1949   3                       8                      34                      22
  1950   3                      10                      32                      22
  1951   2                       8                      32                      24
  1952   4                      10                      34                      26
  1953   3                      10                      34                      24
  1954   3                       8                      34                      26
  1955   3                      10                      32                      26
  1956   2                       8                      32                      28
  1957   4                      10                      34                      30
  1958   3                      10                      34                      28
  1959   3                       8                      34                      30
  1960   3                      10                      32                      30
  1961   2                       8                      32                      32
  1962   4                      10                      34                      34
  1963   3                      10                      34                      32
  1964   3                       8                      34                      34
  1965   3                      10                      32                      34
  1966   2                       8                      32                      36
  1967   4                      10                      34                      38
  1968   3                      10                      34                      36
  1969   3                       8                      34                      38
  1970   3                      10                      32                      38
  1971   1                       8                      32                      40
  1972   4                      10                      34                      42
  1973   3                      10                      34                      40
  1974   3                       8                      34                      42
  1975   3                      10                      32                      42
  1976   2                       8                      32                      44
  1977   4                      10                      34                      46
  1978   3                      10                      34                      44
  1979   3                       8                      34                      46
  1980   3                      10                      32                      46
  1981   2                       8                      36                       0
  1982   4                      10                      38                       2
  1983   3                      10                      38                       0
  1984   3                       8                      38                       2
  1985   3                      10                      36                       2
  1986   1                       8                      36                       4
  1987   4                      10                      38                       6
  1988   3                      10                      38                       4
  1989   3                       8                      38                       6
  1990   3                      10                      36                       6
  1991   2                       8                      36                       8
  1992   4                      10                      38                      10
  1993   3                      10                      38                       8
  1994   3                       8                      38                      10
  1995   3                      10                      36                      10
  1996   2                       8                      36                      12
  1997   4                      10                      38                      14
  1998   3                      10                      38                      12
  1999   3                       8                      38                      14
  2000   3                      10                      36                      14
  2001   1                       8                      36                      16
  2002   4                      10                      38                      18
  2003   3                      10                      38                      16
  2004   3                       8                      38                      18
  2005   3                      10                      36                      18
  2006   2                       8                      36                      20
  2007   4                      10                      38                      22
  2008   3                      10                      38                      20
  2009   3                       8                      38                      22
  2010   3                      10                      36                      22
  2011   2                       8                      36                      24
  2012   4                      10                      38                      26
  2013   3                      10                      38                      24
  2014   3                       8                      38                      26
  2015   3                      10                      36                      26
  2016   2                       8                      36                      28
  2017   4                      10                      38                      30
  2018   3                      10                      38                      28
  2019   3                       8                      38                      30
  2020   3                      10                      36                      30
  2021   2                       8                      36                      32
  2022   4                      10                      38                      34
  2023   3                      10                      38                      32
  2024   3                       8                      38                      34
  2025   3                      10                      36                      34
  2026   2                       8                      36                      36
  2027   4                      10                      38                      38
  2028   3                      10                      38                      36
  2029   3                       8                      38                      38
  2030   3                      10                      36                      38
  2031   2                       8                      36                      40
  2032   4                      10                      38                      42
  2033   3                      10                      38                      40
  2034   3                       8                      38                      42
  2035   3                      10                      36                      42
  2036   2                       8                      36                      44
  2037   4                      10                      38                      46
  2038   3                      10                      38                      44
  2039   3                       8                      38                      46
  2040   3                      10                      36                      46
  2041   1                       8                      40                       0
  2042   4                      10                      42                       2
  2043   3                      10                      42                       0
  2044   3                       8                      42                       2
  2045   3                      10                      40                       2
  2046   2                       8                      40                       4
  2047   4                      10                      42                       6
  2048   3                      10                      42                       4
  2049   3                       8                      42                       6
  2050   3                      10                      40                       6
  2051   2                       8                      40                       8
  2052   4                      10                      42                      10
  2053   3                      10                      42                       8
  2054   3                       8                      42                      10
  2055   3                      10                      40                      10
  2056   2                       8                      40                      12
  2057   4                      10                      42                      14
  2058   3                      10                      42                      12
  2059   3                       8                      42                      14
  2060   3                      10                      40                      14
  2061   2                       8                      40                      16
  2062   4                      10                      42                      18
  2063   3                      10                      42                      16
  2064   3                       8                      42                      18
  2065   3                      10                      40                      18
  2066   1                       8                      40                      20
  2067   4                      10                      42                      22
  2068   3                      10                      42                      20
  2069   3                       8                      42                      22
  2070   3                      10                      40                      22
  2071   1                       8                      40                      24
  2072   4                      10                      42                      26
  2073   3                      10                      42                      24
  2074   3                       8                      42                      26
  2075   3                      10                      40                      26
  2076   2                       8                      40                      28
  2077   4                      10                      42                      30
  2078   3                      10                      42                      28
  2079   3                       8                      42                      30
  2080   3                      10                      40                      30
  2081   2                       8                      40                      32
  2082   4                      10                      42                      34
  2083   3                      10                      42                      32
  2084   3                       8                      42                      34
  2085   3                      10                      40                      34
  2086   1                       8                      40                      36
  2087   4                      10                      42                      38
  2088   3                      10                      42                      36
  2089   3                       8                      42                      38
  2090   3                      10                      40                      38
  2091   1                       8                      40                      40
  2092   4                      10                      42                      42
  2093   3                      10                      42                      40
  2094   3                       8                      42                      42
  2095   3                      10                      40                      42
  2096   2                       8                      40                      44
  2097   4                      10                      42                      46
  2098   3                      10                      42                      44
  2099   3                       8                      42                      46
  2100   3                      10                      40                      46
  2101   2                       8                      44                       0
  2102   4                      10                      46                       2
  2103   3                      10                      46                       0
  2104   3                       8                      46                       2
  2105   3                      10                      44                       2
  2106   2                       8                      44                       4
  2107   4                      10                      46                       6
  2108   3                      10                      46                       4
  2109   3                       8                      46                       6
  2110   3                      10                      44                       6
  2111   2                       8                      44                       8
  2112   4                      10                      46                      10
  2113   3                      10                      46                       8
  2114   3                       8                      46                      10
  2115   3                      10                      44                      10
  2116   2                       8                      44                      12
  2117   4                      10                      46                      14
  2118   3                      10                      46                      12
  2119   3                       8                      46                      14
  2120   3                      10                      44                      14
  2121   2                       8                      44                      16
  2122   4                      10                      46                      18
  2123   3                      10                      46                      16
  2124   3                       8                      46                      18
  2125   3                      10                      44                      18
  2126   2                       8                      44                      20
  2127   4                      10                      46                      22
  2128   3                      10                      46                      20
  2129   3                       8                      46                      22
  2130   3                      10                      44                      22
  2131   2                       8                      44                      24
  2132   4                      10                      46                      26
  2133   3                      10                      46                      24
  2134   3                       8                      46                      26
  2135   3                      10                      44                      26
  2136   2                       8                      44                      28
  2137   4                      10                      46                      30
  2138   3                      10                      46                      28
  2139   3                       8                      46                      30
  2140   3                      10                      44                      30
  2141   2                       8                      44                      32
  2142   4                      10                      46                      34
  2143   3                      10                      46                      32
  2144   3                       8                      46                      34
  2145   3                      10                      44                      34
  2146   2                       8                      44                      36
  2147   4                      10                      46                      38
  2148   3                      10                      46                      36
  2149   3                       8                      46                      38
  2150   3                      10                      44                      38
  2151   2                       8                      44                      40
  2152   4                      10                      46                      42
  2153   3                      10                      46                      40
  2154   3                       8                      46                      42
  2155   3                      10                      44                      42
  2156   2                       8                      44                      44
  2157   4                      10                      46                      46
  2158   3                      10                      46                      44
  2159   3                       8                      46                      46
  2160   3                      10                      44                      46
  2161   2                      12                       0                       0
  2162   4                      14                       2                       2
  2163   3                      14                       2                       0
  2164   3                      12                       2                       2
  2165   3                      14                       0                       2
  2166   2                      12                       0                       4
  2167   4                      14                       2                       6
  2168   3                      14                       2                       4
  2169   3                      12                       2                       6
  2170   3                      14                       0                       6
  2171   2                      12                       0                       8
  2172   4                      14                       2                      10
  2173   3                      14                       2                       8
  2174   3                      12                       2                      10
  2175   3                      14                       0                      10
  2176   2                      12                       0                      12
  2177   4                      14                       2                      14
  2178   3                      14                       2                      12
  2179   3                      12                       2                      14
  2180   3                      14                       0                      14
  2181   2                      12                       0                      16
  2182   4                      14                       2                      18
  2183   3                      14                       2                      16
  2184   3                      12                       2                      18
  2185   3                      14                       0                      18
  2186   2                      12                       0                      20
  2187   4                      14                       2                      22
  2188   3                      14                       2                      20
  2189   3                      12                       2                      22
  2190   3                      14                       0                      22
  2191   1                      12                       0                      24
  2192   4                      14                       2                      26
  2193   3                      14                       2                      24
  2194   3                      12                       2                      26
  2195   3                      14                       0                      26
  2196   1                      12                       0                      28
  2197   4                      14                       2                      30
  2198   3                      14                       2                      28
  2199   3                      12                       2                      30
  2200   3                      14                       0                      30
  2201   2                      12                       0                      32
  2202   4                      14                       2                      34
  2203   3                      14                       2                      32
  2204   3                      12                       2                      34
  2205   3                      14                       0                      34
  2206   2                      12                       0                      36
  2207   4                      14                       2                      38
  2208   3                      14                       2                      36
  2209   3                      12                       2                      38
  2210   3                      14                       0                      38
  2211   2                      12                       0                      40
  2212   4                      14                       2                      42
  2213   3                      14                       2                      40
  2214   3                      12                       2                      42
  2215   3                      14                       0                      42
  2216   1                      12                       0                      44
  2217   4                      14                       2                      46
  2218   3                      14                       2                      44
  2219   3                      12                       2                      46
  2220   3                      14                       0                      46
  2221   2                      12                       4                       0
  2222   4                      14                       6                       2
  2223   3                      14                       6                       0
  2224   3                      12                       6                       2
  2225   3                      14                       4                       2
  2226   2                      12                       4                       4
  2227   4                      14                       6                       6
  2228   3                      14                       6                       4
  2229   3                      12                       6                       6
  2230   3                      14                       4                       6
  2231   2                      12                       4                       8
  2232   4                      14                       6                      10
  2233   3                      14                       6                       8
  2234   3                      12                       6                      10
  2235   3                      14                       4                      10
  2236   2                      12                       4                      12
  2237   4                      14                       6                      14
  2238   3                      14                       6                      12
  2239   3                      12                       6                      14
  2240   3                      14                       4                      14
  2241   2                      12                       4                      16
  2242   4                      14                       6                      18
  2243   3                      14                       6                      16
  2244   3                      12                       6                      18
  2245   3                      14                       4                      18
  2246   2                      12                       4                      20
  2247   4                      14                       6                      22
  2248   3                      14                       6                      20
  2249   3                      12                       6                      22
  2250   3                      14                       4                      22
  2251   1                      12                       4                      24
  2252   4                      14                       6                      26
  2253   3                      14                       6                      24
  2254   3                      12                       6                      26
  2255   3                      14                       4                      26
  2256   1                      12                       4                      28
  2257   4                      14                       6                      30
  2258   3                      14                       6                      28
  2259   3                      12                       6                      30
  2260   3                      14                       4                      30
  2261   2                      12                       4                      32
  2262   4                      14                       6                      34
  2263   3                      14                       6                      32
  2264   3                      12                       6                      34
  2265   3                      14                       4                      34
  2266   1                      12                       4                      36
  2267   4                      14                       6                      38
  2268   3                      14                       6                      36
  2269   3                      12                       6                      38
  2270   3                      14                       4                      38
  2271   1                      12                       4                      40
  2272   4                      14                       6                      42
  2273   3                      14                       6                      40
  2274   3                      12                       6                      42
  2275   3                      14                       4                      42
  2276   2                      12                       4                      44
  2277   4                      14                       6                      46
  2278   3                      14                       6                      44
  2279   3                      12                       6                      46
  2280   3                      14                       4                      46
  2281   2                      12                       8                       0
  2282   4                      14                      10                       2
  2283   3                      14                      10                       0
  2284   3                      12                      10                       2
  2285   3                      14                       8                       2
  2286   2                      12                       8                       4
  2287   4                      14                      10                       6
  2288   3                      14                      10                       4
  2289   3                      12                      10                       6
  2290   3                      14                       8                       6
  2291   1                      12                       8                       8
  2292   4                      14                      10                      10
  2293   3                      14                      10                       8
  2294   3                      12                      10                      10
  2295   3                      14                       8                      10
  2296   1                      12                       8                      12
  2297   4                      14                      10                      14
  2298   3                      14                      10                      12
  2299   3                      12                      10                      14
  2300   3                      14                       8                      14
  2301   2                      12                       8                      16
  2302   4                      14                      10                      18
  2303   3                      14                      10                      16
  2304   3                      12                      10                      18
  2305   3                      14                       8                      18
  2306   2                      12                       8                      20
  2307   4                      14                      10                      22
  2308   3                      14                      10                      20
  2309   3                      12                      10                      22
  2310   3                      14                       8                      22
  2311   2                      12                       8                      24
  2312   4                      14                      10                      26
  2313   3                      14                      10                      24
  2314   3                      12                      10                      26
  2315   3                      14                       8                      26
  2316   1                      12                       8                      28
  2317   4                      14                      10                      30
  2318   3                      14                      10                      28
  2319   3                      12                      10                      30
  2320   3                      14                       8                      30
  2321   2                      12                       8                      32
  2322   4                      14                      10                      34
  2323   3                      14                      10                      32
  2324   3                      12                      10                      34
  2325   3                      14                       8                      34
  2326   2                      12                       8                      36
  2327   4                      14                      10                      38
  2328   3                      14                      10                      36
  2329   3                      12                      10                      38
  2330   3                      14                       8                      38
  2331   2                      12                       8                      40
  2332   4                      14                      10                      42
  2333   3                      14                      10                      40
  2334   3                      12                      10                      42
  2335   3                      14                       8                      42
  2336   1                      12                       8                      44
  2337   4                      14                      10                      46
  2338   3                      14                      10                      44
  2339   3                      12                      10                      46
  2340   3                      14                       8                      46
  2341   2                      12                      12                       0
  2342   4                      14                      14                       2
  2343   3                      14                      14                       0
  2344   3                      12                      14                       2
  2345   3                      14                      12                       2
  2346   1                      12                      12                       4
  2347   4                      14                      14                       6
  2348   3                      14                      14                       4
  2349   3                      12                      14                       6
  2350   3                      14                      12                       6
  2351   1                      12                      12                       8
  2352   4                      14                      14                      10
  2353   3                      14                      14                       8
  2354   3                      12                      14                      10
  2355   3                      14                      12                      10
  2356   2                      12                      12                      12
  2357   4                      14                      14                      14
  2358   3                      14                      14                      12
  2359   3                      12                      14                      14
  2360   3                      14                      12                      14
  2361   1                      12                      12                      16
  2362   4                      14                      14                      18
  2363   3                      14                      14                      16
  2364   3                      12                      14                      18
  2365   3                      14                      12                      18
  2366   2                      12                      12                      20
  2367   4                      14                      14                      22
  2368   3                      14                      14                      20
  2369   3                      12                      14                      22
  2370   3                      14                      12                      22
  2371   1                      12                      12                      24
  2372   4                      14                      14                      26
  2373   3                      14                      14                      24
  2374   3                      12                      14                      26
  2375   3                      14                      12                      26
  2376   1                      12                      12                      28
  2377   4                      14                      14                      30
  2378   3                      14                      14                      28
  2379   3                      12                      14                      30
  2380   3                      14                      12                      30
  2381   1                      12                      12                      32
  2382   4                      14                      14                      34
  2383   3                      14                      14                      32
  2384   3                      12                      14                      34
  2385   3                      14                      12                      34
  2386   2                      12                      12                      36
  2387   4                      14                      14                      38
  2388   3                      14                      14                      36
  2389   3                      12                      14                      38
  2390   3                      14                      12                      38
  2391   2                      12                      12                      40
  2392   4                      14                      14                      42
  2393   3                      14                      14                      40
  2394   3                      12                      14                      42
  2395   3                      14                      12                      42
  2396   1                      12                      12                      44
  2397   4                      14                      14                      46
  2398   3                      14                      14                      44
  2399   3                      12                      14                      46
  2400   3                      14                      12                      46
  2401   2                      12                      16                       0
  2402   4                      14                      18                       2
  2403   3                      14                      18                       0
  2404   3                      12                      18                       2
  2405   3                      14                      16                       2
  2406   2                      12                      16                       4
  2407   4                      14                      18                       6
  2408   3                      14                      18                       4
  2409   3                      12                      18                       6
  2410   3                      14                      16                       6
  2411   1                      12                      16                       8
  2412   4                      14                      18                      10
  2413   3                      14                      18                       8
  2414   3                      12                      18                      10
  2415   3                      14                      16                      10
  2416   2                      12                      16                      12
  2417   4                      14                      18                      14
  2418   3                      14                      18                      12
  2419   3                      12                      18                      14
  2420   3                      14                      16                      14
  2421   2                      12                      16                      16
  2422   4                      14                      18                      18
  2423   3                      14                      18                      16
  2424   3                      12                      18                      18
  2425   3                      14                      16                      18
  2426   2                      12                      16                      20
  2427   4                      14                      18                      22
  2428   3                      14                      18                      20
  2429   3                      12                      18                      22
  2430   3                      14                      16                      22
  2431   2                      12                      16                      24
  2432   4                      14                      18                      26
  2433   3                      14                      18                      24
  2434   3                      12                      18                      26
  2435   3                      14                      16                      26
  2436   1                      12                      16                      28
  2437   4                      14                      18                      30
  2438   3                      14                      18                      28
  2439   3                      12                      18                      30
  2440   3                      14                      16                      30
  2441   1                      12                      16                      32
  2442   4                      14                      18                      34
  2443   3                      14                      18                      32
  2444   3                      12                      18                      34
  2445   3                      14                      16                      34
  2446   2                      12                      16                      36
  2447   4                      14                      18                      38
  2448   3                      14                      18                      36
  2449   3                      12                      18                      38
  2450   3                      14                      16                      38
  2451   2                      12                      16                      40
  2452   4                      14                      18                      42
  2453   3                      14                      18                      40
  2454   3                      12                      18                      42
  2455   3                      14                      16                      42
  2456   2                      12                      16                      44
  2457   4                      14                      18                      46
  2458   3                      14                      18                      44
  2459   3                      12                      18                      46
  2460   3                      14                      16                      46
  2461   2                      12                      20                       0
  2462   4                      14                      22                       2
  2463   3                      14                      22                       0
  2464   3                      12                      22                       2
  2465   3                      14                      20                       2
  2466   1                      12                      20                       4
  2467   4                      14                      22                       6
  2468   3                      14                      22                       4
  2469   3                      12                      22                       6
  2470   3                      14                      20                       6
  2471   1                      12                      20                       8
  2472   4                      14                      22                      10
  2473   3                      14                      22                       8
  2474   3                      12                      22                      10
  2475   3                      14                      20                      10
  2476   2                      12                      20                      12
  2477   4                      14                      22                      14
  2478   3                      14                      22                      12
  2479   3                      12                      22                      14
  2480   3                      14                      20                      14
  2481   2                      12                      20                      16
  2482   4                      14                      22                      18
  2483   3                      14                      22                      16
  2484   3                      12                      22                      18
  2485   3                      14                      20                      18
  2486   1                      12                      20                      20
  2487   4                      14                      22                      22
  2488   3                      14                      22                      20
  2489   3                      12                      22                      22
  2490   3                      14                      20                      22
  2491   1                      12                      20                      24
  2492   4                      14                      22                      26
  2493   3                      14                      22                      24
  2494   3                      12                      22                      26
  2495   3                      14                      20                      26
  2496   1                      12                      20                      28
  2497   4                      14                      22                      30
  2498   3                      14                      22                      28
  2499   3                      12                      22                      30
  2500   3                      14                      20                      30
  2501   2                      12                      20                      32
  2502   4                      14                      22                      34
  2503   3                      14                      22                      32
  2504   3                      12                      22                      34
  2505   3                      14                      20                      34
  2506   2                      12                      20                      36
  2507   4                      14                      22                      38
  2508   3                      14                      22                      36
  2509   3                      12                      22                      38
  2510   3                      14                      20                      38
  2511   1                      12                      20                      40
  2512   4                      14                      22                      42
  2513   3                      14                      22                      40
  2514   3                      12                      22                      42
  2515   3                      14                      20                      42
  2516   2                      12                      20                      44
  2517   4                      14                      22                      46
  2518   3                      14                      22                      44
  2519   3                      12                      22                      46
  2520   3                      14                      20                      46
  2521   1                      12                      24                       0
  2522   4                      14                      26                       2
  2523   3                      14                      26                       0
  2524   3                      12                      26                       2
  2525   3                      14                      24                       2
  2526   2                      12                      24                       4
  2527   4                      14                      26                       6
  2528   3                      14                      26                       4
  2529   3                      12                      26                       6
  2530   3                      14                      24                       6
  2531   2                      12                      24                       8
  2532   4                      14                      26                      10
  2533   3                      14                      26                       8
  2534   3                      12                      26                      10
  2535   3                      14                      24                      10
  2536   2                      12                      24                      12
  2537   4                      14                      26                      14
  2538   3                      14                      26                      12
  2539   3                      12                      26                      14
  2540   3                      14                      24                      14
  2541   2                      12                      24                      16
  2542   4                      14                      26                      18
  2543   3                      14                      26                      16
  2544   3                      12                      26                      18
  2545   3                      14                      24                      18
  2546   1                      12                      24                      20
  2547   4                      14                      26                      22
  2548   3                      14                      26                      20
  2549   3                      12                      26                      22
  2550   3                      14                      24                      22
  2551   2                      12                      24                      24
  2552   4                      14                      26                      26
  2553   3                      14                      26                      24
  2554   3                      12                      26                      26
  2555   3                      14                      24                      26
  2556   1                      12                      24                      28
  2557   4                      14                      26                      30
  2558   3                      14                      26                      28
  2559   3                      12                      26                      30
  2560   3                      14                      24                      30
  2561   2                      12                      24                      32
  2562   4                      14                      26                      34
  2563   3                      14                      26                      32
  2564   3                      12                      26                      34
  2565   3                      14                      24                      34
  2566   1                      12                      24                      36
  2567   4                      14                      26                      38
  2568   3                      14                      26                      36
  2569   3                      12                      26                      38
  2570   3                      14                      24                      38
  2571   2                      12                      24                      40
  2572   4                      14                      26                      42
  2573   3                      14                      26                      40
  2574   3                      12                      26                      42
  2575   3                      14                      24                      42
  2576   2                      12                      24                      44
  2577   4                      14                      26                      46
  2578   3                      14                      26                      44
  2579   3                      12                      26                      46
  2580   3                      14                      24                      46
  2581   2                      12                      28                       0
  2582   4                      14                      30                       2
  2583   3                      14                      30                       0
  2584   3                      12                      30                       2
  2585   3                      14                      28                       2
  2586   2                      12                      28                       4
  2587   4                      14                      30                       6
  2588   3                      14                      30                       4
  2589   3                      12                      30                       6
  2590   3                      14                      28                       6
  2591   2                      12                      28                       8
  2592   4                      14                      30                      10
  2593   3                      14                      30                       8
  2594   3                      12                      30                      10
  2595   3                      14                      28                      10
  2596   1                      12                      28                      12
  2597   4                      14                      30                      14
  2598   3                      14                      30                      12
  2599   3                      12                      30                      14
  2600   3                      14                      28                      14
  2601   1                      12                      28                      16
  2602   4                      14                      30                      18
  2603   3                      14                      30                      16
  2604   3                      12                      30                      18
  2605   3                      14                      28                      18
  2606   2                      12                      28                      20
  2607   4                      14                      30                      22
  2608   3                      14                      30                      20
  2609   3                      12                      30                      22
  2610   3                      14                      28                      22
  2611   2                      12                      28                      24
  2612   4                      14                      30                      26
  2613   3                      14                      30                      24
  2614   3                      12                      30                      26
  2615   3                      14                      28                      26
  2616   1                      12                      28                      28
  2617   4                      14                      30                      30
  2618   3                      14                      30                      28
  2619   3                      12                      30                      30
  2620   3                      14                      28                      30
  2621   1                      12                      28                      32
  2622   4                      14                      30                      34
  2623   3                      14                      30                      32
  2624   3                      12                      30                      34
  2625   3                      14                      28                      34
  2626   1                      12                      28                      36
  2627   4                      14                      30                      38
  2628   3                      14                      30                      36
  2629   3                      12                      30                      38
  2630   3                      14                      28                      38
  2631   2                      12                      28                      40
  2632   4                      14                      30                      42
  2633   3                      14                      30                      40
  2634   3                      12                      30                      42
  2635   3                      14                      28                      42
  2636   2                      12                      28                      44
  2637   4                      14                      30                      46
  2638   3                      14                      30                      44
  2639   3                      12                      30                      46
  2640   3                      14                      28                      46
  2641   1                      12                      32                       0
  2642   4                      14                      34                       2
  2643   3                      14                      34                       0
  2644   3                      12                      34                       2
  2645   3                      14                      32                       2
  2646   2                      12                      32                       4
  2647   4                      14                      34                       6
  2648   3                      14                      34                       4
  2649   3                      12                      34                       6
  2650   3                      14                      32                       6
  2651   2                      12                      32                       8
  2652   4                      14                      34                      10
  2653   3                      14                      34                       8
  2654   3                      12                      34                      10
  2655   3                      14                      32                      10
  2656   2                      12                      32                      12
  2657   4                      14                      34                      14
  2658   3                      14                      34                      12
  2659   3                      12                      34                      14
  2660   3                      14                      32                      14
  2661   2                      12                      32                      16
  2662   4                      14                      34                      18
  2663   3                      14                      34                      16
  2664   3                      12                      34                      18
  2665   3                      14                      32                      18
  2666   2                      12                      32                      20
  2667   4                      14                      34                      22
  2668   3                      14                      34                      20
  2669   3                      12                      34                      22
  2670   3                      14                      32                      22
  2671   2                      12                      32                      24
  2672   4                      14                      34                      26
  2673   3                      14                      34                      24
  2674   3                      12                      34                      26
  2675   3                      14                      32                      26
  2676   2                      12                      32                      28
  2677   4                      14                      34                      30
  2678   3                      14                      34                      28
  2679   3                      12                      34                      30
  2680   3                      14                      32                      30
  2681   2                      12                      32                      32
  2682   4                      14                      34                      34
  2683   3                      14                      34                      32
  2684   3                      12                      34                      34
  2685   3                      14                      32                      34
  2686   2                      12                      32                      36
  2687   4                      14                      34                      38
  2688   3                      14                      34                      36
  2689   3                      12                      34                      38
  2690   3                      14                      32                      38
  2691   1                      12                      32                      40
  2692   4                      14                      34                      42
  2693   3                      14                      34                      40
  2694   3                      12                      34                      42
  2695   3                      14                      32                      42
  2696   2                      12                      32                      44
  2697   4                      14                      34                      46
  2698   3                      14                      34                      44
  2699   3                      12                      34                      46
  2700   3                      14                      32                      46
  2701   1                      12                      36                       0
  2702   4                      14                      38                       2
  2703   3                      14                      38                       0
  2704   3                      12                      38                       2
  2705   3                      14                      36                       2
  2706   2                      12                      36                       4
  2707   4                      14                      38                       6
  2708   3                      14                      38                       4
  2709   3                      12                      38                       6
  2710   3                      14                      36                       6
  2711   2                      12                      36                       8
  2712   4                      14                      38                      10
  2713   3                      14                      38                       8
  2714   3                      12                      38                      10
  2715   3                      14                      36                      10
  2716   1                      12                      36                      12
  2717   4                      14                      38                      14
  2718   3                      14                      38                      12
  2719   3                      12                      38                      14
  2720   3                      14                      36                      14
  2721   1                      12                      36                      16
  2722   4                      14                      38                      18
  2723   3                      14                      38                      16
  2724   3                      12                      38                      18
  2725   3                      14                      36                      18
  2726   2                      12                      36                      20
  2727   4                      14                      38                      22
  2728   3                      14                      38                      20
  2729   3                      12                      38                      22
  2730   3                      14                      36                      22
  2731   1                      12                      36                      24
  2732   4                      14                      38                      26
  2733   3                      14                      38                      24
  2734   3                      12                      38                      26
  2735   3                      14                      36                      26
  2736   2                      12                      36                      28
  2737   4                      14                      38                      30
  2738   3                      14                      38                      28
  2739   3                      12                      38                      30
  2740   3                      14                      36                      30
  2741   1                      12                      36                      32
  2742   4                      14                      38                      34
  2743   3                      14                      38                      32
  2744   3                      12                      38                      34
  2745   3                      14                      36                      34
  2746   2                      12                      36                      36
  2747   4                      14                      38                      38
  2748   3                      14                      38                      36
  2749   3                      12                      38                      38
  2750   3                      14                      36                      38
  2751   1                      12                      36                      40
  2752   4                      14                      38                      42
  2753   3                      14                      38                      40
  2754   3                      12                      38                      42
  2755   3                      14                      36                      42
  2756   2                      12                      36                      44
  2757   4                      14                      38                      46
  2758   3                      14                      38                      44
  2759   3                      12                      38                      46
  2760   3                      14                      36                      46
  2761   2                      12                      40                       0
  2762   4                      14                      42                       2
  2763   3                      14                      42                       0
  2764   3                      12                      42                       2
  2765   3                      14                      40                       2
  2766   2                      12                      40                       4
  2767   4                      14                      42                       6
  2768   3                      14                      42                       4
  2769   3                      12                      42                       6
  2770   3                      14                      40                       6
  2771   2                      12                      40                       8
  2772   4                      14                      42                      10
  2773   3                      14                      42                       8
  2774   3                      12                      42                      10
  2775   3                      14                      40                      10
  2776   2                      12                      40                      12
  2777   4                      14                      42                      14
  2778   3                      14                      42                      12
  2779   3                      12                      42                      14
  2780   3                      14                      40                      14
  2781   2                      12                      40                      16
  2782   4                      14                      42                      18
  2783   3                      14                      42                      16
  2784   3                      12                      42                      18
  2785   3                      14                      40                      18
  2786   2                      12                      40                      20
  2787   4                      14                      42                      22
  2788   3                      14                      42                      20
  2789   3                      12                      42                      22
  2790   3                      14                      40                      22
  2791   2                      12                      40                      24
  2792   4                      14                      42                      26
  2793   3                      14                      42                      24
  2794   3                      12                      42                      26
  2795   3                      14                      40                      26
  2796   2                      12                      40                      28
  2797   4                      14                      42                      30
  2798   3                      14                      42                      28
  2799   3                      12                      42                      30
  2800   3                      14                      40                      30
  2801   2                      12                      40                      32
  2802   4                      14                      42                      34
  2803   3                      14                      42                      32
  2804   3                      12                      42                      34
  2805   3                      14                      40                      34
  2806   1                      12                      40                      36
  2807   4                      14                      42                      38
  2808   3                      14                      42                      36
  2809   3                      12                      42                      38
  2810   3                      14                      40                      38
  2811   2                      12                      40                      40
  2812   4                      14                      42                      42
  2813   3                      14                      42                      40
  2814   3                      12                      42                      42
  2815   3                      14                      40                      42
  2816   1                      12                      40                      44
  2817   4                      14                      42                      46
  2818   3                      14                      42                      44
  2819   3                      12                      42                      46
  2820   3                      14                      40                      46
  2821   1                      12                      44                       0
  2822   4                      14                      46                       2
  2823   3                      14                      46                       0
  2824   3                      12                      46                       2
  2825   3                      14                      44                       2
  2826   1                      12                      44                       4
  2827   4                      14                      46                       6
  2828   3                      14                      46                       4
  2829   3                      12                      46                       6
  2830   3                      14                      44                       6
  2831   2                      12                      44                       8
  2832   4                      14                      46                      10
  2833   3                      14                      46                       8
  2834   3                      12                      46                      10
  2835   3                      14                      44                      10
  2836   2                      12                      44                      12
  2837   4                      14                      46                      14
  2838   3                      14                      46                      12
  2839   3                      12                      46                      14
  2840   3                      14                      44                      14
  2841   2                      12                      44                      16
  2842   4                      14                      46                      18
  2843   3                      14                      46                      16
  2844   3                      12                      46                      18
  2845   3                      14                      44                      18
  2846   2                      12                      44                      20
  2847   4                      14                      46                      22
  2848   3                      14                      46                      20
  2849   3                      12                      46                      22
  2850   3                      14                      44                      22
  2851   2                      12                      44                      24
  2852   4                      14                      46                      26
  2853   3                      14                      46                      24
  2854   3                      12                      46                      26
  2855   3                      14                      44                      26
  2856   2                      12                      44                      28
  2857   4                      14                      46                      30
  2858   3                      14                      46                      28
  2859   3                      12                      46                      30
  2860   3                      14                      44                      30
  2861   2                      12                      44                      32
  2862   4                      14                      46                      34
  2863   3                      14                      46                      32
  2864   3                      12                      46                      34
  2865   3                      14                      44                      34
  2866   2                      12                      44                      36
  2867   4                      14                      46                      38
  2868   3                      14                      46                      36
  2869   3                      12                      46                      38
  2870   3                      14                      44                      38
  2871   2                      12                      44                      40
  2872   4                      14                      46                      42
  2873   3                      14                      46                      40
  2874   3                      12                      46                      42
  2875   3                      14                      44                      42
  2876   2                      12                      44                      44
  2877   4                      14                      46                      46
  2878   3                      14                      46                      44
  2879   3                      12                      46                      46
  2880   3                      14                      44                      46
  2881   2                      16                       0                       0
  2882   4                      18                       2                       2
  2883   3                      18                       2                       0
  2884   3                      16                       2                       2
  2885   3                      18                       0                       2
  2886   2                      16                       0                       4
  2887   4                      18                       2                       6
  2888   3                      18                       2                       4
  2889   3                      16                       2                       6
  2890   3                      18                       0                       6
  2891   2                      16                       0                       8
  2892   4                      18                       2                      10
  2893   3                      18                       2                       8
  2894   3                      16                       2                      10
  2895   3                      18                       0                      10
  2896   2                      16                       0                      12
  2897   4                      18                       2                      14
  2898   3                      18                       2                      12
  2899   3                      16                       2                      14
  2900   3                      18                       0                      14
  2901   1                      16                       0                      16
  2902   4                      18                       2                      18
  2903   3                      18                       2                      16
  2904   3                      16                       2                      18
  2905   3                      18                       0                      18
  2906   2                      16                       0                      20
  2907   4                      18                       2                      22
  2908   3                      18                       2                      20
  2909   3                      16                       2                      22
  2910   3                      18                       0                      22
  2911   2                      16                       0                      24
  2912   4                      18                       2                      26
  2913   3                      18                       2                      24
  2914   3                      16                       2                      26
  2915   3                      18                       0                      26
  2916   2                      16                       0                      28
  2917   4                      18                       2                      30
  2918   3                      18                       2                      28
  2919   3                      16                       2                      30
  2920   3                      18                       0                      30
  2921   2                      16                       0                      32
  2922   4                      18                       2                      34
  2923   3                      18                       2                      32
  2924   3                      16                       2                      34
  2925   3                      18                       0                      34
  2926   2                      16                       0                      36
  2927   4                      18                       2                      38
  2928   3                      18                       2                      36
  2929   3                      16                       2                      38
  2930   3                      18                       0                      38
  2931   2                      16                       0                      40
  2932   4                      18                       2                      42
  2933   3                      18                       2                      40
  2934   3                      16                       2                      42
  2935   3                      18                       0                      42
  2936   1                      16                       0                      44
  2937   4                      18                       2                      46
  2938   3                      18                       2                      44
  2939   3                      16                       2                      46
  2940   3                      18                       0                      46
  2941   2                      16                       4                       0
  2942   4                      18                       6                       2
  2943   3                      18                       6                       0
  2944   3                      16                       6                       2
  2945   3                      18                       4                       2
  2946   2                      16                       4                       4
  2947   4                      18                       6                       6
  2948   3                      18                       6                       4
  2949   3                      16                       6                       6
  2950   3                      18                       4                       6
  2951   2                      16                       4                       8
  2952   4                      18                       6                      10
  2953   3                      18                       6                       8
  2954   3                      16                       6                      10
  2955   3                      18                       4                      10
  2956   2                      16                       4                      12
  2957   4                      18                       6                      14
  2958   3                      18                       6                      12
  2959   3                      16                       6                      14
  2960   3                      18                       4                      14
  2961   2                      16                       4                      16
  2962   4                      18                       6                      18
  2963   3                      18                       6                      16
  2964   3                      16                       6                      18
  2965   3                      18                       4                      18
  2966   1                      16                       4                      20
  2967   4                      18                       6                      22
  2968   3                      18                       6                      20
  2969   3                      16                       6                      22
  2970   3                      18                       4                      22
  2971   2                      16                       4                      24
  2972   4                      18                       6                      26
  2973   3                      18                       6                      24
  2974   3                      16                       6                      26
  2975   3                      18                       4                      26
  2976   2                      16                       4                      28
  2977   4                      18                       6                      30
  2978   3                      18                       6                      28
  2979   3                      16                       6                      30
  2980   3                      18                       4                      30
  2981   2                      16                       4                      32
  2982   4                      18                       6                      34
  2983   3                      18                       6                      32
  2984   3                      16                       6                      34
  2985   3                      18                       4                      34
  2986   2                      16                       4                      36
  2987   4                      18                       6                      38
  2988   3                      18                       6                      36
  2989   3                      16                       6                      38
  2990   3                      18                       4                      38
  2991   2                      16                       4                      40
  2992   4                      18                       6                      42
  2993   3                      18                       6                      40
  2994   3                      16                       6                      42
  2995   3                      18                       4                      42
  2996   2                      16                       4                      44
  2997   4                      18                       6                      46
  2998   3                      18                       6                      44
  2999   3                      16                       6                      46
  3000   3                      18                       4                      46
  3001   2                      16                       8                       0
  3002   4                      18                      10                       2
  3003   3                      18                      10                       0
  3004   3                      16                      10                       2
  3005   3                      18                       8                       2
  3006   1                      16                       8                       4
  3007   4                      18                      10                       6
  3008   3                      18                      10                       4
  3009   3                      16                      10                       6
  3010   3                      18                       8                       6
  3011   2                      16                       8                       8
  3012   4                      18                      10                      10
  3013   3                      18                      10                       8
  3014   3                      16                      10                      10
  3015   3                      18                       8                      10
  3016   2                      16                       8                      12
  3017   4                      18                      10                      14
  3018   3                      18                      10                      12
  3019   3                      16                      10                      14
  3020   3                      18                       8                      14
  3021   2                      16                       8                      16
  3022   4                      18                      10                      18
  3023   3                      18                      10                      16
  3024   3                      16                      10                      18
  3025   3                      18                       8                      18
  3026   2                      16                       8                      20
  3027   4                      18                      10                      22
  3028   3                      18                      10                      20
  3029   3                      16                      10                      22
  3030   3                      18                       8                      22
  3031   2                      16                       8                      24
  3032   4                      18                      10                      26
  3033   3                      18                      10                      24
  3034   3                      16                      10                      26
  3035   3                      18                       8                      26
  3036   2                      16                       8                      28
  3037   4                      18                      10                      30
  3038   3                      18                      10                      28
  3039   3                      16                      10                      30
  3040   3                      18                       8                      30
  3041   2                      16                       8                      32
  3042   4                      18                      10                      34
  3043   3                      18                      10                      32
  3044   3                      16                      10                      34
  3045   3                      18                       8                      34
  3046   2                      16                       8                      36
  3047   4                      18                      10                      38
  3048   3                      18                      10                      36
  3049   3                      16                      10                      38
  3050   3                      18                       8                      38
  3051   1                      16                       8                      40
  3052   4                      18                      10                      42
  3053   3                      18                      10                      40
  3054   3                      16                      10                      42
  3055   3                      18                       8                      42
  3056   2                      16                       8                      44
  3057   4                      18                      10                      46
  3058   3                      18                      10                      44
  3059   3                      16                      10                      46
  3060   3                      18                       8                      46
  3061   2                      16                      12                       0
  3062   4                      18                      14                       2
  3063   3                      18                      14                       0
  3064   3                      16                      14                       2
  3065   3                      18                      12                       2
  3066   1                      16                      12                       4
  3067   4                      18                      14                       6
  3068   3                      18                      14                       4
  3069   3                      16                      14                       6
  3070   3                      18                      12                       6
  3071   2                      16                      12                       8
  3072   4                      18                      14                      10
  3073   3                      18                      14                       8
  3074   3                      16                      14                      10
  3075   3                      18                      12                      10
  3076   2                      16                      12                      12
  3077   4                      18                      14                      14
  3078   3                      18                      14                      12
  3079   3                      16                      14                      14
  3080   3                      18                      12                      14
  3081   2                      16                      12                      16
  3082   4                      18                      14                      18
  3083   3                      18                      14                      16
  3084   3                      16                      14                      18
  3085   3                      18                      12                      18
  3086   2                      16                      12                      20
  3087   4                      18                      14                      22
  3088   3                      18                      14                      20
  3089   3                      16                      14                      22
  3090   3                      18                      12                      22
  3091   2                      16                      12                      24
  3092   4                      18                      14                      26
  3093   3                      18                      14                      24
  3094   3                      16                      14                      26
  3095   3                      18                      12                      26
  3096   1                      16                      12                      28
  3097   4                      18                      14                      30
  3098   3                      18                      14                      28
  3099   3                      16                      14                      30
  3100   3                      18                      12                      30
  3101   1                      16                      12                      32
  3102   4                      18                      14                      34
  3103   3                      18                      14                      32
  3104   3                      16                      14                      34
  3105   3                      18                      12                      34
  3106   2                      16                      12                      36
  3107   4                      18                      14                      38
  3108   3                      18                      14                      36
  3109   3                      16                      14                      38
  3110   3                      18                      12                      38
  3111   2                      16                      12                      40
  3112   4                      18                      14                      42
  3113   3                      18                      14                      40
  3114   3                      16                      14                      42
  3115   3                      18                      12                      42
  3116   2                      16                      12                      44
  3117   4                      18                      14                      46
  3118   3                      18                      14                      44
  3119   3                      16                      14                      46
  3120   3                      18                      12                      46
  3121   2                      16                      16                       0
  3122   4                      18                      18                       2
  3123   3                      18                      18                       0
  3124   3                      16                      18                       2
  3125   3                      18                      16                       2
  3126   2                      16                      16                       4
  3127   4                      18                      18                       6
  3128   3                      18                      18                       4
  3129   3                      16                      18                       6
  3130   3                      18                      16                       6
  3131   1                      16                      16                       8
  3132   4                      18                      18                      10
  3133   3                      18                      18                       8
  3134   3                      16                      18                      10
  3135   3                      18                      16                      10
  3136   2                      16                      16                      12
  3137   4                      18                      18                      14
  3138   3                      18                      18                      12
  3139   3                      16                      18                      14
  3140   3                      18                      16                      14
  3141   2                      16                      16                      16
  3142   4                      18                      18                      18
  3143   3                      18                      18                      16
  3144   3                      16                      18                      18
  3145   3                      18                      16                      18
  3146   1                      16                      16                      20
  3147   4                      18                      18                      22
  3148   3                      18                      18                      20
  3149   3                      16                      18                      22
  3150   3                      18                      16                      22
  3151   2                      16                      16                      24
  3152   4                      18                      18                      26
  3153   3                      18                      18                      24
  3154   3                      16                      18                      26
  3155   3                      18                      16                      26
  3156   2                      16                      16                      28
  3157   4                      18                      18                      30
  3158   3                      18                      18                      28
  3159   3                      16                      18                      30
  3160   3                      18                      16                      30
  3161   2                      16                      16                      32
  3162   4                      18                      18                      34
  3163   3                      18                      18                      32
  3164   3                      16                      18                      34
  3165   3                      18                      16                      34
  3166   2                      16                      16                      36
  3167   4                      18                      18                      38
  3168   3                      18                      18                      36
  3169   3                      16                      18                      38
  3170   3                      18                      16                      38
  3171   2                      16                      16                      40
  3172   4                      18                      18                      42
  3173   3                      18                      18                      40
  3174   3                      16                      18                      42
  3175   3                      18                      16                      42
  3176   2                      16                      16                      44
  3177   4                      18                      18                      46
  3178   3                      18                      18                      44
  3179   3                      16                      18                      46
  3180   3                      18                      16                      46
  3181   2                      16                      20                       0
  3182   4                      18                      22                       2
  3183   3                      18                      22                       0
  3184   3                      16                      22                       2
  3185   3                      18                      20                       2
  3186   2                      16                      20                       4
  3187   4                      18                      22                       6
  3188   3                      18                      22                       4
  3189   3                      16                      22                       6
  3190   3                      18                      20                       6
  3191   2                      16                      20                       8
  3192   4                      18                      22                      10
  3193   3                      18                      22                       8
  3194   3                      16                      22                      10
  3195   3                      18                      20                      10
  3196   1                      16                      20                      12
  3197   4                      18                      22                      14
  3198   3                      18                      22                      12
  3199   3                      16                      22                      14
  3200   3                      18                      20                      14
  3201   1                      16                      20                      16
  3202   4                      18                      22                      18
  3203   3                      18                      22                      16
  3204   3                      16                      22                      18
  3205   3                      18                      20                      18
  3206   2                      16                      20                      20
  3207   4                      18                      22                      22
  3208   3                      18                      22                      20
  3209   3                      16                      22                      22
  3210   3                      18                      20                      22
  3211   2                      16                      20                      24
  3212   4                      18                      22                      26
  3213   3                      18                      22                      24
  3214   3                      16                      22                      26
  3215   3                      18                      20                      26
  3216   2                      16                      20                      28
  3217   4                      18                      22                      30
  3218   3                      18                      22                      28
  3219   3                      16                      22                      30
  3220   3                      18                      20                      30
  3221   2                      16                      20                      32
  3222   4                      18                      22                      34
  3223   3                      18                      22                      32
  3224   3                      16                      22                      34
  3225   3                      18                      20                      34
  3226   2                      16                      20                      36
  3227   4                      18                      22                      38
  3228   3                      18                      22                      36
  3229   3                      16                      22                      38
  3230   3                      18                      20                      38
  3231   2                      16                      20                      40
  3232   4                      18                      22                      42
  3233   3                      18                      22                      40
  3234   3                      16                      22                      42
  3235   3                      18                      20                      42
  3236   2                      16                      20                      44
  3237   4                      18                      22                      46
  3238   3                      18                      22                      44
  3239   3                      16                      22                      46
  3240   3                      18                      20                      46
  3241   1                      16                      24                       0
  3242   4                      18                      26                       2
  3243   3                      18                      26                       0
  3244   3                      16                      26                       2
  3245   3                      18                      24                       2
  3246   2                      16                      24                       4
  3247   4                      18                      26                       6
  3248   3                      18                      26                       4
  3249   3                      16                      26                       6
  3250   3                      18                      24                       6
  3251   1                      16                      24                       8
  3252   4                      18                      26                      10
  3253   3                      18                      26                       8
  3254   3                      16                      26                      10
  3255   3                      18                      24                      10
  3256   1                      16                      24                      12
  3257   4                      18                      26                      14
  3258   3                      18                      26                      12
  3259   3                      16                      26                      14
  3260   3                      18                      24                      14
  3261   2                      16                      24                      16
  3262   4                      18                      26                      18
  3263   3                      18                      26                      16
  3264   3                      16                      26                      18
  3265   3                      18                      24                      18
  3266   2                      16                      24                      20
  3267   4                      18                      26                      22
  3268   3                      18                      26                      20
  3269   3                      16                      26                      22
  3270   3                      18                      24                      22
  3271   2                      16                      24                      24
  3272   4                      18                      26                      26
  3273   3                      18                      26                      24
  3274   3                      16                      26                      26
  3275   3                      18                      24                      26
  3276   2                      16                      24                      28
  3277   4                      18                      26                      30
  3278   3                      18                      26                      28
  3279   3                      16                      26                      30
  3280   3                      18                      24                      30
  3281   1                      16                      24                      32
  3282   4                      18                      26                      34
  3283   3                      18                      26                      32
  3284   3                      16                      26                      34
  3285   3                      18                      24                      34
  3286   2                      16                      24                      36
  3287   4                      18                      26                      38
  3288   3                      18                      26                      36
  3289   3                      16                      26                      38
  3290   3                      18                      24                      38
  3291   2                      16                      24                      40
  3292   4                      18                      26                      42
  3293   3                      18                      26                      40
  3294   3                      16                      26                      42
  3295   3                      18                      24                      42
  3296   1                      16                      24                      44
  3297   4                      18                      26                      46
  3298   3                      18                      26                      44
  3299   3                      16                      26                      46
  3300   3                      18                      24                      46
  3301   2                      16                      28                       0
  3302   4                      18                      30                       2
  3303   3                      18                      30                       0
  3304   3                      16                      30                       2
  3305   3                      18                      28                       2
  3306   2                      16                      28                       4
  3307   4                      18                      30                       6
  3308   3                      18                      30                       4
  3309   3                      16                      30                       6
  3310   3                      18                      28                       6
  3311   2                      16                      28                       8
  3312   4                      18                      30                      10
  3313   3                      18                      30                       8
  3314   3                      16                      30                      10
  3315   3                      18                      28                      10
  3316   2                      16                      28                      12
  3317   4                      18                      30                      14
  3318   3                      18                      30                      12
  3319   3                      16                      30                      14
  3320   3                      18                      28                      14
  3321   1                      16                      28                      16
  3322   4                      18                      30                      18
  3323   3                      18                      30                      16
  3324   3                      16                      30                      18
  3325   3                      18                      28                      18
  3326   1                      16                      28                      20
  3327   4                      18                      30                      22
  3328   3                      18                      30                      20
  3329   3                      16                      30                      22
  3330   3                      18                      28                      22
  3331   2                      16                      28                      24
  3332   4                      18                      30                      26
  3333   3                      18                      30                      24
  3334   3                      16                      30                      26
  3335   3                      18                      28                      26
  3336   2                      16                      28                      28
  3337   4                      18                      30                      30
  3338   3                      18                      30                      28
  3339   3                      16                      30                      30
  3340   3                      18                      28                      30
  3341   2                      16                      28                      32
  3342   4                      18                      30                      34
  3343   3                      18                      30                      32
  3344   3                      16                      30                      34
  3345   3                      18                      28                      34
  3346   2                      16                      28                      36
  3347   4                      18                      30                      38
  3348   3                      18                      30                      36
  3349   3                      16                      30                      38
  3350   3                      18                      28                      38
  3351   2                      16                      28                      40
  3352   4                      18                      30                      42
  3353   3                      18                      30                      40
  3354   3                      16                      30                      42
  3355   3                      18                      28                      42
  3356   2                      16                      28                      44
  3357   4                      18                      30                      46
  3358   3                      18                      30                      44
  3359   3                      16                      30                      46
  3360   3                      18                      28                      46
  3361   1                      16                      32                       0
  3362   4                      18                      34                       2
  3363   3                      18                      34                       0
  3364   3                      16                      34                       2
  3365   3                      18                      32                       2
  3366   2                      16                      32                       4
  3367   4                      18                      34                       6
  3368   3                      18                      34                       4
  3369   3                      16                      34                       6
  3370   3                      18                      32                       6
  3371   1                      16                      32                       8
  3372   4                      18                      34                      10
  3373   3                      18                      34                       8
  3374   3                      16                      34                      10
  3375   3                      18                      32                      10
  3376   2                      16                      32                      12
  3377   4                      18                      34                      14
  3378   3                      18                      34                      12
  3379   3                      16                      34                      14
  3380   3                      18                      32                      14
  3381   2                      16                      32                      16
  3382   4                      18                      34                      18
  3383   3                      18                      34                      16
  3384   3                      16                      34                      18
  3385   3                      18                      32                      18
  3386   2                      16                      32                      20
  3387   4                      18                      34                      22
  3388   3                      18                      34                      20
  3389   3                      16                      34                      22
  3390   3                      18                      32                      22
  3391   2                      16                      32                      24
  3392   4                      18                      34                      26
  3393   3                      18                      34                      24
  3394   3                      16                      34                      26
  3395   3                      18                      32                      26
  3396   1                      16                      32                      28
  3397   4                      18                      34                      30
  3398   3                      18                      34                      28
  3399   3                      16                      34                      30
  3400   3                      18                      32                      30
  3401   1                      16                      32                      32
  3402   4                      18                      34                      34
  3403   3                      18                      34                      32
  3404   3                      16                      34                      34
  3405   3                      18                      32                      34
  3406   2                      16                      32                      36
  3407   4                      18                      34                      38
  3408   3                      18                      34                      36
  3409   3                      16                      34                      38
  3410   3                      18                      32                      38
  3411   1                      16                      32                      40
  3412   4                      18                      34                      42
  3413   3                      18                      34                      40
  3414   3                      16                      34                      42
  3415   3                      18                      32                      42
  3416   1                      16                      32                      44
  3417   4                      18                      34                      46
  3418   3                      18                      34                      44
  3419   3                      16                      34                      46
  3420   3                      18                      32                      46
  3421   2                      16                      36                       0
  3422   4                      18                      38                       2
  3423   3                      18                      38                       0
  3424   3                      16                      38                       2
  3425   3                      18                      36                       2
  3426   1                      16                      36                       4
  3427   4                      18                      38                       6
  3428   3                      18                      38                       4
  3429   3                      16                      38                       6
  3430   3                      18                      36                       6
  3431   2                      16                      36                       8
  3432   4                      18                      38                      10
  3433   3                      18                      38                       8
  3434   3                      16                      38                      10
  3435   3                      18                      36                      10
  3436   2                      16                      36                      12
  3437   4                      18                      38                      14
  3438   3                      18                      38                      12
  3439   3                      16                      38                      14
  3440   3                      18                      36                      14
  3441   1                      16                      36                      16
  3442   4                      18                      38                      18
  3443   3                      18                      38                      16
  3444   3                      16                      38                      18
  3445   3                      18                      36                      18
  3446   2                      16                      36                      20
  3447   4                      18                      38                      22
  3448   3                      18                      38                      20
  3449   3                      16                      38                      22
  3450   3                      18                      36                      22
  3451   1                      16                      36                      24
  3452   4                      18                      38                      26
  3453   3                      18                      38                      24
  3454   3                      16                      38                      26
  3455   3                      18                      36                      26
  3456   2                      16                      36                      28
  3457   4                      18                      38                      30
  3458   3                      18                      38                      28
  3459   3                      16                      38                      30
  3460   3                      18                      36                      30
  3461   1                      16                      36                      32
  3462   4                      18                      38                      34
  3463   3                      18                      38                      32
  3464   3                      16                      38                      34
  3465   3                      18                      36                      34
  3466   2                      16                      36                      36
  3467   4                      18                      38                      38
  3468   3                      18                      38                      36
  3469   3                      16                      38                      38
  3470   3                      18                      36                      38
  3471   1                      16                      36                      40
  3472   4                      18                      38                      42
  3473   3                      18                      38                      40
  3474   3                      16                      38                      42
  3475   3                      18                      36                      42
  3476   2                      16                      36                      44
  3477   4                      18                      38                      46
  3478   3                      18                      38                      44
  3479   3                      16                      38                      46
  3480   3                      18                      36                      46
  3481   1                      16                      40                       0
  3482   4                      18                      42                       2
  3483   3                      18                      42                       0
  3484   3                      16                      42                       2
  3485   3                      18                      40                       2
  3486   1                      16                      40                       4
  3487   4                      18                      42                       6
  3488   3                      18                      42                       4
  3489   3                      16                      42                       6
  3490   3                      18                      40                       6
  3491   1                      16                      40                       8
  3492   4                      18                      42                      10
  3493   3                      18                      42                       8
  3494   3                      16                      42                      10
  3495   3                      18                      40                      10
  3496   2                      16                      40                      12
  3497   4                      18                      42                      14
  3498   3                      18                      42                      12
  3499   3                      16                      42                      14
  3500   3                      18                      40                      14
  3501   2                      16                      40                      16
  3502   4                      18                      42                      18
  3503   3                      18                      42                      16
  3504   3                      16                      42                      18
  3505   3                      18                      40                      18
  3506   2                      16                      40                      20
  3507   4                      18                      42                      22
  3508   3                      18                      42                      20
  3509   3                      16                      42                      22
  3510   3                      18                      40                      22
  3511   2                      16                      40                      24
  3512   4                      18                      42                      26
  3513   3                      18                      42                      24
  3514   3                      16                      42                      26
  3515   3                      18                      40                      26
  3516   2                      16                      40                      28
  3517   4                      18                      42                      30
  3518   3                      18                      42                      28
  3519   3                      16                      42                      30
  3520   3                      18                      40                      30
  3521   1                      16                      40                      32
  3522   4                      18                      42                      34
  3523   3                      18                      42                      32
  3524   3                      16                      42                      34
  3525   3                      18                      40                      34
  3526   1                      16                      40                      36
  3527   4                      18                      42                      38
  3528   3                      18                      42                      36
  3529   3                      16                      42                      38
  3530   3                      18                      40                      38
  3531   1                      16                      40                      40
  3532   4                      18                      42                      42
  3533   3                      18                      42                      40
  3534   3                      16                      42                      42
  3535   3                      18                      40                      42
  3536   2                      16                      40                      44
  3537   4                      18                      42                      46
  3538   3                      18                      42                      44
  3539   3                      16                      42                      46
  3540   3                      18                      40                      46
  3541   1                      16                      44                       0
  3542   4                      18                      46                       2
  3543   3                      18                      46                       0
  3544   3                      16                      46                       2
  3545   3                      18                      44                       2
  3546   2                      16                      44                       4
  3547   4                      18                      46                       6
  3548   3                      18                      46                       4
  3549   3                      16                      46                       6
  3550   3                      18                      44                       6
  3551   2                      16                      44                       8
  3552   4                      18                      46                      10
  3553   3                      18                      46                       8
  3554   3                      16                      46                      10
  3555   3                      18                      44                      10
  3556   2                      16                      44                      12
  3557   4                      18                      46                      14
  3558   3                      18                      46                      12
  3559   3                      16                      46                      14
  3560   3                      18                      44                      14
  3561   2                      16                      44                      16
  3562   4                      18                      46                      18
  3563   3                      18                      46                      16
  3564   3                      16                      46                      18
  3565   3                      18                      44                      18
  3566   1                      16                      44                      20
  3567   4                      18                      46                      22
  3568   3                      18                      46                      20
  3569   3                      16                      46                      22
  3570   3                      18                      44                      22
  3571   2                      16                      44                      24
  3572   4                      18                      46                      26
  3573   3                      18                      46                      24
  3574   3                      16                      46                      26
  3575   3                      18                      44                      26
  3576   1                      16                      44                      28
  3577   4                      18                      46                      30
  3578   3                      18                      46                      28
  3579   3                      16                      46                      30
  3580   3                      18                      44                      30
  3581   2                      16                      44                      32
  3582   4                      18                      46                      34
  3583   3                      18                      46                      32
  3584   3                      16                      46                      34
  3585   3                      18                      44                      34
  3586   1                      16                      44                      36
  3587   4                      18                      46                      38
  3588   3                      18                      46                      36
  3589   3                      16                      46                      38
  3590   3                      18                      44                      38
  3591   1                      16                      44                      40
  3592   4                      18                      46                      42
  3593   3                      18                      46                      40
  3594   3                      16                      46                      42
  3595   3                      18                      44                      42
  3596   2                      16                      44                      44
  3597   4                      18                      46                      46
  3598   3                      18                      46                      44
  3599   3                      16                      46                      46
  3600   3                      18                      44                      46
  3601   1                      20                       0                       0
  3602   4                      22                       2                       2
  3603   3                      22                       2                       0
  3604   3                      20                       2                       2
  3605   3                      22                       0                       2
  3606   2                      20                       0                       4
  3607   4                      22                       2                       6
  3608   3                      22                       2                       4
  3609   3                      20                       2                       6
  3610   3                      22                       0                       6
  3611   2                      20                       0                       8
  3612   4                      22                       2                      10
  3613   3                      22                       2                       8
  3614   3                      20                       2                      10
  3615   3                      22                       0                      10
  3616   2                      20                       0                      12
  3617   4                      22                       2                      14
  3618   3                      22                       2                      12
  3619   3                      20                       2                      14
  3620   3                      22                       0                      14
  3621   1                      20                       0                      16
  3622   4                      22                       2                      18
  3623   3                      22                       2                      16
  3624   3                      20                       2                      18
  3625   3                      22                       0                      18
  3626   2                      20                       0                      20
  3627   4                      22                       2                      22
  3628   3                      22                       2                      20
  3629   3                      20                       2                      22
  3630   3                      22                       0                      22
  3631   2                      20                       0                      24
  3632   4                      22                       2                      26
  3633   3                      22                       2                      24
  3634   3                      20                       2                      26
  3635   3                      22                       0                      26
  3636   1                      20                       0                      28
  3637   4                      22                       2                      30
  3638   3                      22                       2                      28
  3639   3                      20                       2                      30
  3640   3                      22                       0                      30
  3641   2                      20                       0                      32
  3642   4                      22                       2                      34
  3643   3                      22                       2                      32
  3644   3                      20                       2                      34
  3645   3                      22                       0                      34
  3646   2                      20                       0                      36
  3647   4                      22                       2                      38
  3648   3                      22                       2                      36
  3649   3                      20                       2                      38
  3650   3                      22                       0                      38
  3651   1                      20                       0                      40
  3652   4                      22                       2                      42
  3653   3                      22                       2                      40
  3654   3                      20                       2                      42
  3655   3                      22                       0                      42
  3656   2                      20                       0                      44
  3657   4                      22                       2                      46
  3658   3                      22                       2                      44
  3659   3                      20                       2                      46
  3660   3                      22                       0                      46
  3661   2                      20                       4                       0
  3662   4                      22                       6                       2
  3663   3                      22                       6                       0
  3664   3                      20                       6                       2
  3665   3                      22                       4                       2
  3666   1                      20                       4                       4
  3667   4                      22                       6                       6
  3668   3                      22                       6                       4
  3669   3                      20                       6                       6
  3670   3                      22                       4                       6
  3671   2                      20                       4                       8
  3672   4                      22                       6                      10
  3673   3                      22                       6                       8
  3674   3                      20                       6                      10
  3675   3                      22                       4                      10
  3676   2                      20                       4                      12
  3677   4                      22                       6                      14
  3678   3                      22                       6                      12
  3679   3                      20                       6                      14
  3680   3                      22                       4                      14
  3681   1                      20                       4                      16
  3682   4                      22                       6                      18
  3683   3                      22                       6                      16
  3684   3                      20                       6                      18
  3685   3                      22                       4                      18
  3686   1                      20                       4                      20
  3687   4                      22                       6                      22
  3688   3                      22                       6                      20
  3689   3                      20                       6                      22
  3690   3                      22                       4                      22
  3691   2                      20                       4                      24
  3692   4                      22                       6                      26
  3693   3                      22                       6                      24
  3694   3                      20                       6                      26
  3695   3                      22                       4                      26
  3696   2                      20                       4                      28
  3697   4                      22                       6                      30
  3698   3                      22                       6                      28
  3699   3                      20                       6                      30
  3700   3                      22                       4                      30
  3701   2                      20                       4                      32
  3702   4                      22                       6                      34
  3703   3                      22                       6                      32
  3704   3                      20                       6                      34
  3705   3                      22                       4                      34
  3706   1                      20                       4                      36
  3707   4                      22                       6                      38
  3708   3                      22                       6                      36
  3709   3                      20                       6                      38
  3710   3                      22                       4                      38
  3711   2                      20                       4                      40
  3712   4                      22                       6                      42
  3713   3                      22                       6                      40
  3714   3                      20                       6                      42
  3715   3                      22                       4                      42
  3716   2                      20                       4                      44
  3717   4                      22                       6                      46
  3718   3                      22                       6                      44
  3719   3                      20                       6                      46
  3720   3                      22                       4                      46
  3721   2                      20                       8                       0
  3722   4                      22                      10                       2
  3723   3                      22                      10                       0
  3724   3                      20                      10                       2
  3725   3                      22                       8                       2
  3726   2                      20                       8                       4
  3727   4                      22                      10                       6
  3728   3                      22                      10                       4
  3729   3                      20                      10                       6
  3730   3                      22                       8                       6
  3731   2                      20                       8                       8
  3732   4                      22                      10                      10
  3733   3                      22                      10                       8
  3734   3                      20                      10                      10
  3735   3                      22                       8                      10
  3736   2                      20                       8                      12
  3737   4                      22                      10                      14
  3738   3                      22                      10                      12
  3739   3                      20                      10                      14
  3740   3                      22                       8                      14
  3741   1                      20                       8                      16
  3742   4                      22                      10                      18
  3743   3                      22                      10                      16
  3744   3                      20                      10                      18
  3745   3                      22                       8                      18
  3746   1                      20                       8                      20
  3747   4                      22                      10                      22
  3748   3                      22                      10                      20
  3749   3                      20                      10                      22
  3750   3                      22                       8                      22
  3751   1                      20                       8                      24
  3752   4                      22                      10                      26
  3753   3                      22                      10                      24
  3754   3                      20                      10                      26
  3755   3                      22                       8                      26
  3756   2                      20                       8                      28
  3757   4                      22                      10                      30
  3758   3                      22                      10                      28
  3759   3                      20                      10                      30
  3760   3                      22                       8                      30
  3761   2                      20                       8                      32
  3762   4                      22                      10                      34
  3763   3                      22                      10                      32
  3764   3                      20                      10                      34
  3765   3                      22                       8                      34
  3766   2                      20                       8                      36
  3767   4                      22                      10                      38
  3768   3                      22                      10                      36
  3769   3                      20                      10                      38
  3770   3                      22                       8                      38
  3771   1                      20                       8                      40
  3772   4                      22                      10                      42
  3773   3                      22                      10                      40
  3774   3                      20                      10                      42
  3775   3                      22                       8                      42
  3776   2                      20                       8                      44
  3777   4                      22                      10                      46
  3778   3                      22                      10                      44
  3779   3                      20                      10                      46
  3780   3                      22                       8                      46
  3781   2                      20                      12                       0
  3782   4                      22                      14                       2
  3783   3                      22                      14                       0
  3784   3                      20                      14                       2
  3785   3                      22                      12                       2
  3786   2                      20                      12                       4
  3787   4                      22                      14                       6
  3788   3                      22                      14                       4
  3789   3                      20                      14                       6
  3790   3                      22                      12                       6
  3791   1                      20                      12                       8
  3792   4                      22                      14                      10
  3793   3                      22                      14                       8
  3794   3                      20                      14                      10
  3795   3                      22                      12                      10
  3796   1                      20                      12                      12
  3797   4                      22                      14                      14
  3798   3                      22                      14                      12
  3799   3                      20                      14                      14
  3800   3                      22                      12                      14
  3801   2                      20                      12                      16
  3802   4                      22                      14                      18
  3803   3                      22                      14                      16
  3804   3                      20                      14                      18
  3805   3                      22                      12                      18
  3806   1                      20                      12                      20
  3807   4                      22                      14                      22
  3808   3                      22                      14                      20
  3809   3                      20                      14                      22
  3810   3                      22                      12                      22
  3811   2                      20                      12                      24
  3812   4                      22                      14                      26
  3813   3                      22                      14                      24
  3814   3                      20                      14                      26
  3815   3                      22                      12                      26
  3816   2                      20                      12                      28
  3817   4                      22                      14                      30
  3818   3                      22                      14                      28
  3819   3                      20                      14                      30
  3820   3                      22                      12                      30
  3821   2                      20                      12                      32
  3822   4                      22                      14                      34
  3823   3                      22                      14                      32
  3824   3                      20                      14                      34
  3825   3                      22                      12                      34
  3826   2                      20                      12                      36
  3827   4                      22                      14                      38
  3828   3                      22                      14                      36
  3829   3                      20                      14                      38
  3830   3                      22                      12                      38
  3831   1                      20                      12                      40
  3832   4                      22                      14                      42
  3833   3                      22                      14                      40
  3834   3                      20                      14                      42
  3835   3                      22                      12                      42
  3836   2                      20                      12                      44
  3837   4                      22                      14                      46
  3838   3                      22                      14                      44
  3839   3                      20                      14                      46
  3840   3                      22                      12                      46
  3841   2                      20                      16                       0
  3842   4                      22                      18                       2
  3843   3                      22                      18                       0
  3844   3                      20                      18                       2
  3845   3                      22                      16                       2
  3846   2                      20                      16                       4
  3847   4                      22                      18                       6
  3848   3                      22                      18                       4
  3849   3                      20                      18                       6
  3850   3                      22                      16                       6
  3851   1                      20                      16                       8
  3852   4                      22                      18                      10
  3853   3                      22                      18                       8
  3854   3                      20                      18                      10
  3855   3                      22                      16                      10
  3856   2                      20                      16                      12
  3857   4                      22                      18                      14
  3858   3                      22                      18                      12
  3859   3                      20                      18                      14
  3860   3                      22                      16                      14
  3861   1                      20                      16                      16
  3862   4                      22                      18                      18
  3863   3                      22                      18                      16
  3864   3                      20                      18                      18
  3865   3                      22                      16                      18
  3866   1                      20                      16                      20
  3867   4                      22                      18                      22
  3868   3                      22                      18                      20
  3869   3                      20                      18                      22
  3870   3                      22                      16                      22
  3871   1                      20                      16                      24
  3872   4                      22                      18                      26
  3873   3                      22                      18                      24
  3874   3                      20                      18                      26
  3875   3                      22                      16                      26
  3876   2                      20                      16                      28
  3877   4                      22                      18                      30
  3878   3                      22                      18                      28
  3879   3                      20                      18                      30
  3880   3                      22                      16                      30
  3881   1                      20                      16                      32
  3882   4                      22                      18                      34
  3883   3                      22                      18                      32
  3884   3                      20                      18                      34
  3885   3                      22                      16                      34
  3886   2                      20                      16                      36
  3887   4                      22                      18                      38
  3888   3                      22                      18                      36
  3889   3                      20                      18                      38
  3890   3                      22                      16                      38
  3891   2                      20                      16                      40
  3892   4                      22                      18                      42
  3893   3                      22                      18                      40
  3894   3                      20                      18                      42
  3895   3                      22                      16                      42
  3896   1                      20                      16                      44
  3897   4                      22                      18                      46
  3898   3                      22                      18                      44
  3899   3                      20                      18                      46
  3900   3                      22                      16                      46
  3901   2                      20                      20                       0
  3902   4                      22                      22                       2
  3903   3                      22                      22                       0
  3904   3                      20                      22                       2
  3905   3                      22                      20                       2
  3906   2                      20                      20                       4
  3907   4                      22                      22                       6
  3908   3                      22                      22                       4
  3909   3                      20                      22                       6
  3910   3                      22                      20                       6
  3911   2                      20                      20                       8
  3912   4                      22                      22                      10
  3913   3                      22                      22                       8
  3914   3                      20                      22                      10
  3915   3                      22                      20                      10
  3916   1                      20                      20                      12
  3917   4                      22                      22                      14
  3918   3                      22                      22                      12
  3919   3                      20                      22                      14
  3920   3                      22                      20                      14
  3921   1                      20                      20                      16
  3922   4                      22                      22                      18
  3923   3                      22                      22                      16
  3924   3                      20                      22                      18
  3925   3                      22                      20                      18
  3926   2                      20                      20                      20
  3927   4                      22                      22                      22
  3928   3                      22                      22                      20
  3929   3                      20                      22                      22
  3930   3                      22                      20                      22
  3931   1                      20                      20                      24
  3932   4                      22                      22                      26
  3933   3                      22                      22                      24
  3934   3                      20                      22                      26
  3935   3                      22                      20                      26
  3936   2                      20                      20                      28
  3937   4                      22                      22                      30
  3938   3                      22                      22                      28
  3939   3                      20                      22                      30
  3940   3                      22                      20                      30
  3941   2                      20                      20                      32
  3942   4                      22                      22                      34
  3943   3                      22                      22                      32
  3944   3                      20                      22                      34
  3945   3                      22                      20                      34
  3946   2                      20                      20                      36
  3947   4                      22                      22                      38
  3948   3                      22                      22                      36
  3949   3                      20                      22                      38
  3950   3                      22                      20                      38
  3951   2                      20                      20                      40
  3952   4                      22                      22                      42
  3953   3                      22                      22                      40
  3954   3                      20                      22                      42
  3955   3                      22                      20                      42
  3956   2                      20                      20                      44
  3957   4                      22                      22                      46
  3958   3                      22                      22                      44
  3959   3                      20                      22                      46
  3960   3                      22                      20                      46
  3961   2                      20                      24                       0
  3962   4                      22                      26                       2
  3963   3                      22                      26                       0
  3964   3                      20                      26                       2
  3965   3                      22                      24                       2
  3966   2                      20                      24                       4
  3967   4                      22                      26                       6
  3968   3                      22                      26                       4
  3969   3                      20                      26                       6
  3970   3                      22                      24                       6
  3971   2                      20                      24                       8
  3972   4                      22                      26                      10
  3973   3                      22                      26                       8
  3974   3                      20                      26                      10
  3975   3                      22                      24                      10
  3976   2                      20                      24                      12
  3977   4                      22                      26                      14
  3978   3                      22                      26                      12
  3979   3                      20                      26                      14
  3980   3                      22                      24                      14
  3981   1                      20                      24                      16
  3982   4                      22                      26                      18
  3983   3                      22                      26                      16
  3984   3                      20                      26                      18
  3985   3                      22                      24                      18
  3986   2                      20                      24                      20
  3987   4                      22                      26                      22
  3988   3                      22                      26                      20
  3989   3                      20                      26                      22
  3990   3                      22                      24                      22
  3991   1                      20                      24                      24
  3992   4                      22                      26                      26
  3993   3                      22                      26                      24
  3994   3                      20                      26                      26
  3995   3                      22                      24                      26
  3996   2                      20                      24                      28
  3997   4                      22                      26                      30
  3998   3                      22                      26                      28
  3999   3                      20                      26                      30
  4000   3                      22                      24                      30
  4001   1                      20                      24                      32
  4002   4                      22                      26                      34
  4003   3                      22                      26                      32
  4004   3                      20                      26                      34
  4005   3                      22                      24                      34
  4006   2                      20                      24                      36
  4007   4                      22                      26                      38
  4008   3                      22                      26                      36
  4009   3                      20                      26                      38
  4010   3                      22                      24                      38
  4011   1                      20                      24                      40
  4012   4                      22                      26                      42
  4013   3                      22                      26                      40
  4014   3                      20                      26                      42
  4015   3                      22                      24                      42
  4016   2                      20                      24                      44
  4017   4                      22                      26                      46
  4018   3                      22                      26                      44
  4019   3                      20                      26                      46
  4020   3                      22                      24                      46
  4021   2                      20                      28                       0
  4022   4                      22                      30                       2
  4023   3                      22                      30                       0
  4024   3                      20                      30                       2
  4025   3                      22                      28                       2
  4026   1                      20                      28                       4
  4027   4                      22                      30                       6
  4028   3                      22                      30                       4
  4029   3                      20                      30                       6
  4030   3                      22                      28                       6
  4031   2                      20                      28                       8
  4032   4                      22                      30                      10
  4033   3                      22                      30                       8
  4034   3                      20                      30                      10
  4035   3                      22                      28                      10
  4036   1                      20                      28                      12
  4037   4                      22                      30                      14
  4038   3                      22                      30                      12
  4039   3                      20                      30                      14
  4040   3                      22                      28                      14
  4041   2                      20                      28                      16
  4042   4                      22                      30                      18
  4043   3                      22                      30                      16
  4044   3                      20                      30                      18
  4045   3                      22                      28                      18
  4046   2                      20                      28                      20
  4047   4                      22                      30                      22
  4048   3                      22                      30                      20
  4049   3                      20                      30                      22
  4050   3                      22                      28                      22
  4051   1                      20                      28                      24
  4052   4                      22                      30                      26
  4053   3                      22                      30                      24
  4054   3                      20                      30                      26
  4055   3                      22                      28                      26
  4056   1                      20                      28                      28
  4057   4                      22                      30                      30
  4058   3                      22                      30                      28
  4059   3                      20                      30                      30
  4060   3                      22                      28                      30
  4061   2                      20                      28                      32
  4062   4                      22                      30                      34
  4063   3                      22                      30                      32
  4064   3                      20                      30                      34
  4065   3                      22                      28                      34
  4066   2                      20                      28                      36
  4067   4                      22                      30                      38
  4068   3                      22                      30                      36
  4069   3                      20                      30                      38
  4070   3                      22                      28                      38
  4071   1                      20                      28                      40
  4072   4                      22                      30                      42
  4073   3                      22                      30                      40
  4074   3                      20                      30                      42
  4075   3                      22                      28                      42
  4076   2                      20                      28                      44
  4077   4                      22                      30                      46
  4078   3                      22                      30                      44
  4079   3                      20                      30                      46
  4080   3                      22                      28                      46
  4081   1                      20                      32                       0
  4082   4                      22                      34                       2
  4083   3                      22                      34                       0
  4084   3                      20                      34                       2
  4085   3                      22                      32                       2
  4086   1                      20                      32                       4
  4087   4                      22                      34                       6
  4088   3                      22                      34                       4
  4089   3                      20                      34                       6
  4090   3                      22                      32                       6
  4091   2                      20                      32                       8
  4092   4                      22                      34                      10
  4093   3                      22                      34                       8
  4094   3                      20                      34                      10
  4095   3                      22                      32                      10
  4096   1                      20                      32                      12
  4097   4                      22                      34                      14
  4098   3                      22                      34                      12
  4099   3                      20                      34                      14
  4100   3                      22                      32                      14
  4101   2                      20                      32                      16
  4102   4                      22                      34                      18
  4103   3                      22                      34                      16
  4104   3                      20                      34                      18
  4105   3                      22                      32                      18
  4106   1                      20                      32                      20
  4107   4                      22                      34                      22
  4108   3                      22                      34                      20
  4109   3                      20                      34                      22
  4110   3                      22                      32                      22
  4111   2                      20                      32                      24
  4112   4                      22                      34                      26
  4113   3                      22                      34                      24
  4114   3                      20                      34                      26
  4115   3                      22                      32                      26
  4116   2                      20                      32                      28
  4117   4                      22                      34                      30
  4118   3                      22                      34                      28
  4119   3                      20                      34                      30
  4120   3                      22                      32                      30
  4121   2                      20                      32                      32
  4122   4                      22                      34                      34
  4123   3                      22                      34                      32
  4124   3                      20                      34                      34
  4125   3                      22                      32                      34
  4126   2                      20                      32                      36
  4127   4                      22                      34                      38
  4128   3                      22                      34                      36
  4129   3                      20                      34                      38
  4130   3                      22                      32                      38
  4131   1                      20                      32                      40
  4132   4                      22                      34                      42
  4133   3                      22                      34                      40
  4134   3                      20                      34                      42
  4135   3                      22                      32                      42
  4136   1                      20                      32                      44
  4137   4                      22                      34                      46
  4138   3                      22                      34                      44
  4139   3                      20                      34                      46
  4140   3                      22                      32                      46
  4141   2                      20                      36                       0
  4142   4                      22                      38                       2
  4143   3                      22                      38                       0
  4144   3                      20                      38                       2
  4145   3                      22                      36                       2
  4146   2                      20                      36                       4
  4147   4                      22                      38                       6
  4148   3                      22                      38                       4
  4149   3                      20                      38                       6
  4150   3                      22                      36                       6
  4151   2                      20                      36                       8
  4152   4                      22                      38                      10
  4153   3                      22                      38                       8
  4154   3                      20                      38                      10
  4155   3                      22                      36                      10
  4156   2                      20                      36                      12
  4157   4                      22                      38                      14
  4158   3                      22                      38                      12
  4159   3                      20                      38                      14
  4160   3                      22                      36                      14
  4161   2                      20                      36                      16
  4162   4                      22                      38                      18
  4163   3                      22                      38                      16
  4164   3                      20                      38                      18
  4165   3                      22                      36                      18
  4166   2                      20                      36                      20
  4167   4                      22                      38                      22
  4168   3                      22                      38                      20
  4169   3                      20                      38                      22
  4170   3                      22                      36                      22
  4171   2                      20                      36                      24
  4172   4                      22                      38                      26
  4173   3                      22                      38                      24
  4174   3                      20                      38                      26
  4175   3                      22                      36                      26
  4176   2                      20                      36                      28
  4177   4                      22                      38                      30
  4178   3                      22                      38                      28
  4179   3                      20                      38                      30
  4180   3                      22                      36                      30
  4181   2                      20                      36                      32
  4182   4                      22                      38                      34
  4183   3                      22                      38                      32
  4184   3                      20                      38                      34
  4185   3                      22                      36                      34
  4186   2                      20                      36                      36
  4187   4                      22                      38                      38
  4188   3                      22                      38                      36
  4189   3                      20                      38                      38
  4190   3                      22                      36                      38
  4191   2                      20                      36                      40
  4192   4                      22                      38                      42
  4193   3                      22                      38                      40
  4194   3                      20                      38                      42
  4195   3                      22                      36                      42
  4196   2                      20                      36                      44
  4197   4                      22                      38                      46
  4198   3                      22                      38                      44
  4199   3                      20                      38                      46
  4200   3                      22                      36                      46
  4201   2                      20                      40                       0
  4202   4                      22                      42                       2
  4203   3                      22                      42                       0
  4204   3                      20                      42                       2
  4205   3                      22                      40                       2
  4206   2                      20                      40                       4
  4207   4                      22                      42                       6
  4208   3                      22                      42                       4
  4209   3                      20                      42                       6
  4210   3                      22                      40                       6
  4211   2                      20                      40                       8
  4212   4                      22                      42                      10
  4213   3                      22                      42                       8
  4214   3                      20                      42                      10
  4215   3                      22                      40                      10
  4216   2                      20                      40                      12
  4217   4                      22                      42                      14
  4218   3                      22                      42                      12
  4219   3                      20                      42                      14
  4220   3                      22                      40                      14
  4221   2                      20                      40                      16
  4222   4                      22                      42                      18
  4223   3                      22                      42                      16
  4224   3                      20                      42                      18
  4225   3                      22                      40                      18
  4226   2                      20                      40                      20
  4227   4                      22                      42                      22
  4228   3                      22                      42                      20
  4229   3                      20                      42                      22
  4230   3                      22                      40                      22
  4231   1                      20                      40                      24
  4232   4                      22                      42                      26
  4233   3                      22                      42                      24
  4234   3                      20                      42                      26
  4235   3                      22                      40                      26
  4236   1                      20                      40                      28
  4237   4                      22                      42                      30
  4238   3                      22                      42                      28
  4239   3                      20                      42                      30
  4240   3                      22                      40                      30
  4241   1                      20                      40                      32
  4242   4                      22                      42                      34
  4243   3                      22                      42                      32
  4244   3                      20                      42                      34
  4245   3                      22                      40                      34
  4246   1                      20                      40                      36
  4247   4                      22                      42                      38
  4248   3                      22                      42                      36
  4249   3                      20                      42                      38
  4250   3                      22                      40                      38
  4251   2                      20                      40                      40
  4252   4                      22                      42                      42
  4253   3                      22                      42                      40
  4254   3                      20                      42                      42
  4255   3                      22                      40                      42
  4256   2                      20                      40                      44
  4257   4                      22                      42                      46
  4258   3                      22                      42                      44
  4259   3                      20                      42                      46
  4260   3                      22                      40                      46
  4261   2                      20                      44                       0
  4262   4                      22                      46                       2
  4263   3                      22                      46                       0
  4264   3                      20                      46                       2
  4265   3                      22                      44                       2
  4266   2                      20                      44                       4
  4267   4                      22                      46                       6
  4268   3                      22                      46                       4
  4269   3                      20                      46                       6
  4270   3                      22                      44                       6
  4271   2                      20                      44                       8
  4272   4                      22                      46                      10
  4273   3                      22                      46                       8
  4274   3                      20                      46                      10
  4275   3                      22                      44                      10
  4276   1                      20                      44                      12
  4277   4                      22                      46                      14
  4278   3                      22                      46                      12
  4279   3                      20                      46                      14
  4280   3                      22                      44                      14
  4281   2                      20                      44                      16
  4282   4                      22                      46                      18
  4283   3                      22                      46                      16
  4284   3                      20                      46                      18
  4285   3                      22                      44                      18
  4286   2                      20                      44                      20
  4287   4                      22                      46                      22
  4288   3                      22                      46                      20
  4289   3                      20                      46                      22
  4290   3                      22                      44                      22
  4291   1                      20                      44                      24
  4292   4                      22                      46                      26
  4293   3                      22                      46                      24
  4294   3                      20                      46                      26
  4295   3                      22                      44                      26
  4296   1                      20                      44                      28
  4297   4                      22                      46                      30
  4298   3                      22                      46                      28
  4299   3                      20                      46                      30
  4300   3                      22                      44                      30
  4301   2                      20                      44                      32
  4302   4                      22                      46                      34
  4303   3                      22                      46                      32
  4304   3                      20                      46                      34
  4305   3                      22                      44                      34
  4306   1                      20                      44                      36
  4307   4                      22                      46                      38
  4308   3                      22                      46                      36
  4309   3                      20                      46                      38
  4310   3                      22                      44                      38
  4311   2                      20                      44                      40
  4312   4                      22                      46                      42
  4313   3                      22                      46                      40
  4314   3                      20                      46                      42
  4315   3                      22                      44                      42
  4316   1                      20                      44                      44
  4317   4                      22                      46                      46
  4318   3                      22                      46                      44
  4319   3                      20                      46                      46
  4320   3                      22                      44                      46
  4321   1                      24                       0                       0
  4322   4                      26                       2                       2
  4323   3                      26                       2                       0
  4324   3                      24                       2                       2
  4325   3                      26                       0                       2
  4326   2                      24                       0                       4
  4327   4                      26                       2                       6
  4328   3                      26                       2                       4
  4329   3                      24                       2                       6
  4330   3                      26                       0                       6
  4331   2                      24                       0                       8
  4332   4                      26                       2                      10
  4333   3                      26                       2                       8
  4334   3                      24                       2                      10
  4335   3                      26                       0                      10
  4336   2                      24                       0                      12
  4337   4                      26                       2                      14
  4338   3                      26                       2                      12
  4339   3                      24                       2                      14
  4340   3                      26                       0                      14
  4341   2                      24                       0                      16
  4342   4                      26                       2                      18
  4343   3                      26                       2                      16
  4344   3                      24                       2                      18
  4345   3                      26                       0                      18
  4346   2                      24                       0                      20
  4347   4                      26                       2                      22
  4348   3                      26                       2                      20
  4349   3                      24                       2                      22
  4350   3                      26                       0                      22
  4351   2                      24                       0                      24
  4352   4                      26                       2                      26
  4353   3                      26                       2                      24
  4354   3                      24                       2                      26
  4355   3                      26                       0                      26
  4356   2                      24                       0                      28
  4357   4                      26                       2                      30
  4358   3                      26                       2                      28
  4359   3                      24                       2                      30
  4360   3                      26                       0                      30
  4361   2                      24                       0                      32
  4362   4                      26                       2                      34
  4363   3                      26                       2                      32
  4364   3                      24                       2                      34
  4365   3                      26                       0                      34
  4366   2                      24                       0                      36
  4367   4                      26                       2                      38
  4368   3                      26                       2                      36
  4369   3                      24                       2                      38
  4370   3                      26                       0                      38
  4371   1                      24                       0                      40
  4372   4                      26                       2                      42
  4373   3                      26                       2                      40
  4374   3                      24                       2                      42
  4375   3                      26                       0                      42
  4376   1                      24                       0                      44
  4377   4                      26                       2                      46
  4378   3                      26                       2                      44
  4379   3                      24                       2                      46
  4380   3                      26                       0                      46
  4381   1                      24                       4                       0
  4382   4                      26                       6                       2
  4383   3                      26                       6                       0
  4384   3                      24                       6                       2
  4385   3                      26                       4                       2
  4386   1                      24                       4                       4
  4387   4                      26                       6                       6
  4388   3                      26                       6                       4
  4389   3                      24                       6                       6
  4390   3                      26                       4                       6
  4391   2                      24                       4                       8
  4392   4                      26                       6                      10
  4393   3                      26                       6                       8
  4394   3                      24                       6                      10
  4395   3                      26                       4                      10
  4396   2                      24                       4                      12
  4397   4                      26                       6                      14
  4398   3                      26                       6                      12
  4399   3                      24                       6                      14
  4400   3                      26                       4                      14
  4401   2                      24                       4                      16
  4402   4                      26                       6                      18
  4403   3                      26                       6                      16
  4404   3                      24                       6                      18
  4405   3                      26                       4                      18
  4406   1                      24                       4                      20
  4407   4                      26                       6                      22
  4408   3                      26                       6                      20
  4409   3                      24                       6                      22
  4410   3                      26                       4                      22
  4411   2                      24                       4                      24
  4412   4                      26                       6                      26
  4413   3                      26                       6                      24
  4414   3                      24                       6                      26
  4415   3                      26                       4                      26
  4416   1                      24                       4                      28
  4417   4                      26                       6                      30
  4418   3                      26                       6                      28
  4419   3                      24                       6                      30
  4420   3                      26                       4                      30
  4421   2                      24                       4                      32
  4422   4                      26                       6                      34
  4423   3                      26                       6                      32
  4424   3                      24                       6                      34
  4425   3                      26                       4                      34
  4426   2                      24                       4                      36
  4427   4                      26                       6                      38
  4428   3                      26                       6                      36
  4429   3                      24                       6                      38
  4430   3                      26                       4                      38
  4431   2                      24                       4                      40
  4432   4                      26                       6                      42
  4433   3                      26                       6                      40
  4434   3                      24                       6                      42
  4435   3                      26                       4                      42
  4436   2                      24                       4                      44
  4437   4                      26                       6                      46
  4438   3                      26                       6                      44
  4439   3                      24                       6                      46
  4440   3                      26                       4                      46
  4441   1                      24                       8                       0
  4442   4                      26                      10                       2
  4443   3                      26                      10                       0
  4444   3                      24                      10                       2
  4445   3                      26                       8                       2
  4446   1                      24                       8                       4
  4447   4                      26                      10                       6
  4448   3                      26                      10                       4
  4449   3                      24                      10                       6
  4450   3                      26                       8                       6
  4451   2                      24                       8                       8
  4452   4                      26                      10                      10
  4453   3                      26                      10                       8
  4454   3                      24                      10                      10
  4455   3                      26                       8                      10
  4456   2                      24                       8                      12
  4457   4                      26                      10                      14
  4458   3                      26                      10                      12
  4459   3                      24                      10                      14
  4460   3                      26                       8                      14
  4461   2                      24                       8                      16
  4462   4                      26                      10                      18
  4463   3                      26                      10                      16
  4464   3                      24                      10                      18
  4465   3                      26                       8                      18
  4466   2                      24                       8                      20
  4467   4                      26                      10                      22
  4468   3                      26                      10                      20
  4469   3                      24                      10                      22
  4470   3                      26                       8                      22
  4471   1                      24                       8                      24
  4472   4                      26                      10                      26
  4473   3                      26                      10                      24
  4474   3                      24                      10                      26
  4475   3                      26                       8                      26
  4476   2                      24                       8                      28
  4477   4                      26                      10                      30
  4478   3                      26                      10                      28
  4479   3                      24                      10                      30
  4480   3                      26                       8                      30
  4481   1                      24                       8                      32
  4482   4                      26                      10                      34
  4483   3                      26                      10                      32
  4484   3                      24                      10                      34
  4485   3                      26                       8                      34
  4486   2                      24                       8                      36
  4487   4                      26                      10                      38
  4488   3                      26                      10                      36
  4489   3                      24                      10                      38
  4490   3                      26                       8                      38
  4491   2                      24                       8                      40
  4492   4                      26                      10                      42
  4493   3                      26                      10                      40
  4494   3                      24                      10                      42
  4495   3                      26                       8                      42
  4496   2                      24                       8                      44
  4497   4                      26                      10                      46
  4498   3                      26                      10                      44
  4499   3                      24                      10                      46
  4500   3                      26                       8                      46
  4501   2                      24                      12                       0
  4502   4                      26                      14                       2
  4503   3                      26                      14                       0
  4504   3                      24                      14                       2
  4505   3                      26                      12                       2
  4506   2                      24                      12                       4
  4507   4                      26                      14                       6
  4508   3                      26                      14                       4
  4509   3                      24                      14                       6
  4510   3                      26                      12                       6
  4511   1                      24                      12                       8
  4512   4                      26                      14                      10
  4513   3                      26                      14                       8
  4514   3                      24                      14                      10
  4515   3                      26                      12                      10
  4516   2                      24                      12                      12
  4517   4                      26                      14                      14
  4518   3                      26                      14                      12
  4519   3                      24                      14                      14
  4520   3                      26                      12                      14
  4521   2                      24                      12                      16
  4522   4                      26                      14                      18
  4523   3                      26                      14                      16
  4524   3                      24                      14                      18
  4525   3                      26                      12                      18
  4526   2                      24                      12                      20
  4527   4                      26                      14                      22
  4528   3                      26                      14                      20
  4529   3                      24                      14                      22
  4530   3                      26                      12                      22
  4531   2                      24                      12                      24
  4532   4                      26                      14                      26
  4533   3                      26                      14                      24
  4534   3                      24                      14                      26
  4535   3                      26                      12                      26
  4536   2                      24                      12                      28
  4537   4                      26                      14                      30
  4538   3                      26                      14                      28
  4539   3                      24                      14                      30
  4540   3                      26                      12                      30
  4541   2                      24                      12                      32
  4542   4                      26                      14                      34
  4543   3                      26                      14                      32
  4544   3                      24                      14                      34
  4545   3                      26                      12                      34
  4546   2                      24                      12                      36
  4547   4                      26                      14                      38
  4548   3                      26                      14                      36
  4549   3                      24                      14                      38
  4550   3                      26                      12                      38
  4551   2                      24                      12                      40
  4552   4                      26                      14                      42
  4553   3                      26                      14                      40
  4554   3                      24                      14                      42
  4555   3                      26                      12                      42
  4556   2                      24                      12                      44
  4557   4                      26                      14                      46
  4558   3                      26                      14                      44
  4559   3                      24                      14                      46
  4560   3                      26                      12                      46
  4561   1                      24                      16                       0
  4562   4                      26                      18                       2
  4563   3                      26                      18                       0
  4564   3                      24                      18                       2
  4565   3                      26                      16                       2
  4566   2                      24                      16                       4
  4567   4                      26                      18                       6
  4568   3                      26                      18                       4
  4569   3                      24                      18                       6
  4570   3                      26                      16                       6
  4571   2                      24                      16                       8
  4572   4                      26                      18                      10
  4573   3                      26                      18                       8
  4574   3                      24                      18                      10
  4575   3                      26                      16                      10
  4576   2                      24                      16                      12
  4577   4                      26                      18                      14
  4578   3                      26                      18                      12
  4579   3                      24                      18                      14
  4580   3                      26                      16                      14
  4581   2                      24                      16                      16
  4582   4                      26                      18                      18
  4583   3                      26                      18                      16
  4584   3                      24                      18                      18
  4585   3                      26                      16                      18
  4586   2                      24                      16                      20
  4587   4                      26                      18                      22
  4588   3                      26                      18                      20
  4589   3                      24                      18                      22
  4590   3                      26                      16                      22
  4591   2                      24                      16                      24
  4592   4                      26                      18                      26
  4593   3                      26                      18                      24
  4594   3                      24                      18                      26
  4595   3                      26                      16                      26
  4596   1                      24                      16                      28
  4597   4                      26                      18                      30
  4598   3                      26                      18                      28
  4599   3                      24                      18                      30
  4600   3                      26                      16                      30
  4601   1                      24                      16                      32
  4602   4                      26                      18                      34
  4603   3                      26                      18                      32
  4604   3                      24                      18                      34
  4605   3                      26                      16                      34
  4606   2                      24                      16                      36
  4607   4                      26                      18                      38
  4608   3                      26                      18                      36
  4609   3                      24                      18                      38
  4610   3                      26                      16                      38
  4611   2                      24                      16                      40
  4612   4                      26                      18                      42
  4613   3                      26                      18                      40
  4614   3                      24                      18                      42
  4615   3                      26                      16                      42
  4616   2                      24                      16                      44
  4617   4                      26                      18                      46
  4618   3                      26                      18                      44
  4619   3                      24                      18                      46
  4620   3                      26                      16                      46
  4621   2                      24                      20                       0
  4622   4                      26                      22                       2
  4623   3                      26                      22                       0
  4624   3                      24                      22                       2
  4625   3                      26                      20                       2
  4626   2                      24                      20                       4
  4627   4                      26                      22                       6
  4628   3                      26                      22                       4
  4629   3                      24                      22                       6
  4630   3                      26                      20                       6
  4631   1                      24                      20                       8
  4632   4                      26                      22                      10
  4633   3                      26                      22                       8
  4634   3                      24                      22                      10
  4635   3                      26                      20                      10
  4636   2                      24                      20                      12
  4637   4                      26                      22                      14
  4638   3                      26                      22                      12
  4639   3                      24                      22                      14
  4640   3                      26                      20                      14
  4641   1                      24                      20                      16
  4642   4                      26                      22                      18
  4643   3                      26                      22                      16
  4644   3                      24                      22                      18
  4645   3                      26                      20                      18
  4646   2                      24                      20                      20
  4647   4                      26                      22                      22
  4648   3                      26                      22                      20
  4649   3                      24                      22                      22
  4650   3                      26                      20                      22
  4651   2                      24                      20                      24
  4652   4                      26                      22                      26
  4653   3                      26                      22                      24
  4654   3                      24                      22                      26
  4655   3                      26                      20                      26
  4656   2                      24                      20                      28
  4657   4                      26                      22                      30
  4658   3                      26                      22                      28
  4659   3                      24                      22                      30
  4660   3                      26                      20                      30
  4661   1                      24                      20                      32
  4662   4                      26                      22                      34
  4663   3                      26                      22                      32
  4664   3                      24                      22                      34
  4665   3                      26                      20                      34
  4666   2                      24                      20                      36
  4667   4                      26                      22                      38
  4668   3                      26                      22                      36
  4669   3                      24                      22                      38
  4670   3                      26                      20                      38
  4671   2                      24                      20                      40
  4672   4                      26                      22                      42
  4673   3                      26                      22                      40
  4674   3                      24                      22                      42
  4675   3                      26                      20                      42
  4676   1                      24                      20                      44
  4677   4                      26                      22                      46
  4678   3                      26                      22                      44
  4679   3                      24                      22                      46
  4680   3                      26                      20                      46
  4681   1                      24                      24                       0
  4682   4                      26                      26                       2
  4683   3                      26                      26                       0
  4684   3                      24                      26                       2
  4685   3                      26                      24                       2
  4686   1                      24                      24                       4
  4687   4                      26                      26                       6
  4688   3                      26                      26                       4
  4689   3                      24                      26                       6
  4690   3                      26                      24                       6
  4691   2                      24                      24                       8
  4692   4                      26                      26                      10
  4693   3                      26                      26                       8
  4694   3                      24                      26                      10
  4695   3                      26                      24                      10
  4696   2                      24                      24                      12
  4697   4                      26                      26                      14
  4698   3                      26                      26                      12
  4699   3                      24                      26                      14
  4700   3                      26                      24                      14
  4701   1                      24                      24                      16
  4702   4                      26                      26                      18
  4703   3                      26                      26                      16
  4704   3                      24                      26                      18
  4705   3                      26                      24                      18
  4706   2                      24                      24                      20
  4707   4                      26                      26                      22
  4708   3                      26                      26                      20
  4709   3                      24                      26                      22
  4710   3                      26                      24                      22
  4711   2                      24                      24                      24
  4712   4                      26                      26                      26
  4713   3                      26                      26                      24
  4714   3                      24                      26                      26
  4715   3                      26                      24                      26
  4716   1                      24                      24                      28
  4717   4                      26                      26                      30
  4718   3                      26                      26                      28
  4719   3                      24                      26                      30
  4720   3                      26                      24                      30
  4721   2                      24                      24                      32
  4722   4                      26                      26                      34
  4723   3                      26                      26                      32
  4724   3                      24                      26                      34
  4725   3                      26                      24                      34
  4726   2                      24                      24                      36
  4727   4                      26                      26                      38
  4728   3                      26                      26                      36
  4729   3                      24                      26                      38
  4730   3                      26                      24                      38
  4731   2                      24                      24                      40
  4732   4                      26                      26                      42
  4733   3                      26                      26                      40
  4734   3                      24                      26                      42
  4735   3                      26                      24                      42
  4736   2                      24                      24                      44
  4737   4                      26                      26                      46
  4738   3                      26                      26                      44
  4739   3                      24                      26                      46
  4740   3                      26                      24                      46
  4741   2                      24                      28                       0
  4742   4                      26                      30                       2
  4743   3                      26                      30                       0
  4744   3                      24                      30                       2
  4745   3                      26                      28                       2
  4746   2                      24                      28                       4
  4747   4                      26                      30                       6
  4748   3                      26                      30                       4
  4749   3                      24                      30                       6
  4750   3                      26                      28                       6
  4751   2                      24                      28                       8
  4752   4                      26                      30                      10
  4753   3                      26                      30                       8
  4754   3                      24                      30                      10
  4755   3                      26                      28                      10
  4756   2                      24                      28                      12
  4757   4                      26                      30                      14
  4758   3                      26                      30                      12
  4759   3                      24                      30                      14
  4760   3                      26                      28                      14
  4761   2                      24                      28                      16
  4762   4                      26                      30                      18
  4763   3                      26                      30                      16
  4764   3                      24                      30                      18
  4765   3                      26                      28                      18
  4766   2                      24                      28                      20
  4767   4                      26                      30                      22
  4768   3                      26                      30                      20
  4769   3                      24                      30                      22
  4770   3                      26                      28                      22
  4771   1                      24                      28                      24
  4772   4                      26                      30                      26
  4773   3                      26                      30                      24
  4774   3                      24                      30                      26
  4775   3                      26                      28                      26
  4776   2                      24                      28                      28
  4777   4                      26                      30                      30
  4778   3                      26                      30                      28
  4779   3                      24                      30                      30
  4780   3                      26                      28                      30
  4781   1                      24                      28                      32
  4782   4                      26                      30                      34
  4783   3                      26                      30                      32
  4784   3                      24                      30                      34
  4785   3                      26                      28                      34
  4786   1                      24                      28                      36
  4787   4                      26                      30                      38
  4788   3                      26                      30                      36
  4789   3                      24                      30                      38
  4790   3                      26                      28                      38
  4791   2                      24                      28                      40
  4792   4                      26                      30                      42
  4793   3                      26                      30                      40
  4794   3                      24                      30                      42
  4795   3                      26                      28                      42
  4796   2                      24                      28                      44
  4797   4                      26                      30                      46
  4798   3                      26                      30                      44
  4799   3                      24                      30                      46
  4800   3                      26                      28                      46
  4801   1                      24                      32                       0
  4802   4                      26                      34                       2
  4803   3                      26                      34                       0
  4804   3                      24                      34                       2
  4805   3                      26                      32                       2
  4806   2                      24                      32                       4
  4807   4                      26                      34                       6
  4808   3                      26                      34                       4
  4809   3                      24                      34                       6
  4810   3                      26                      32                       6
  4811   2                      24                      32                       8
  4812   4                      26                      34                      10
  4813   3                      26                      34                       8
  4814   3                      24                      34                      10
  4815   3                      26                      32                      10
  4816   2                      24                      32                      12
  4817   4                      26                      34                      14
  4818   3                      26                      34                      12
  4819   3                      24                      34                      14
  4820   3                      26                      32                      14
  4821   2                      24                      32                      16
  4822   4                      26                      34                      18
  4823   3                      26                      34                      16
  4824   3                      24                      34                      18
  4825   3                      26                      32                      18
  4826   2                      24                      32                      20
  4827   4                      26                      34                      22
  4828   3                      26                      34                      20
  4829   3                      24                      34                      22
  4830   3                      26                      32                      22
  4831   2                      24                      32                      24
  4832   4                      26                      34                      26
  4833   3                      26                      34                      24
  4834   3                      24                      34                      26
  4835   3                      26                      32                      26
  4836   2                      24                      32                      28
  4837   4                      26                      34                      30
  4838   3                      26                      34                      28
  4839   3                      24                      34                      30
  4840   3                      26                      32                      30
  4841   1                      24                      32                      32
  4842   4                      26                      34                      34
  4843   3                      26                      34                      32
  4844   3                      24                      34                      34
  4845   3                      26                      32                      34
  4846   1                      24                      32                      36
  4847   4                      26                      34                      38
  4848   3                      26                      34                      36
  4849   3                      24                      34                      38
  4850   3                      26                      32                      38
  4851   2                      24                      32                      40
  4852   4                      26                      34                      42
  4853   3                      26                      34                      40
  4854   3                      24                      34                      42
  4855   3                      26                      32                      42
  4856   2                      24                      32                      44
  4857   4                      26                      34                      46
  4858   3                      26                      34                      44
  4859   3                      24                      34                      46
  4860   3                      26                      32                      46
  4861   1                      24                      36                       0
  4862   4                      26                      38                       2
  4863   3                      26                      38                       0
  4864   3                      24                      38                       2
  4865   3                      26                      36                       2
  4866   1                      24                      36                       4
  4867   4                      26                      38                       6
  4868   3                      26                      38                       4
  4869   3                      24                      38                       6
  4870   3                      26                      36                       6
  4871   2                      24                      36                       8
  4872   4                      26                      38                      10
  4873   3                      26                      38                       8
  4874   3                      24                      38                      10
  4875   3                      26                      36                      10
  4876   1                      24                      36                      12
  4877   4                      26                      38                      14
  4878   3                      26                      38                      12
  4879   3                      24                      38                      14
  4880   3                      26                      36                      14
  4881   2                      24                      36                      16
  4882   4                      26                      38                      18
  4883   3                      26                      38                      16
  4884   3                      24                      38                      18
  4885   3                      26                      36                      18
  4886   2                      24                      36                      20
  4887   4                      26                      38                      22
  4888   3                      26                      38                      20
  4889   3                      24                      38                      22
  4890   3                      26                      36                      22
  4891   2                      24                      36                      24
  4892   4                      26                      38                      26
  4893   3                      26                      38                      24
  4894   3                      24                      38                      26
  4895   3                      26                      36                      26
  4896   1                      24                      36                      28
  4897   4                      26                      38                      30
  4898   3                      26                      38                      28
  4899   3                      24                      38                      30
  4900   3                      26                      36                      30
  4901   2                      24                      36                      32
  4902   4                      26                      38                      34
  4903   3                      26                      38                      32
  4904   3                      24                      38                      34
  4905   3                      26                      36                      34
  4906   2                      24                      36                      36
  4907   4                      26                      38                      38
  4908   3                      26                      38                      36
  4909   3                      24                      38                      38
  4910   3                      26                      36                      38
  4911   2                      24                      36                      40
  4912   4                      26                      38                      42
  4913   3                      26                      38                      40
  4914   3                      24                      38                      42
  4915   3                      26                      36                      42
  4916   2                      24                      36                      44
  4917   4                      26                      38                      46
  4918   3                      26                      38                      44
  4919   3                      24                      38                      46
  4920   3                      26                      36                      46
  4921   1                      24                      40                       0
  4922   4                      26                      42                       2
  4923   3                      26                      42                       0
  4924   3                      24                      42                       2
  4925   3                      26                      40                       2
  4926   1                      24                      40                       4
  4927   4                      26                      42                       6
  4928   3                      26                      42                       4
  4929   3                      24                      42                       6
  4930   3                      26                      40                       6
  4931   2                      24                      40                       8
  4932   4                      26                      42                      10
  4933   3                      26                      42                       8
  4934   3                      24                      42                      10
  4935   3                      26                      40                      10
  4936   1                      24                      40                      12
  4937   4                      26                      42                      14
  4938   3                      26                      42                      12
  4939   3                      24                      42                      14
  4940   3                      26                      40                      14
  4941   2                      24                      40                      16
  4942   4                      26                      42                      18
  4943   3                      26                      42                      16
  4944   3                      24                      42                      18
  4945   3                      26                      40                      18
  4946   2                      24                      40                      20
  4947   4                      26                      42                      22
  4948   3                      26                      42                      20
  4949   3                      24                      42                      22
  4950   3                      26                      40                      22
  4951   2                      24                      40                      24
  4952   4                      26                      42                      26
  4953   3                      26                      42                      24
  4954   3                      24                      42                      26
  4955   3                      26                      40                      26
  4956   1                      24                      40                      28
  4957   4                      26                      42                      30
  4958   3                      26                      42                      28
  4959   3                      24                      42                      30
  4960   3                      26                      40                      30
  4961   2                      24                      40                      32
  4962   4                      26                      42                      34
  4963   3                      26                      42                      32
  4964   3                      24                      42                      34
  4965   3                      26                      40                      34
  4966   2                      24                      40                      36
  4967   4                      26                      42                      38
  4968   3                      26                      42                      36
  4969   3                      24                      42                      38
  4970   3                      26                      40                      38
  4971   2                      24                      40                      40
  4972   4                      26                      42                      42
  4973   3                      26                      42                      40
  4974   3                      24                      42                      42
  4975   3                      26                      40                      42
  4976   2                      24                      40                      44
  4977   4                      26                      42                      46
  4978   3                      26                      42                      44
  4979   3                      24                      42                      46
  4980   3                      26                      40                      46
  4981   1                      24                      44                       0
  4982   4                      26                      46                       2
  4983   3                      26                      46                       0
  4984   3                      24                      46                       2
  4985   3                      26                      44                       2
  4986   2                      24                      44                       4
  4987   4                      26                      46                       6
  4988   3                      26                      46                       4
  4989   3                      24                      46                       6
  4990   3                      26                      44                       6
  4991   2                      24                      44                       8
  4992   4                      26                      46                      10
  4993   3                      26                      46                       8
  4994   3                      24                      46                      10
  4995   3                      26                      44                      10
  4996   1                      24                      44                      12
  4997   4                      26                      46                      14
  4998   3                      26                      46                      12
  4999   3                      24                      46                      14
  5000   3                      26                      44                      14
  5001   2                      24                      44                      16
  5002   4                      26                      46                      18
  5003   3                      26                      46                      16
  5004   3                      24                      46                      18
  5005   3                      26                      44                      18
  5006   2                      24                      44                      20
  5007   4                      26                      46                      22
  5008   3                      26                      46                      20
  5009   3                      24                      46                      22
  5010   3                      26                      44                      22
  5011   1                      24                      44                      24
  5012   4                      26                      46                      26
  5013   3                      26                      46                      24
  5014   3                      24                      46                      26
  5015   3                      26                      44                      26
  5016   2                      24                      44                      28
  5017   4                      26                      46                      30
  5018   3                      26                      46                      28
  5019   3                      24                      46                      30
  5020   3                      26                      44                      30
  5021   2                      24                      44                      32
  5022   4                      26                      46                      34
  5023   3                      26                      46                      32
  5024   3                      24                      46                      34
  5025   3                      26                      44                      34
  5026   1                      24                      44                      36
  5027   4                      26                      46                      38
  5028   3                      26                      46                      36
  5029   3                      24                      46                      38
  5030   3                      26                      44                      38
  5031   2                      24                      44                      40
  5032   4                      26                      46                      42
  5033   3                      26                      46                      40
  5034   3                      24                      46                      42
  5035   3                      26                      44                      42
  5036   2                      24                      44                      44
  5037   4                      26                      46                      46
  5038   3                      26                      46                      44
  5039   3                      24                      46                      46
  5040   3                      26                      44                      46
  5041   2                      28                       0                       0
  5042   4                      30                       2                       2
  5043   3                      30                       2                       0
  5044   3                      28                       2                       2
  5045   3                      30                       0                       2
  5046   1                      28                       0                       4
  5047   4                      30                       2                       6
  5048   3                      30                       2                       4
  5049   3                      28                       2                       6
  5050   3                      30                       0                       6
  5051   2                      28                       0                       8
  5052   4                      30                       2                      10
  5053   3                      30                       2                       8
  5054   3                      28                       2                      10
  5055   3                      30                       0                      10
  5056   2                      28                       0                      12
  5057   4                      30                       2                      14
  5058   3                      30                       2                      12
  5059   3                      28                       2                      14
  5060   3                      30                       0                      14
  5061   2                      28                       0                      16
  5062   4                      30                       2                      18
  5063   3                      30                       2                      16
  5064   3                      28                       2                      18
  5065   3                      30                       0                      18
  5066   1                      28                       0                      20
  5067   4                      30                       2                      22
  5068   3                      30                       2                      20
  5069   3                      28                       2                      22
  5070   3                      30                       0                      22
  5071   1                      28                       0                      24
  5072   4                      30                       2                      26
  5073   3                      30                       2                      24
  5074   3                      28                       2                      26
  5075   3                      30                       0                      26
  5076   2                      28                       0                      28
  5077   4                      30                       2                      30
  5078   3                      30                       2                      28
  5079   3                      28                       2                      30
  5080   3                      30                       0                      30
  5081   2                      28                       0                      32
  5082   4                      30                       2                      34
  5083   3                      30                       2                      32
  5084   3                      28                       2                      34
  5085   3                      30                       0                      34
  5086   2                      28                       0                      36
  5087   4                      30                       2                      38
  5088   3                      30                       2                      36
  5089   3                      28                       2                      38
  5090   3                      30                       0                      38
  5091   2                      28                       0                      40
  5092   4                      30                       2                      42
  5093   3                      30                       2                      40
  5094   3                      28                       2                      42
  5095   3                      30                       0                      42
  5096   2                      28                       0                      44
  5097   4                      30                       2                      46
  5098   3                      30                       2                      44
  5099   3                      28                       2                      46
  5100   3                      30                       0                      46
  5101   1                      28                       4                       0
  5102   4                      30                       6                       2
  5103   3                      30                       6                       0
  5104   3                      28                       6                       2
  5105   3                      30                       4                       2
  5106   2                      28                       4                       4
  5107   4                      30                       6                       6
  5108   3                      30                       6                       4
  5109   3                      28                       6                       6
  5110   3                      30                       4                       6
  5111   1                      28                       4                       8
  5112   4                      30                       6                      10
  5113   3                      30                       6                       8
  5114   3                      28                       6                      10
  5115   3                      30                       4                      10
  5116   2                      28                       4                      12
  5117   4                      30                       6                      14
  5118   3                      30                       6                      12
  5119   3                      28                       6                      14
  5120   3                      30                       4                      14
  5121   2                      28                       4                      16
  5122   4                      30                       6                      18
  5123   3                      30                       6                      16
  5124   3                      28                       6                      18
  5125   3                      30                       4                      18
  5126   2                      28                       4                      20
  5127   4                      30                       6                      22
  5128   3                      30                       6                      20
  5129   3                      28                       6                      22
  5130   3                      30                       4                      22
  5131   1                      28                       4                      24
  5132   4                      30                       6                      26
  5133   3                      30                       6                      24
  5134   3                      28                       6                      26
  5135   3                      30                       4                      26
  5136   2                      28                       4                      28
  5137   4                      30                       6                      30
  5138   3                      30                       6                      28
  5139   3                      28                       6                      30
  5140   3                      30                       4                      30
  5141   2                      28                       4                      32
  5142   4                      30                       6                      34
  5143   3                      30                       6                      32
  5144   3                      28                       6                      34
  5145   3                      30                       4                      34
  5146   2                      28                       4                      36
  5147   4                      30                       6                      38
  5148   3                      30                       6                      36
  5149   3                      28                       6                      38
  5150   3                      30                       4                      38
  5151   2                      28                       4                      40
  5152   4                      30                       6                      42
  5153   3                      30                       6                      40
  5154   3                      28                       6                      42
  5155   3                      30                       4                      42
  5156   2                      28                       4                      44
  5157   4                      30                       6                      46
  5158   3                      30                       6                      44
  5159   3                      28                       6                      46
  5160   3                      30                       4                      46
  5161   2                      28                       8                       0
  5162   4                      30                      10                       2
  5163   3                      30                      10                       0
  5164   3                      28                      10                       2
  5165   3                      30                       8                       2
  5166   2                      28                       8                       4
  5167   4                      30                      10                       6
  5168   3                      30                      10                       4
  5169   3                      28                      10                       6
  5170   3                      30                       8                       6
  5171   2                      28                       8                       8
  5172   4                      30                      10                      10
  5173   3                      30                      10                       8
  5174   3                      28                      10                      10
  5175   3                      30                       8                      10
  5176   1                      28                       8                      12
  5177   4                      30                      10                      14
  5178   3                      30                      10                      12
  5179   3                      28                      10                      14
  5180   3                      30                       8                      14
  5181   2                      28                       8                      16
  5182   4                      30                      10                      18
  5183   3                      30                      10                      16
  5184   3                      28                      10                      18
  5185   3                      30                       8                      18
  5186   2                      28                       8                      20
  5187   4                      30                      10                      22
  5188   3                      30                      10                      20
  5189   3                      28                      10                      22
  5190   3                      30                       8                      22
  5191   2                      28                       8                      24
  5192   4                      30                      10                      26
  5193   3                      30                      10                      24
  5194   3                      28                      10                      26
  5195   3                      30                       8                      26
  5196   2                      28                       8                      28
  5197   4                      30                      10                      30
  5198   3                      30                      10                      28
  5199   3                      28                      10                      30
  5200   3                      30                       8                      30
  5201   2                      28                       8                      32
  5202   4                      30                      10                      34
  5203   3                      30                      10                      32
  5204   3                      28                      10                      34
  5205   3                      30                       8                      34
  5206   2                      28                       8                      36
  5207   4                      30                      10                      38
  5208   3                      30                      10                      36
  5209   3                      28                      10                      38
  5210   3                      30                       8                      38
  5211   1                      28                       8                      40
  5212   4                      30                      10                      42
  5213   3                      30                      10                      40
  5214   3                      28                      10                      42
  5215   3                      30                       8                      42
  5216   2                      28                       8                      44
  5217   4                      30                      10                      46
  5218   3                      30                      10                      44
  5219   3                      28                      10                      46
  5220   3                      30                       8                      46
  5221   1                      28                      12                       0
  5222   4                      30                      14                       2
  5223   3                      30                      14                       0
  5224   3                      28                      14                       2
  5225   3                      30                      12                       2
  5226   1                      28                      12                       4
  5227   4                      30                      14                       6
  5228   3                      30                      14                       4
  5229   3                      28                      14                       6
  5230   3                      30                      12                       6
  5231   1                      28                      12                       8
  5232   4                      30                      14                      10
  5233   3                      30                      14                       8
  5234   3                      28                      14                      10
  5235   3                      30                      12                      10
  5236   2                      28                      12                      12
  5237   4                      30                      14                      14
  5238   3                      30                      14                      12
  5239   3                      28                      14                      14
  5240   3                      30                      12                      14
  5241   2                      28                      12                      16
  5242   4                      30                      14                      18
  5243   3                      30                      14                      16
  5244   3                      28                      14                      18
  5245   3                      30                      12                      18
  5246   1                      28                      12                      20
  5247   4                      30                      14                      22
  5248   3                      30                      14                      20
  5249   3                      28                      14                      22
  5250   3                      30                      12                      22
  5251   1                      28                      12                      24
  5252   4                      30                      14                      26
  5253   3                      30                      14                      24
  5254   3                      28                      14                      26
  5255   3                      30                      12                      26
  5256   2                      28                      12                      28
  5257   4                      30                      14                      30
  5258   3                      30                      14                      28
  5259   3                      28                      14                      30
  5260   3                      30                      12                      30
  5261   2                      28                      12                      32
  5262   4                      30                      14                      34
  5263   3                      30                      14                      32
  5264   3                      28                      14                      34
  5265   3                      30                      12                      34
  5266   2                      28                      12                      36
  5267   4                      30                      14                      38
  5268   3                      30                      14                      36
  5269   3                      28                      14                      38
  5270   3                      30                      12                      38
  5271   2                      28                      12                      40
  5272   4                      30                      14                      42
  5273   3                      30                      14                      40
  5274   3                      28                      14                      42
  5275   3                      30                      12                      42
  5276   2                      28                      12                      44
  5277   4                      30                      14                      46
  5278   3                      30                      14                      44
  5279   3                      28                      14                      46
  5280   3                      30                      12                      46
  5281   1                      28                      16                       0
  5282   4                      30                      18                       2
  5283   3                      30                      18                       0
  5284   3                      28                      18                       2
  5285   3                      30                      16                       2
  5286   2                      28                      16                       4
  5287   4                      30                      18                       6
  5288   3                      30                      18                       4
  5289   3                      28                      18                       6
  5290   3                      30                      16                       6
  5291   2                      28                      16                       8
  5292   4                      30                      18                      10
  5293   3                      30                      18                       8
  5294   3                      28                      18                      10
  5295   3                      30                      16                      10
  5296   1                      28                      16                      12
  5297   4                      30                      18                      14
  5298   3                      30                      18                      12
  5299   3                      28                      18                      14
  5300   3                      30                      16                      14
  5301   1                      28                      16                      16
  5302   4                      30                      18                      18
  5303   3                      30                      18                      16
  5304   3                      28                      18                      18
  5305   3                      30                      16                      18
  5306   1                      28                      16                      20
  5307   4                      30                      18                      22
  5308   3                      30                      18                      20
  5309   3                      28                      18                      22
  5310   3                      30                      16                      22
  5311   1                      28                      16                      24
  5312   4                      30                      18                      26
  5313   3                      30                      18                      24
  5314   3                      28                      18                      26
  5315   3                      30                      16                      26
  5316   2                      28                      16                      28
  5317   4                      30                      18                      30
  5318   3                      30                      18                      28
  5319   3                      28                      18                      30
  5320   3                      30                      16                      30
  5321   1                      28                      16                      32
  5322   4                      30                      18                      34
  5323   3                      30                      18                      32
  5324   3                      28                      18                      34
  5325   3                      30                      16                      34
  5326   2                      28                      16                      36
  5327   4                      30                      18                      38
  5328   3                      30                      18                      36
  5329   3                      28                      18                      38
  5330   3                      30                      16                      38
  5331   2                      28                      16                      40
  5332   4                      30                      18                      42
  5333   3                      30                      18                      40
  5334   3                      28                      18                      42
  5335   3                      30                      16                      42
  5336   2                      28                      16                      44
  5337   4                      30                      18                      46
  5338   3                      30                      18                      44
  5339   3                      28                      18                      46
  5340   3                      30                      16                      46
  5341   1                      28                      20                       0
  5342   4                      30                      22                       2
  5343   3                      30                      22                       0
  5344   3                      28                      22                       2
  5345   3                      30                      20                       2
  5346   2                      28                      20                       4
  5347   4                      30                      22                       6
  5348   3                      30                      22                       4
  5349   3                      28                      22                       6
  5350   3                      30                      20                       6
  5351   1                      28                      20                       8
  5352   4                      30                      22                      10
  5353   3                      30                      22                       8
  5354   3                      28                      22                      10
  5355   3                      30                      20                      10
  5356   1                      28                      20                      12
  5357   4                      30                      22                      14
  5358   3                      30                      22                      12
  5359   3                      28                      22                      14
  5360   3                      30                      20                      14
  5361   2                      28                      20                      16
  5362   4                      30                      22                      18
  5363   3                      30                      22                      16
  5364   3                      28                      22                      18
  5365   3                      30                      20                      18
  5366   2                      28                      20                      20
  5367   4                      30                      22                      22
  5368   3                      30                      22                      20
  5369   3                      28                      22                      22
  5370   3                      30                      20                      22
  5371   1                      28                      20                      24
  5372   4                      30                      22                      26
  5373   3                      30                      22                      24
  5374   3                      28                      22                      26
  5375   3                      30                      20                      26
  5376   2                      28                      20                      28
  5377   4                      30                      22                      30
  5378   3                      30                      22                      28
  5379   3                      28                      22                      30
  5380   3                      30                      20                      30
  5381   2                      28                      20                      32
  5382   4                      30                      22                      34
  5383   3                      30                      22                      32
  5384   3                      28                      22                      34
  5385   3                      30                      20                      34
  5386   1                      28                      20                      36
  5387   4                      30                      22                      38
  5388   3                      30                      22                      36
  5389   3                      28                      22                      38
  5390   3                      30                      20                      38
  5391   2                      28                      20                      40
  5392   4                      30                      22                      42
  5393   3                      30                      22                      40
  5394   3                      28                      22                      42
  5395   3                      30                      20                      42
  5396   2                      28                      20                      44
  5397   4                      30                      22                      46
  5398   3                      30                      22                      44
  5399   3                      28                      22                      46
  5400   3                      30                      20                      46
  5401   2                      28                      24                       0
  5402   4                      30                      26                       2
  5403   3                      30                      26                       0
  5404   3                      28                      26                       2
  5405   3                      30                      24                       2
  5406   1                      28                      24                       4
  5407   4                      30                      26                       6
  5408   3                      30                      26                       4
  5409   3                      28                      26                       6
  5410   3                      30                      24                       6
  5411   1                      28                      24                       8
  5412   4                      30                      26                      10
  5413   3                      30                      26                       8
  5414   3                      28                      26                      10
  5415   3                      30                      24                      10
  5416   1                      28                      24                      12
  5417   4                      30                      26                      14
  5418   3                      30                      26                      12
  5419   3                      28                      26                      14
  5420   3                      30                      24                      14
  5421   1                      28                      24                      16
  5422   4                      30                      26                      18
  5423   3                      30                      26                      16
  5424   3                      28                      26                      18
  5425   3                      30                      24                      18
  5426   2                      28                      24                      20
  5427   4                      30                      26                      22
  5428   3                      30                      26                      20
  5429   3                      28                      26                      22
  5430   3                      30                      24                      22
  5431   2                      28                      24                      24
  5432   4                      30                      26                      26
  5433   3                      30                      26                      24
  5434   3                      28                      26                      26
  5435   3                      30                      24                      26
  5436   2                      28                      24                      28
  5437   4                      30                      26                      30
  5438   3                      30                      26                      28
  5439   3                      28                      26                      30
  5440   3                      30                      24                      30
  5441   2                      28                      24                      32
  5442   4                      30                      26                      34
  5443   3                      30                      26                      32
  5444   3                      28                      26                      34
  5445   3                      30                      24                      34
  5446   1                      28                      24                      36
  5447   4                      30                      26                      38
  5448   3                      30                      26                      36
  5449   3                      28                      26                      38
  5450   3                      30                      24                      38
  5451   1                      28                      24                      40
  5452   4                      30                      26                      42
  5453   3                      30                      26                      40
  5454   3                      28                      26                      42
  5455   3                      30                      24                      42
  5456   1                      28                      24                      44
  5457   4                      30                      26                      46
  5458   3                      30                      26                      44
  5459   3                      28                      26                      46
  5460   3                      30                      24                      46
  5461   2                      28                      28                       0
  5462   4                      30                      30                       2
  5463   3                      30                      30                       0
  5464   3                      28                      30                       2
  5465   3                      30                      28                       2
  5466   2                      28                      28                       4
  5467   4                      30                      30                       6
  5468   3                      30                      30                       4
  5469   3                      28                      30                       6
  5470   3                      30                      28                       6
  5471   2                      28                      28                       8
  5472   4                      30                      30                      10
  5473   3                      30                      30                       8
  5474   3                      28                      30                      10
  5475   3                      30                      28                      10
  5476   2                      28                      28                      12
  5477   4                      30                      30                      14
  5478   3                      30                      30                      12
  5479   3                      28                      30                      14
  5480   3                      30                      28                      14
  5481   2                      28                      28                      16
  5482   4                      30                      30                      18
  5483   3                      30                      30                      16
  5484   3                      28                      30                      18
  5485   3                      30                      28                      18
  5486   1                      28                      28                      20
  5487   4                      30                      30                      22
  5488   3                      30                      30                      20
  5489   3                      28                      30                      22
  5490   3                      30                      28                      22
  5491   1                      28                      28                      24
  5492   4                      30                      30                      26
  5493   3                      30                      30                      24
  5494   3                      28                      30                      26
  5495   3                      30                      28                      26
  5496   1                      28                      28                      28
  5497   4                      30                      30                      30
  5498   3                      30                      30                      28
  5499   3                      28                      30                      30
  5500   3                      30                      28                      30
  5501   1                      28                      28                      32
  5502   4                      30                      30                      34
  5503   3                      30                      30                      32
  5504   3                      28                      30                      34
  5505   3                      30                      28                      34
  5506   1                      28                      28                      36
  5507   4                      30                      30                      38
  5508   3                      30                      30                      36
  5509   3                      28                      30                      38
  5510   3                      30                      28                      38
  5511   2                      28                      28                      40
  5512   4                      30                      30                      42
  5513   3                      30                      30                      40
  5514   3                      28                      30                      42
  5515   3                      30                      28                      42
  5516   1                      28                      28                      44
  5517   4                      30                      30                      46
  5518   3                      30                      30                      44
  5519   3                      28                      30                      46
  5520   3                      30                      28                      46
  5521   2                      28                      32                       0
  5522   4                      30                      34                       2
  5523   3                      30                      34                       0
  5524   3                      28                      34                       2
  5525   3                      30                      32                       2
  5526   2                      28                      32                       4
  5527   4                      30                      34                       6
  5528   3                      30                      34                       4
  5529   3                      28                      34                       6
  5530   3                      30                      32                       6
  5531   2                      28                      32                       8
  5532   4                      30                      34                      10
  5533   3                      30                      34                       8
  5534   3                      28                      34                      10
  5535   3                      30                      32                      10
  5536   2                      28                      32                      12
  5537   4                      30                      34                      14
  5538   3                      30                      34                      12
  5539   3                      28                      34                      14
  5540   3                      30                      32                      14
  5541   2                      28                      32                      16
  5542   4                      30                      34                      18
  5543   3                      30                      34                      16
  5544   3                      28                      34                      18
  5545   3                      30                      32                      18
  5546   1                      28                      32                      20
  5547   4                      30                      34                      22
  5548   3                      30                      34                      20
  5549   3                      28                      34                      22
  5550   3                      30                      32                      22
  5551   2                      28                      32                      24
  5552   4                      30                      34                      26
  5553   3                      30                      34                      24
  5554   3                      28                      34                      26
  5555   3                      30                      32                      26
  5556   2                      28                      32                      28
  5557   4                      30                      34                      30
  5558   3                      30                      34                      28
  5559   3                      28                      34                      30
  5560   3                      30                      32                      30
  5561   1                      28                      32                      32
  5562   4                      30                      34                      34
  5563   3                      30                      34                      32
  5564   3                      28                      34                      34
  5565   3                      30                      32                      34
  5566   1                      28                      32                      36
  5567   4                      30                      34                      38
  5568   3                      30                      34                      36
  5569   3                      28                      34                      38
  5570   3                      30                      32                      38
  5571   2                      28                      32                      40
  5572   4                      30                      34                      42
  5573   3                      30                      34                      40
  5574   3                      28                      34                      42
  5575   3                      30                      32                      42
  5576   2                      28                      32                      44
  5577   4                      30                      34                      46
  5578   3                      30                      34                      44
  5579   3                      28                      34                      46
  5580   3                      30                      32                      46
  5581   2                      28                      36                       0
  5582   4                      30                      38                       2
  5583   3                      30                      38                       0
  5584   3                      28                      38                       2
  5585   3                      30                      36                       2
  5586   1                      28                      36                       4
  5587   4                      30                      38                       6
  5588   3                      30                      38                       4
  5589   3                      28                      38                       6
  5590   3                      30                      36                       6
  5591   1                      28                      36                       8
  5592   4                      30                      38                      10
  5593   3                      30                      38                       8
  5594   3                      28                      38                      10
  5595   3                      30                      36                      10
  5596   1                      28                      36                      12
  5597   4                      30                      38                      14
  5598   3                      30                      38                      12
  5599   3                      28                      38                      14
  5600   3                      30                      36                      14
  5601   2                      28                      36                      16
  5602   4                      30                      38                      18
  5603   3                      30                      38                      16
  5604   3                      28                      38                      18
  5605   3                      30                      36                      18
  5606   2                      28                      36                      20
  5607   4                      30                      38                      22
  5608   3                      30                      38                      20
  5609   3                      28                      38                      22
  5610   3                      30                      36                      22
  5611   1                      28                      36                      24
  5612   4                      30                      38                      26
  5613   3                      30                      38                      24
  5614   3                      28                      38                      26
  5615   3                      30                      36                      26
  5616   2                      28                      36                      28
  5617   4                      30                      38                      30
  5618   3                      30                      38                      28
  5619   3                      28                      38                      30
  5620   3                      30                      36                      30
  5621   1                      28                      36                      32
  5622   4                      30                      38                      34
  5623   3                      30                      38                      32
  5624   3                      28                      38                      34
  5625   3                      30                      36                      34
  5626   2                      28                      36                      36
  5627   4                      30                      38                      38
  5628   3                      30                      38                      36
  5629   3                      28                      38                      38
  5630   3                      30                      36                      38
  5631   2                      28                      36                      40
  5632   4                      30                      38                      42
  5633   3                      30                      38                      40
  5634   3                      28                      38                      42
  5635   3                      30                      36                      42
  5636   2                      28                      36                      44
  5637   4                      30                      38                      46
  5638   3                      30                      38                      44
  5639   3                      28                      38                      46
  5640   3                      30                      36                      46
  5641   2                      28                      40                       0
  5642   4                      30                      42                       2
  5643   3                      30                      42                       0
  5644   3                      28                      42                       2
  5645   3                      30                      40                       2
  5646   2                      28                      40                       4
  5647   4                      30                      42                       6
  5648   3                      30                      42                       4
  5649   3                      28                      42                       6
  5650   3                      30                      40                       6
  5651   2                      28                      40                       8
  5652   4                      30                      42                      10
  5653   3                      30                      42                       8
  5654   3                      28                      42                      10
  5655   3                      30                      40                      10
  5656   1                      28                      40                      12
  5657   4                      30                      42                      14
  5658   3                      30                      42                      12
  5659   3                      28                      42                      14
  5660   3                      30                      40                      14
  5661   2                      28                      40                      16
  5662   4                      30                      42                      18
  5663   3                      30                      42                      16
  5664   3                      28                      42                      18
  5665   3                      30                      40                      18
  5666   2                      28                      40                      20
  5667   4                      30                      42                      22
  5668   3                      30                      42                      20
  5669   3                      28                      42                      22
  5670   3                      30                      40                      22
  5671   2                      28                      40                      24
  5672   4                      30                      42                      26
  5673   3                      30                      42                      24
  5674   3                      28                      42                      26
  5675   3                      30                      40                      26
  5676   2                      28                      40                      28
  5677   4                      30                      42                      30
  5678   3                      30                      42                      28
  5679   3                      28                      42                      30
  5680   3                      30                      40                      30
  5681   1                      28                      40                      32
  5682   4                      30                      42                      34
  5683   3                      30                      42                      32
  5684   3                      28                      42                      34
  5685   3                      30                      40                      34
  5686   1                      28                      40                      36
  5687   4                      30                      42                      38
  5688   3                      30                      42                      36
  5689   3                      28                      42                      38
  5690   3                      30                      40                      38
  5691   1                      28                      40                      40
  5692   4                      30                      42                      42
  5693   3                      30                      42                      40
  5694   3                      28                      42                      42
  5695   3                      30                      40                      42
  5696   2                      28                      40                      44
  5697   4                      30                      42                      46
  5698   3                      30                      42                      44
  5699   3                      28                      42                      46
  5700   3                      30                      40                      46
  5701   2                      28                      44                       0
  5702   4                      30                      46                       2
  5703   3                      30                      46                       0
  5704   3                      28                      46                       2
  5705   3                      30                      44                       2
  5706   2                      28                      44                       4
  5707   4                      30                      46                       6
  5708   3                      30                      46                       4
  5709   3                      28                      46                       6
  5710   3                      30                      44                       6
  5711   1                      28                      44                       8
  5712   4                      30                      46                      10
  5713   3                      30                      46                       8
  5714   3                      28                      46                      10
  5715   3                      30                      44                      10
  5716   2                      28                      44                      12
  5717   4                      30                      46                      14
  5718   3                      30                      46                      12
  5719   3                      28                      46                      14
  5720   3                      30                      44                      14
  5721   2                      28                      44                      16
  5722   4                      30                      46                      18
  5723   3                      30                      46                      16
  5724   3                      28                      46                      18
  5725   3                      30                      44                      18
  5726   2                      28                      44                      20
  5727   4                      30                      46                      22
  5728   3                      30                      46                      20
  5729   3                      28                      46                      22
  5730   3                      30                      44                      22
  5731   1                      28                      44                      24
  5732   4                      30                      46                      26
  5733   3                      30                      46                      24
  5734   3                      28                      46                      26
  5735   3                      30                      44                      26
  5736   1                      28                      44                      28
  5737   4                      30                      46                      30
  5738   3                      30                      46                      28
  5739   3                      28                      46                      30
  5740   3                      30                      44                      30
  5741   2                      28                      44                      32
  5742   4                      30                      46                      34
  5743   3                      30                      46                      32
  5744   3                      28                      46                      34
  5745   3                      30                      44                      34
  5746   2                      28                      44                      36
  5747   4                      30                      46                      38
  5748   3                      30                      46                      36
  5749   3                      28                      46                      38
  5750   3                      30                      44                      38
  5751   2                      28                      44                      40
  5752   4                      30                      46                      42
  5753   3                      30                      46                      40
  5754   3                      28                      46                      42
  5755   3                      30                      44                      42
  5756   2                      28                      44                      44
  5757   4                      30                      46                      46
  5758   3                      30                      46                      44
  5759   3                      28                      46                      46
  5760   3                      30                      44                      46
  5761   2                      32                       0                       0
  5762   4                      34                       2                       2
  5763   3                      34                       2                       0
  5764   3                      32                       2                       2
  5765   3                      34                       0                       2
  5766   1                      32                       0                       4
  5767   4                      34                       2                       6
  5768   3                      34                       2                       4
  5769   3                      32                       2                       6
  5770   3                      34                       0                       6
  5771   2                      32                       0                       8
  5772   4                      34                       2                      10
  5773   3                      34                       2                       8
  5774   3                      32                       2                      10
  5775   3                      34                       0                      10
  5776   1                      32                       0                      12
  5777   4                      34                       2                      14
  5778   3                      34                       2                      12
  5779   3                      32                       2                      14
  5780   3                      34                       0                      14
  5781   1                      32                       0                      16
  5782   4                      34                       2                      18
  5783   3                      34                       2                      16
  5784   3                      32                       2                      18
  5785   3                      34                       0                      18
  5786   2                      32                       0                      20
  5787   4                      34                       2                      22
  5788   3                      34                       2                      20
  5789   3                      32                       2                      22
  5790   3                      34                       0                      22
  5791   1                      32                       0                      24
  5792   4                      34                       2                      26
  5793   3                      34                       2                      24
  5794   3                      32                       2                      26
  5795   3                      34                       0                      26
  5796   2                      32                       0                      28
  5797   4                      34                       2                      30
  5798   3                      34                       2                      28
  5799   3                      32                       2                      30
  5800   3                      34                       0                      30
  5801   1                      32                       0                      32
  5802   4                      34                       2                      34
  5803   3                      34                       2                      32
  5804   3                      32                       2                      34
  5805   3                      34                       0                      34
  5806   2                      32                       0                      36
  5807   4                      34                       2                      38
  5808   3                      34                       2                      36
  5809   3                      32                       2                      38
  5810   3                      34                       0                      38
  5811   1                      32                       0                      40
  5812   4                      34                       2                      42
  5813   3                      34                       2                      40
  5814   3                      32                       2                      42
  5815   3                      34                       0                      42
  5816   2                      32                       0                      44
  5817   4                      34                       2                      46
  5818   3                      34                       2                      44
  5819   3                      32                       2                      46
  5820   3                      34                       0                      46
  5821   1                      32                       4                       0
  5822   4                      34                       6                       2
  5823   3                      34                       6                       0
  5824   3                      32                       6                       2
  5825   3                      34                       4                       2
  5826   1                      32                       4                       4
  5827   4                      34                       6                       6
  5828   3                      34                       6                       4
  5829   3                      32                       6                       6
  5830   3                      34                       4                       6
  5831   2                      32                       4                       8
  5832   4                      34                       6                      10
  5833   3                      34                       6                       8
  5834   3                      32                       6                      10
  5835   3                      34                       4                      10
  5836   1                      32                       4                      12
  5837   4                      34                       6                      14
  5838   3                      34                       6                      12
  5839   3                      32                       6                      14
  5840   3                      34                       4                      14
  5841   2                      32                       4                      16
  5842   4                      34                       6                      18
  5843   3                      34                       6                      16
  5844   3                      32                       6                      18
  5845   3                      34                       4                      18
  5846   2                      32                       4                      20
  5847   4                      34                       6                      22
  5848   3                      34                       6                      20
  5849   3                      32                       6                      22
  5850   3                      34                       4                      22
  5851   2                      32                       4                      24
  5852   4                      34                       6                      26
  5853   3                      34                       6                      24
  5854   3                      32                       6                      26
  5855   3                      34                       4                      26
  5856   2                      32                       4                      28
  5857   4                      34                       6                      30
  5858   3                      34                       6                      28
  5859   3                      32                       6                      30
  5860   3                      34                       4                      30
  5861   1                      32                       4                      32
  5862   4                      34                       6                      34
  5863   3                      34                       6                      32
  5864   3                      32                       6                      34
  5865   3                      34                       4                      34
  5866   2                      32                       4                      36
  5867   4                      34                       6                      38
  5868   3                      34                       6                      36
  5869   3                      32                       6                      38
  5870   3                      34                       4                      38
  5871   2                      32                       4                      40
  5872   4                      34                       6                      42
  5873   3                      34                       6                      40
  5874   3                      32                       6                      42
  5875   3                      34                       4                      42
  5876   2                      32                       4                      44
  5877   4                      34                       6                      46
  5878   3                      34                       6                      44
  5879   3                      32                       6                      46
  5880   3                      34                       4                      46
  5881   2                      32                       8                       0
  5882   4                      34                      10                       2
  5883   3                      34                      10                       0
  5884   3                      32                      10                       2
  5885   3                      34                       8                       2
  5886   1                      32                       8                       4
  5887   4                      34                      10                       6
  5888   3                      34                      10                       4
  5889   3                      32                      10                       6
  5890   3                      34                       8                       6
  5891   1                      32                       8                       8
  5892   4                      34                      10                      10
  5893   3                      34                      10                       8
  5894   3                      32                      10                      10
  5895   3                      34                       8                      10
  5896   2                      32                       8                      12
  5897   4                      34                      10                      14
  5898   3                      34                      10                      12
  5899   3                      32                      10                      14
  5900   3                      34                       8                      14
  5901   2                      32                       8                      16
  5902   4                      34                      10                      18
  5903   3                      34                      10                      16
  5904   3                      32                      10                      18
  5905   3                      34                       8                      18
  5906   1                      32                       8                      20
  5907   4                      34                      10                      22
  5908   3                      34                      10                      20
  5909   3                      32                      10                      22
  5910   3                      34                       8                      22
  5911   2                      32                       8                      24
  5912   4                      34                      10                      26
  5913   3                      34                      10                      24
  5914   3                      32                      10                      26
  5915   3                      34                       8                      26
  5916   2                      32                       8                      28
  5917   4                      34                      10                      30
  5918   3                      34                      10                      28
  5919   3                      32                      10                      30
  5920   3                      34                       8                      30
  5921   2                      32                       8                      32
  5922   4                      34                      10                      34
  5923   3                      34                      10                      32
  5924   3                      32                      10                      34
  5925   3                      34                       8                      34
  5926   2                      32                       8                      36
  5927   4                      34                      10                      38
  5928   3                      34                      10                      36
  5929   3                      32                      10                      38
  5930   3                      34                       8                      38
  5931   2                      32                       8                      40
  5932   4                      34                      10                      42
  5933   3                      34                      10                      40
  5934   3                      32                      10                      42
  5935   3                      34                       8                      42
  5936   2                      32                       8                      44
  5937   4                      34                      10                      46
  5938   3                      34                      10                      44
  5939   3                      32                      10                      46
  5940   3                      34                       8                      46
  5941   1                      32                      12                       0
  5942   4                      34                      14                       2
  5943   3                      34                      14                       0
  5944   3                      32                      14                       2
  5945   3                      34                      12                       2
  5946   2                      32                      12                       4
  5947   4                      34                      14                       6
  5948   3                      34                      14                       4
  5949   3                      32                      14                       6
  5950   3                      34                      12                       6
  5951   1                      32                      12                       8
  5952   4                      34                      14                      10
  5953   3                      34                      14                       8
  5954   3                      32                      14                      10
  5955   3                      34                      12                      10
  5956   1                      32                      12                      12
  5957   4                      34                      14                      14
  5958   3                      34                      14                      12
  5959   3                      32                      14                      14
  5960   3                      34                      12                      14
  5961   1                      32                      12                      16
  5962   4                      34                      14                      18
  5963   3                      34                      14                      16
  5964   3                      32                      14                      18
  5965   3                      34                      12                      18
  5966   2                      32                      12                      20
  5967   4                      34                      14                      22
  5968   3                      34                      14                      20
  5969   3                      32                      14                      22
  5970   3                      34                      12                      22
  5971   2                      32                      12                      24
  5972   4                      34                      14                      26
  5973   3                      34                      14                      24
  5974   3                      32                      14                      26
  5975   3                      34                      12                      26
  5976   2                      32                      12                      28
  5977   4                      34                      14                      30
  5978   3                      34                      14                      28
  5979   3                      32                      14                      30
  5980   3                      34                      12                      30
  5981   2                      32                      12                      32
  5982   4                      34                      14                      34
  5983   3                      34                      14                      32
  5984   3                      32                      14                      34
  5985   3                      34                      12                      34
  5986   1                      32                      12                      36
  5987   4                      34                      14                      38
  5988   3                      34                      14                      36
  5989   3                      32                      14                      38
  5990   3                      34                      12                      38
  5991   2                      32                      12                      40
  5992   4                      34                      14                      42
  5993   3                      34                      14                      40
  5994   3                      32                      14                      42
  5995   3                      34                      12                      42
  5996   2                      32                      12                      44
  5997   4                      34                      14                      46
  5998   3                      34                      14                      44
  5999   3                      32                      14                      46
  6000   3                      34                      12                      46
  6001   2                      32                      16                       0
  6002   4                      34                      18                       2
  6003   3                      34                      18                       0
  6004   3                      32                      18                       2
  6005   3                      34                      16                       2
  6006   1                      32                      16                       4
  6007   4                      34                      18                       6
  6008   3                      34                      18                       4
  6009   3                      32                      18                       6
  6010   3                      34                      16                       6
  6011   2                      32                      16                       8
  6012   4                      34                      18                      10
  6013   3                      34                      18                       8
  6014   3                      32                      18                      10
  6015   3                      34                      16                      10
  6016   2                      32                      16                      12
  6017   4                      34                      18                      14
  6018   3                      34                      18                      12
  6019   3                      32                      18                      14
  6020   3                      34                      16                      14
  6021   1                      32                      16                      16
  6022   4                      34                      18                      18
  6023   3                      34                      18                      16
  6024   3                      32                      18                      18
  6025   3                      34                      16                      18
  6026   1                      32                      16                      20
  6027   4                      34                      18                      22
  6028   3                      34                      18                      20
  6029   3                      32                      18                      22
  6030   3                      34                      16                      22
  6031   2                      32                      16                      24
  6032   4                      34                      18                      26
  6033   3                      34                      18                      24
  6034   3                      32                      18                      26
  6035   3                      34                      16                      26
  6036   1                      32                      16                      28
  6037   4                      34                      18                      30
  6038   3                      34                      18                      28
  6039   3                      32                      18                      30
  6040   3                      34                      16                      30
  6041   1                      32                      16                      32
  6042   4                      34                      18                      34
  6043   3                      34                      18                      32
  6044   3                      32                      18                      34
  6045   3                      34                      16                      34
  6046   2                      32                      16                      36
  6047   4                      34                      18                      38
  6048   3                      34                      18                      36
  6049   3                      32                      18                      38
  6050   3                      34                      16                      38
  6051   2                      32                      16                      40
  6052   4                      34                      18                      42
  6053   3                      34                      18                      40
  6054   3                      32                      18                      42
  6055   3                      34                      16                      42
  6056   2                      32                      16                      44
  6057   4                      34                      18                      46
  6058   3                      34                      18                      44
  6059   3                      32                      18                      46
  6060   3                      34                      16                      46
  6061   2                      32                      20                       0
  6062   4                      34                      22                       2
  6063   3                      34                      22                       0
  6064   3                      32                      22                       2
  6065   3                      34                      20                       2
  6066   2                      32                      20                       4
  6067   4                      34                      22                       6
  6068   3                      34                      22                       4
  6069   3                      32                      22                       6
  6070   3                      34                      20                       6
  6071   2                      32                      20                       8
  6072   4                      34                      22                      10
  6073   3                      34                      22                       8
  6074   3                      32                      22                      10
  6075   3                      34                      20                      10
  6076   2                      32                      20                      12
  6077   4                      34                      22                      14
  6078   3                      34                      22                      12
  6079   3                      32                      22                      14
  6080   3                      34                      20                      14
  6081   2                      32                      20                      16
  6082   4                      34                      22                      18
  6083   3                      34                      22                      16
  6084   3                      32                      22                      18
  6085   3                      34                      20                      18
  6086   1                      32                      20                      20
  6087   4                      34                      22                      22
  6088   3                      34                      22                      20
  6089   3                      32                      22                      22
  6090   3                      34                      20                      22
  6091   2                      32                      20                      24
  6092   4                      34                      22                      26
  6093   3                      34                      22                      24
  6094   3                      32                      22                      26
  6095   3                      34                      20                      26
  6096   2                      32                      20                      28
  6097   4                      34                      22                      30
  6098   3                      34                      22                      28
  6099   3                      32                      22                      30
  6100   3                      34                      20                      30
  6101   2                      32                      20                      32
  6102   4                      34                      22                      34
  6103   3                      34                      22                      32
  6104   3                      32                      22                      34
  6105   3                      34                      20                      34
  6106   1                      32                      20                      36
  6107   4                      34                      22                      38
  6108   3                      34                      22                      36
  6109   3                      32                      22                      38
  6110   3                      34                      20                      38
  6111   2                      32                      20                      40
  6112   4                      34                      22                      42
  6113   3                      34                      22                      40
  6114   3                      32                      22                      42
  6115   3                      34                      20                      42
  6116   2                      32                      20                      44
  6117   4                      34                      22                      46
  6118   3                      34                      22                      44
  6119   3                      32                      22                      46
  6120   3                      34                      20                      46
  6121   2                      32                      24                       0
  6122   4                      34                      26                       2
  6123   3                      34                      26                       0
  6124   3                      32                      26                       2
  6125   3                      34                      24                       2
  6126   1                      32                      24                       4
  6127   4                      34                      26                       6
  6128   3                      34                      26                       4
  6129   3                      32                      26                       6
  6130   3                      34                      24                       6
  6131   1                      32                      24                       8
  6132   4                      34                      26                      10
  6133   3                      34                      26                       8
  6134   3                      32                      26                      10
  6135   3                      34                      24                      10
  6136   2                      32                      24                      12
  6137   4                      34                      26                      14
  6138   3                      34                      26                      12
  6139   3                      32                      26                      14
  6140   3                      34                      24                      14
  6141   1                      32                      24                      16
  6142   4                      34                      26                      18
  6143   3                      34                      26                      16
  6144   3                      32                      26                      18
  6145   3                      34                      24                      18
  6146   1                      32                      24                      20
  6147   4                      34                      26                      22
  6148   3                      34                      26                      20
  6149   3                      32                      26                      22
  6150   3                      34                      24                      22
  6151   2                      32                      24                      24
  6152   4                      34                      26                      26
  6153   3                      34                      26                      24
  6154   3                      32                      26                      26
  6155   3                      34                      24                      26
  6156   1                      32                      24                      28
  6157   4                      34                      26                      30
  6158   3                      34                      26                      28
  6159   3                      32                      26                      30
  6160   3                      34                      24                      30
  6161   1                      32                      24                      32
  6162   4                      34                      26                      34
  6163   3                      34                      26                      32
  6164   3                      32                      26                      34
  6165   3                      34                      24                      34
  6166   1                      32                      24                      36
  6167   4                      34                      26                      38
  6168   3                      34                      26                      36
  6169   3                      32                      26                      38
  6170   3                      34                      24                      38
  6171   2                      32                      24                      40
  6172   4                      34                      26                      42
  6173   3                      34                      26                      40
  6174   3                      32                      26                      42
  6175   3                      34                      24                      42
  6176   2                      32                      24                      44
  6177   4                      34                      26                      46
  6178   3                      34                      26                      44
  6179   3                      32                      26                      46
  6180   3                      34                      24                      46
  6181   2                      32                      28                       0
  6182   4                      34                      30                       2
  6183   3                      34                      30                       0
  6184   3                      32                      30                       2
  6185   3                      34                      28                       2
  6186   2                      32                      28                       4
  6187   4                      34                      30                       6
  6188   3                      34                      30                       4
  6189   3                      32                      30                       6
  6190   3                      34                      28                       6
  6191   1                      32                      28                       8
  6192   4                      34                      30                      10
  6193   3                      34                      30                       8
  6194   3                      32                      30                      10
  6195   3                      34                      28                      10
  6196   2                      32                      28                      12
  6197   4                      34                      30                      14
  6198   3                      34                      30                      12
  6199   3                      32                      30                      14
  6200   3                      34                      28                      14
  6201   1                      32                      28                      16
  6202   4                      34                      30                      18
  6203   3                      34                      30                      16
  6204   3                      32                      30                      18
  6205   3                      34                      28                      18
  6206   2                      32                      28                      20
  6207   4                      34                      30                      22
  6208   3                      34                      30                      20
  6209   3                      32                      30                      22
  6210   3                      34                      28                      22
  6211   1                      32                      28                      24
  6212   4                      34                      30                      26
  6213   3                      34                      30                      24
  6214   3                      32                      30                      26
  6215   3                      34                      28                      26
  6216   1                      32                      28                      28
  6217   4                      34                      30                      30
  6218   3                      34                      30                      28
  6219   3                      32                      30                      30
  6220   3                      34                      28                      30
  6221   2                      32                      28                      32
  6222   4                      34                      30                      34
  6223   3                      34                      30                      32
  6224   3                      32                      30                      34
  6225   3                      34                      28                      34
  6226   2                      32                      28                      36
  6227   4                      34                      30                      38
  6228   3                      34                      30                      36
  6229   3                      32                      30                      38
  6230   3                      34                      28                      38
  6231   2                      32                      28                      40
  6232   4                      34                      30                      42
  6233   3                      34                      30                      40
  6234   3                      32                      30                      42
  6235   3                      34                      28                      42
  6236   2                      32                      28                      44
  6237   4                      34                      30                      46
  6238   3                      34                      30                      44
  6239   3                      32                      30                      46
  6240   3                      34                      28                      46
  6241   2                      32                      32                       0
  6242   4                      34                      34                       2
  6243   3                      34                      34                       0
  6244   3                      32                      34                       2
  6245   3                      34                      32                       2
  6246   2                      32                      32                       4
  6247   4                      34                      34                       6
  6248   3                      34                      34                       4
  6249   3                      32                      34                       6
  6250   3                      34                      32                       6
  6251   2                      32                      32                       8
  6252   4                      34                      34                      10
  6253   3                      34                      34                       8
  6254   3                      32                      34                      10
  6255   3                      34                      32                      10
  6256   2                      32                      32                      12
  6257   4                      34                      34                      14
  6258   3                      34                      34                      12
  6259   3                      32                      34                      14
  6260   3                      34                      32                      14
  6261   1                      32                      32                      16
  6262   4                      34                      34                      18
  6263   3                      34                      34                      16
  6264   3                      32                      34                      18
  6265   3                      34                      32                      18
  6266   2                      32                      32                      20
  6267   4                      34                      34                      22
  6268   3                      34                      34                      20
  6269   3                      32                      34                      22
  6270   3                      34                      32                      22
  6271   1                      32                      32                      24
  6272   4                      34                      34                      26
  6273   3                      34                      34                      24
  6274   3                      32                      34                      26
  6275   3                      34                      32                      26
  6276   2                      32                      32                      28
  6277   4                      34                      34                      30
  6278   3                      34                      34                      28
  6279   3                      32                      34                      30
  6280   3                      34                      32                      30
  6281   2                      32                      32                      32
  6282   4                      34                      34                      34
  6283   3                      34                      34                      32
  6284   3                      32                      34                      34
  6285   3                      34                      32                      34
  6286   1                      32                      32                      36
  6287   4                      34                      34                      38
  6288   3                      34                      34                      36
  6289   3                      32                      34                      38
  6290   3                      34                      32                      38
  6291   2                      32                      32                      40
  6292   4                      34                      34                      42
  6293   3                      34                      34                      40
  6294   3                      32                      34                      42
  6295   3                      34                      32                      42
  6296   2                      32                      32                      44
  6297   4                      34                      34                      46
  6298   3                      34                      34                      44
  6299   3                      32                      34                      46
  6300   3                      34                      32                      46
  6301   2                      32                      36                       0
  6302   4                      34                      38                       2
  6303   3                      34                      38                       0
  6304   3                      32                      38                       2
  6305   3                      34                      36                       2
  6306   2                      32                      36                       4
  6307   4                      34                      38                       6
  6308   3                      34                      38                       4
  6309   3                      32                      38                       6
  6310   3                      34                      36                       6
  6311   2                      32                      36                       8
  6312   4                      34                      38                      10
  6313   3                      34                      38                       8
  6314   3                      32                      38                      10
  6315   3                      34                      36                      10
  6316   1                      32                      36                      12
  6317   4                      34                      38                      14
  6318   3                      34                      38                      12
  6319   3                      32                      38                      14
  6320   3                      34                      36                      14
  6321   2                      32                      36                      16
  6322   4                      34                      38                      18
  6323   3                      34                      38                      16
  6324   3                      32                      38                      18
  6325   3                      34                      36                      18
  6326   2                      32                      36                      20
  6327   4                      34                      38                      22
  6328   3                      34                      38                      20
  6329   3                      32                      38                      22
  6330   3                      34                      36                      22
  6331   1                      32                      36                      24
  6332   4                      34                      38                      26
  6333   3                      34                      38                      24
  6334   3                      32                      38                      26
  6335   3                      34                      36                      26
  6336   1                      32                      36                      28
  6337   4                      34                      38                      30
  6338   3                      34                      38                      28
  6339   3                      32                      38                      30
  6340   3                      34                      36                      30
  6341   1                      32                      36                      32
  6342   4                      34                      38                      34
  6343   3                      34                      38                      32
  6344   3                      32                      38                      34
  6345   3                      34                      36                      34
  6346   1                      32                      36                      36
  6347   4                      34                      38                      38
  6348   3                      34                      38                      36
  6349   3                      32                      38                      38
  6350   3                      34                      36                      38
  6351   2                      32                      36                      40
  6352   4                      34                      38                      42
  6353   3                      34                      38                      40
  6354   3                      32                      38                      42
  6355   3                      34                      36                      42
  6356   2                      32                      36                      44
  6357   4                      34                      38                      46
  6358   3                      34                      38                      44
  6359   3                      32                      38                      46
  6360   3                      34                      36                      46
  6361   2                      32                      40                       0
  6362   4                      34                      42                       2
  6363   3                      34                      42                       0
  6364   3                      32                      42                       2
  6365   3                      34                      40                       2
  6366   2                      32                      40                       4
  6367   4                      34                      42                       6
  6368   3                      34                      42                       4
  6369   3                      32                      42                       6
  6370   3                      34                      40                       6
  6371   1                      32                      40                       8
  6372   4                      34                      42                      10
  6373   3                      34                      42                       8
  6374   3                      32                      42                      10
  6375   3                      34                      40                      10
  6376   2                      32                      40                      12
  6377   4                      34                      42                      14
  6378   3                      34                      42                      12
  6379   3                      32                      42                      14
  6380   3                      34                      40                      14
  6381   2                      32                      40                      16
  6382   4                      34                      42                      18
  6383   3                      34                      42                      16
  6384   3                      32                      42                      18
  6385   3                      34                      40                      18
  6386   2                      32                      40                      20
  6387   4                      34                      42                      22
  6388   3                      34                      42                      20
  6389   3                      32                      42                      22
  6390   3                      34                      40                      22
  6391   1                      32                      40                      24
  6392   4                      34                      42                      26
  6393   3                      34                      42                      24
  6394   3                      32                      42                      26
  6395   3                      34                      40                      26
  6396   2                      32                      40                      28
  6397   4                      34                      42                      30
  6398   3                      34                      42                      28
  6399   3                      32                      42                      30
  6400   3                      34                      40                      30
  6401   2                      32                      40                      32
  6402   4                      34                      42                      34
  6403   3                      34                      42                      32
  6404   3                      32                      42                      34
  6405   3                      34                      40                      34
  6406   2                      32                      40                      36
  6407   4                      34                      42                      38
  6408   3                      34                      42                      36
  6409   3                      32                      42                      38
  6410   3                      34                      40                      38
  6411   2                      32                      40                      40
  6412   4                      34                      42                      42
  6413   3                      34                      42                      40
  6414   3                      32                      42                      42
  6415   3                      34                      40                      42
  6416   2                      32                      40                      44
  6417   4                      34                      42                      46
  6418   3                      34                      42                      44
  6419   3                      32                      42                      46
  6420   3                      34                      40                      46
  6421   2                      32                      44                       0
  6422   4                      34                      46                       2
  6423   3                      34                      46                       0
  6424   3                      32                      46                       2
  6425   3                      34                      44                       2
  6426   1                      32                      44                       4
  6427   4                      34                      46                       6
  6428   3                      34                      46                       4
  6429   3                      32                      46                       6
  6430   3                      34                      44                       6
  6431   2                      32                      44                       8
  6432   4                      34                      46                      10
  6433   3                      34                      46                       8
  6434   3                      32                      46                      10
  6435   3                      34                      44                      10
  6436   2                      32                      44                      12
  6437   4                      34                      46                      14
  6438   3                      34                      46                      12
  6439   3                      32                      46                      14
  6440   3                      34                      44                      14
  6441   2                      32                      44                      16
  6442   4                      34                      46                      18
  6443   3                      34                      46                      16
  6444   3                      32                      46                      18
  6445   3                      34                      44                      18
  6446   2                      32                      44                      20
  6447   4                      34                      46                      22
  6448   3                      34                      46                      20
  6449   3                      32                      46                      22
  6450   3                      34                      44                      22
  6451   2                      32                      44                      24
  6452   4                      34                      46                      26
  6453   3                      34                      46                      24
  6454   3                      32                      46                      26
  6455   3                      34                      44                      26
  6456   2                      32                      44                      28
  6457   4                      34                      46                      30
  6458   3                      34                      46                      28
  6459   3                      32                      46                      30
  6460   3                      34                      44                      30
  6461   2                      32                      44                      32
  6462   4                      34                      46                      34
  6463   3                      34                      46                      32
  6464   3                      32                      46                      34
  6465   3                      34                      44                      34
  6466   1                      32                      44                      36
  6467   4                      34                      46                      38
  6468   3                      34                      46                      36
  6469   3                      32                      46                      38
  6470   3                      34                      44                      38
  6471   2                      32                      44                      40
  6472   4                      34                      46                      42
  6473   3                      34                      46                      40
  6474   3                      32                      46                      42
  6475   3                      34                      44                      42
  6476   1                      32                      44                      44
  6477   4                      34                      46                      46
  6478   3                      34                      46                      44
  6479   3                      32                      46                      46
  6480   3                      34                      44                      46
  6481   2                      36                       0                       0
  6482   4                      38                       2                       2
  6483   3                      38                       2                       0
  6484   3                      36                       2                       2
  6485   3                      38                       0                       2
  6486   2                      36                       0                       4
  6487   4                      38                       2                       6
  6488   3                      38                       2                       4
  6489   3                      36                       2                       6
  6490   3                      38                       0                       6
  6491   1                      36                       0                       8
  6492   4                      38                       2                      10
  6493   3                      38                       2                       8
  6494   3                      36                       2                      10
  6495   3                      38                       0                      10
  6496   1                      36                       0                      12
  6497   4                      38                       2                      14
  6498   3                      38                       2                      12
  6499   3                      36                       2                      14
  6500   3                      38                       0                      14
  6501   2                      36                       0                      16
  6502   4                      38                       2                      18
  6503   3                      38                       2                      16
  6504   3                      36                       2                      18
  6505   3                      38                       0                      18
  6506   2                      36                       0                      20
  6507   4                      38                       2                      22
  6508   3                      38                       2                      20
  6509   3                      36                       2                      22
  6510   3                      38                       0                      22
  6511   2                      36                       0                      24
  6512   4                      38                       2                      26
  6513   3                      38                       2                      24
  6514   3                      36                       2                      26
  6515   3                      38                       0                      26
  6516   1                      36                       0                      28
  6517   4                      38                       2                      30
  6518   3                      38                       2                      28
  6519   3                      36                       2                      30
  6520   3                      38                       0                      30
  6521   2                      36                       0                      32
  6522   4                      38                       2                      34
  6523   3                      38                       2                      32
  6524   3                      36                       2                      34
  6525   3                      38                       0                      34
  6526   2                      36                       0                      36
  6527   4                      38                       2                      38
  6528   3                      38                       2                      36
  6529   3                      36                       2                      38
  6530   3                      38                       0                      38
  6531   2                      36                       0                      40
  6532   4                      38                       2                      42
  6533   3                      38                       2                      40
  6534   3                      36                       2                      42
  6535   3                      38                       0                      42
  6536   2                      36                       0                      44
  6537   4                      38                       2                      46
  6538   3                      38                       2                      44
  6539   3                      36                       2                      46
  6540   3                      38                       0                      46
  6541   1                      36                       4                       0
  6542   4                      38                       6                       2
  6543   3                      38                       6                       0
  6544   3                      36                       6                       2
  6545   3                      38                       4                       2
  6546   1                      36                       4                       4
  6547   4                      38                       6                       6
  6548   3                      38                       6                       4
  6549   3                      36                       6                       6
  6550   3                      38                       4                       6
  6551   2                      36                       4                       8
  6552   4                      38                       6                      10
  6553   3                      38                       6                       8
  6554   3                      36                       6                      10
  6555   3                      38                       4                      10
  6556   1                      36                       4                      12
  6557   4                      38                       6                      14
  6558   3                      38                       6                      12
  6559   3                      36                       6                      14
  6560   3                      38                       4                      14
  6561   2                      36                       4                      16
  6562   4                      38                       6                      18
  6563   3                      38                       6                      16
  6564   3                      36                       6                      18
  6565   3                      38                       4                      18
  6566   2                      36                       4                      20
  6567   4                      38                       6                      22
  6568   3                      38                       6                      20
  6569   3                      36                       6                      22
  6570   3                      38                       4                      22
  6571   1                      36                       4                      24
  6572   4                      38                       6                      26
  6573   3                      38                       6                      24
  6574   3                      36                       6                      26
  6575   3                      38                       4                      26
  6576   1                      36                       4                      28
  6577   4                      38                       6                      30
  6578   3                      38                       6                      28
  6579   3                      36                       6                      30
  6580   3                      38                       4                      30
  6581   2                      36                       4                      32
  6582   4                      38                       6                      34
  6583   3                      38                       6                      32
  6584   3                      36                       6                      34
  6585   3                      38                       4                      34
  6586   2                      36                       4                      36
  6587   4                      38                       6                      38
  6588   3                      38                       6                      36
  6589   3                      36                       6                      38
  6590   3                      38                       4                      38
  6591   2                      36                       4                      40
  6592   4                      38                       6                      42
  6593   3                      38                       6                      40
  6594   3                      36                       6                      42
  6595   3                      38                       4                      42
  6596   1                      36                       4                      44
  6597   4                      38                       6                      46
  6598   3                      38                       6                      44
  6599   3                      36                       6                      46
  6600   3                      38                       4                      46
  6601   2                      36                       8                       0
  6602   4                      38                      10                       2
  6603   3                      38                      10                       0
  6604   3                      36                      10                       2
  6605   3                      38                       8                       2
  6606   1                      36                       8                       4
  6607   4                      38                      10                       6
  6608   3                      38                      10                       4
  6609   3                      36                      10                       6
  6610   3                      38                       8                       6
  6611   2                      36                       8                       8
  6612   4                      38                      10                      10
  6613   3                      38                      10                       8
  6614   3                      36                      10                      10
  6615   3                      38                       8                      10
  6616   2                      36                       8                      12
  6617   4                      38                      10                      14
  6618   3                      38                      10                      12
  6619   3                      36                      10                      14
  6620   3                      38                       8                      14
  6621   1                      36                       8                      16
  6622   4                      38                      10                      18
  6623   3                      38                      10                      16
  6624   3                      36                      10                      18
  6625   3                      38                       8                      18
  6626   2                      36                       8                      20
  6627   4                      38                      10                      22
  6628   3                      38                      10                      20
  6629   3                      36                      10                      22
  6630   3                      38                       8                      22
  6631   1                      36                       8                      24
  6632   4                      38                      10                      26
  6633   3                      38                      10                      24
  6634   3                      36                      10                      26
  6635   3                      38                       8                      26
  6636   2                      36                       8                      28
  6637   4                      38                      10                      30
  6638   3                      38                      10                      28
  6639   3                      36                      10                      30
  6640   3                      38                       8                      30
  6641   1                      36                       8                      32
  6642   4                      38                      10                      34
  6643   3                      38                      10                      32
  6644   3                      36                      10                      34
  6645   3                      38                       8                      34
  6646   1                      36                       8                      36
  6647   4                      38                      10                      38
  6648   3                      38                      10                      36
  6649   3                      36                      10                      38
  6650   3                      38                       8                      38
  6651   1                      36                       8                      40
  6652   4                      38                      10                      42
  6653   3                      38                      10                      40
  6654   3                      36                      10                      42
  6655   3                      38                       8                      42
  6656   2                      36                       8                      44
  6657   4                      38                      10                      46
  6658   3                      38                      10                      44
  6659   3                      36                      10                      46
  6660   3                      38                       8                      46
  6661   2                      36                      12                       0
  6662   4                      38                      14                       2
  6663   3                      38                      14                       0
  6664   3                      36                      14                       2
  6665   3                      38                      12                       2
  6666   2                      36                      12                       4
  6667   4                      38                      14                       6
  6668   3                      38                      14                       4
  6669   3                      36                      14                       6
  6670   3                      38                      12                       6
  6671   2                      36                      12                       8
  6672   4                      38                      14                      10
  6673   3                      38                      14                       8
  6674   3                      36                      14                      10
  6675   3                      38                      12                      10
  6676   2                      36                      12                      12
  6677   4                      38                      14                      14
  6678   3                      38                      14                      12
  6679   3                      36                      14                      14
  6680   3                      38                      12                      14
  6681   1                      36                      12                      16
  6682   4                      38                      14                      18
  6683   3                      38                      14                      16
  6684   3                      36                      14                      18
  6685   3                      38                      12                      18
  6686   1                      36                      12                      20
  6687   4                      38                      14                      22
  6688   3                      38                      14                      20
  6689   3                      36                      14                      22
  6690   3                      38                      12                      22
  6691   2                      36                      12                      24
  6692   4                      38                      14                      26
  6693   3                      38                      14                      24
  6694   3                      36                      14                      26
  6695   3                      38                      12                      26
  6696   1                      36                      12                      28
  6697   4                      38                      14                      30
  6698   3                      38                      14                      28
  6699   3                      36                      14                      30
  6700   3                      38                      12                      30
  6701   1                      36                      12                      32
  6702   4                      38                      14                      34
  6703   3                      38                      14                      32
  6704   3                      36                      14                      34
  6705   3                      38                      12                      34
  6706   1                      36                      12                      36
  6707   4                      38                      14                      38
  6708   3                      38                      14                      36
  6709   3                      36                      14                      38
  6710   3                      38                      12                      38
  6711   1                      36                      12                      40
  6712   4                      38                      14                      42
  6713   3                      38                      14                      40
  6714   3                      36                      14                      42
  6715   3                      38                      12                      42
  6716   2                      36                      12                      44
  6717   4                      38                      14                      46
  6718   3                      38                      14                      44
  6719   3                      36                      14                      46
  6720   3                      38                      12                      46
  6721   2                      36                      16                       0
  6722   4                      38                      18                       2
  6723   3                      38                      18                       0
  6724   3                      36                      18                       2
  6725   3                      38                      16                       2
  6726   2                      36                      16                       4
  6727   4                      38                      18                       6
  6728   3                      38                      18                       4
  6729   3                      36                      18                       6
  6730   3                      38                      16                       6
  6731   2                      36                      16                       8
  6732   4                      38                      18                      10
  6733   3                      38                      18                       8
  6734   3                      36                      18                      10
  6735   3                      38                      16                      10
  6736   1                      36                      16                      12
  6737   4                      38                      18                      14
  6738   3                      38                      18                      12
  6739   3                      36                      18                      14
  6740   3                      38                      16                      14
  6741   2                      36                      16                      16
  6742   4                      38                      18                      18
  6743   3                      38                      18                      16
  6744   3                      36                      18                      18
  6745   3                      38                      16                      18
  6746   2                      36                      16                      20
  6747   4                      38                      18                      22
  6748   3                      38                      18                      20
  6749   3                      36                      18                      22
  6750   3                      38                      16                      22
  6751   1                      36                      16                      24
  6752   4                      38                      18                      26
  6753   3                      38                      18                      24
  6754   3                      36                      18                      26
  6755   3                      38                      16                      26
  6756   2                      36                      16                      28
  6757   4                      38                      18                      30
  6758   3                      38                      18                      28
  6759   3                      36                      18                      30
  6760   3                      38                      16                      30
  6761   1                      36                      16                      32
  6762   4                      38                      18                      34
  6763   3                      38                      18                      32
  6764   3                      36                      18                      34
  6765   3                      38                      16                      34
  6766   1                      36                      16                      36
  6767   4                      38                      18                      38
  6768   3                      38                      18                      36
  6769   3                      36                      18                      38
  6770   3                      38                      16                      38
  6771   2                      36                      16                      40
  6772   4                      38                      18                      42
  6773   3                      38                      18                      40
  6774   3                      36                      18                      42
  6775   3                      38                      16                      42
  6776   2                      36                      16                      44
  6777   4                      38                      18                      46
  6778   3                      38                      18                      44
  6779   3                      36                      18                      46
  6780   3                      38                      16                      46
  6781   2                      36                      20                       0
  6782   4                      38                      22                       2
  6783   3                      38                      22                       0
  6784   3                      36                      22                       2
  6785   3                      38                      20                       2
  6786   2                      36                      20                       4
  6787   4                      38                      22                       6
  6788   3                      38                      22                       4
  6789   3                      36                      22                       6
  6790   3                      38                      20                       6
  6791   2                      36                      20                       8
  6792   4                      38                      22                      10
  6793   3                      38                      22                       8
  6794   3                      36                      22                      10
  6795   3                      38                      20                      10
  6796   1                      36                      20                      12
  6797   4                      38                      22                      14
  6798   3                      38                      22                      12
  6799   3                      36                      22                      14
  6800   3                      38                      20                      14
  6801   1                      36                      20                      16
  6802   4                      38                      22                      18
  6803   3                      38                      22                      16
  6804   3                      36                      22                      18
  6805   3                      38                      20                      18
  6806   2                      36                      20                      20
  6807   4                      38                      22                      22
  6808   3                      38                      22                      20
  6809   3                      36                      22                      22
  6810   3                      38                      20                      22
  6811   2                      36                      20                      24
  6812   4                      38                      22                      26
  6813   3                      38                      22                      24
  6814   3                      36                      22                      26
  6815   3                      38                      20                      26
  6816   1                      36                      20                      28
  6817   4                      38                      22                      30
  6818   3                      38                      22                      28
  6819   3                      36                      22                      30
  6820   3                      38                      20                      30
  6821   1                      36                      20                      32
  6822   4                      38                      22                      34
  6823   3                      38                      22                      32
  6824   3                      36                      22                      34
  6825   3                      38                      20                      34
  6826   2                      36                      20                      36
  6827   4                      38                      22                      38
  6828   3                      38                      22                      36
  6829   3                      36                      22                      38
  6830   3                      38                      20                      38
  6831   2                      36                      20                      40
  6832   4                      38                      22                      42
  6833   3                      38                      22                      40
  6834   3                      36                      22                      42
  6835   3                      38                      20                      42
  6836   2                      36                      20                      44
  6837   4                      38                      22                      46
  6838   3                      38                      22                      44
  6839   3                      36                      22                      46
  6840   3                      38                      20                      46
  6841   2                      36                      24                       0
  6842   4                      38                      26                       2
  6843   3                      38                      26                       0
  6844   3                      36                      26                       2
  6845   3                      38                      24                       2
  6846   1                      36                      24                       4
  6847   4                      38                      26                       6
  6848   3                      38                      26                       4
  6849   3                      36                      26                       6
  6850   3                      38                      24                       6
  6851   2                      36                      24                       8
  6852   4                      38                      26                      10
  6853   3                      38                      26                       8
  6854   3                      36                      26                      10
  6855   3                      38                      24                      10
  6856   2                      36                      24                      12
  6857   4                      38                      26                      14
  6858   3                      38                      26                      12
  6859   3                      36                      26                      14
  6860   3                      38                      24                      14
  6861   1                      36                      24                      16
  6862   4                      38                      26                      18
  6863   3                      38                      26                      16
  6864   3                      36                      26                      18
  6865   3                      38                      24                      18
  6866   2                      36                      24                      20
  6867   4                      38                      26                      22
  6868   3                      38                      26                      20
  6869   3                      36                      26                      22
  6870   3                      38                      24                      22
  6871   1                      36                      24                      24
  6872   4                      38                      26                      26
  6873   3                      38                      26                      24
  6874   3                      36                      26                      26
  6875   3                      38                      24                      26
  6876   2                      36                      24                      28
  6877   4                      38                      26                      30
  6878   3                      38                      26                      28
  6879   3                      36                      26                      30
  6880   3                      38                      24                      30
  6881   2                      36                      24                      32
  6882   4                      38                      26                      34
  6883   3                      38                      26                      32
  6884   3                      36                      26                      34
  6885   3                      38                      24                      34
  6886   2                      36                      24                      36
  6887   4                      38                      26                      38
  6888   3                      38                      26                      36
  6889   3                      36                      26                      38
  6890   3                      38                      24                      38
  6891   2                      36                      24                      40
  6892   4                      38                      26                      42
  6893   3                      38                      26                      40
  6894   3                      36                      26                      42
  6895   3                      38                      24                      42
  6896   2                      36                      24                      44
  6897   4                      38                      26                      46
  6898   3                      38                      26                      44
  6899   3                      36                      26                      46
  6900   3                      38                      24                      46
  6901   2                      36                      28                       0
  6902   4                      38                      30                       2
  6903   3                      38                      30                       0
  6904   3                      36                      30                       2
  6905   3                      38                      28                       2
  6906   1                      36                      28                       4
  6907   4                      38                      30                       6
  6908   3                      38                      30                       4
  6909   3                      36                      30                       6
  6910   3                      38                      28                       6
  6911   2                      36                      28                       8
  6912   4                      38                      30                      10
  6913   3                      38                      30                       8
  6914   3                      36                      30                      10
  6915   3                      38                      28                      10
  6916   1                      36                      28                      12
  6917   4                      38                      30                      14
  6918   3                      38                      30                      12
  6919   3                      36                      30                      14
  6920   3                      38                      28                      14
  6921   2                      36                      28                      16
  6922   4                      38                      30                      18
  6923   3                      38                      30                      16
  6924   3                      36                      30                      18
  6925   3                      38                      28                      18
  6926   1                      36                      28                      20
  6927   4                      38                      30                      22
  6928   3                      38                      30                      20
  6929   3                      36                      30                      22
  6930   3                      38                      28                      22
  6931   2                      36                      28                      24
  6932   4                      38                      30                      26
  6933   3                      38                      30                      24
  6934   3                      36                      30                      26
  6935   3                      38                      28                      26
  6936   1                      36                      28                      28
  6937   4                      38                      30                      30
  6938   3                      38                      30                      28
  6939   3                      36                      30                      30
  6940   3                      38                      28                      30
  6941   2                      36                      28                      32
  6942   4                      38                      30                      34
  6943   3                      38                      30                      32
  6944   3                      36                      30                      34
  6945   3                      38                      28                      34
  6946   2                      36                      28                      36
  6947   4                      38                      30                      38
  6948   3                      38                      30                      36
  6949   3                      36                      30                      38
  6950   3                      38                      28                      38
  6951   2                      36                      28                      40
  6952   4                      38                      30                      42
  6953   3                      38                      30                      40
  6954   3                      36                      30                      42
  6955   3                      38                      28                      42
  6956   1                      36                      28                      44
  6957   4                      38                      30                      46
  6958   3                      38                      30                      44
  6959   3                      36                      30                      46
  6960   3                      38                      28                      46
  6961   2                      36                      32                       0
  6962   4                      38                      34                       2
  6963   3                      38                      34                       0
  6964   3                      36                      34                       2
  6965   3                      38                      32                       2
  6966   2                      36                      32                       4
  6967   4                      38                      34                       6
  6968   3                      38                      34                       4
  6969   3                      36                      34                       6
  6970   3                      38                      32                       6
  6971   2                      36                      32                       8
  6972   4                      38                      34                      10
  6973   3                      38                      34                       8
  6974   3                      36                      34                      10
  6975   3                      38                      32                      10
  6976   2                      36                      32                      12
  6977   4                      38                      34                      14
  6978   3                      38                      34                      12
  6979   3                      36                      34                      14
  6980   3                      38                      32                      14
  6981   1                      36                      32                      16
  6982   4                      38                      34                      18
  6983   3                      38                      34                      16
  6984   3                      36                      34                      18
  6985   3                      38                      32                      18
  6986   2                      36                      32                      20
  6987   4                      38                      34                      22
  6988   3                      38                      34                      20
  6989   3                      36                      34                      22
  6990   3                      38                      32                      22
  6991   2                      36                      32                      24
  6992   4                      38                      34                      26
  6993   3                      38                      34                      24
  6994   3                      36                      34                      26
  6995   3                      38                      32                      26
  6996   2                      36                      32                      28
  6997   4                      38                      34                      30
  6998   3                      38                      34                      28
  6999   3                      36                      34                      30
  7000   3                      38                      32                      30
  7001   2                      36                      32                      32
  7002   4                      38                      34                      34
  7003   3                      38                      34                      32
  7004   3                      36                      34                      34
  7005   3                      38                      32                      34
  7006   2                      36                      32                      36
  7007   4                      38                      34                      38
  7008   3                      38                      34                      36
  7009   3                      36                      34                      38
  7010   3                      38                      32                      38
  7011   1                      36                      32                      40
  7012   4                      38                      34                      42
  7013   3                      38                      34                      40
  7014   3                      36                      34                      42
  7015   3                      38                      32                      42
  7016   2                      36                      32                      44
  7017   4                      38                      34                      46
  7018   3                      38                      34                      44
  7019   3                      36                      34                      46
  7020   3                      38                      32                      46
  7021   1                      36                      36                       0
  7022   4                      38                      38                       2
  7023   3                      38                      38                       0
  7024   3                      36                      38                       2
  7025   3                      38                      36                       2
  7026   1                      36                      36                       4
  7027   4                      38                      38                       6
  7028   3                      38                      38                       4
  7029   3                      36                      38                       6
  7030   3                      38                      36                       6
  7031   2                      36                      36                       8
  7032   4                      38                      38                      10
  7033   3                      38                      38                       8
  7034   3                      36                      38                      10
  7035   3                      38                      36                      10
  7036   2                      36                      36                      12
  7037   4                      38                      38                      14
  7038   3                      38                      38                      12
  7039   3                      36                      38                      14
  7040   3                      38                      36                      14
  7041   1                      36                      36                      16
  7042   4                      38                      38                      18
  7043   3                      38                      38                      16
  7044   3                      36                      38                      18
  7045   3                      38                      36                      18
  7046   2                      36                      36                      20
  7047   4                      38                      38                      22
  7048   3                      38                      38                      20
  7049   3                      36                      38                      22
  7050   3                      38                      36                      22
  7051   2                      36                      36                      24
  7052   4                      38                      38                      26
  7053   3                      38                      38                      24
  7054   3                      36                      38                      26
  7055   3                      38                      36                      26
  7056   1                      36                      36                      28
  7057   4                      38                      38                      30
  7058   3                      38                      38                      28
  7059   3                      36                      38                      30
  7060   3                      38                      36                      30
  7061   2                      36                      36                      32
  7062   4                      38                      38                      34
  7063   3                      38                      38                      32
  7064   3                      36                      38                      34
  7065   3                      38                      36                      34
  7066   2                      36                      36                      36
  7067   4                      38                      38                      38
  7068   3                      38                      38                      36
  7069   3                      36                      38                      38
  7070   3                      38                      36                      38
  7071   2                      36                      36                      40
  7072   4                      38                      38                      42
  7073   3                      38                      38                      40
  7074   3                      36                      38                      42
  7075   3                      38                      36                      42
  7076   2                      36                      36                      44
  7077   4                      38                      38                      46
  7078   3                      38                      38                      44
  7079   3                      36                      38                      46
  7080   3                      38                      36                      46
  7081   2                      36                      40                       0
  7082   4                      38                      42                       2
  7083   3                      38                      42                       0
  7084   3                      36                      42                       2
  7085   3                      38                      40                       2
  7086   1                      36                      40                       4
  7087   4                      38                      42                       6
  7088   3                      38                      42                       4
  7089   3                      36                      42                       6
  7090   3                      38                      40                       6
  7091   1                      36                      40                       8
  7092   4                      38                      42                      10
  7093   3                      38                      42                       8
  7094   3                      36                      42                      10
  7095   3                      38                      40                      10
  7096   1                      36                      40                      12
  7097   4                      38                      42                      14
  7098   3                      38                      42                      12
  7099   3                      36                      42                      14
  7100   3                      38                      40                      14
  7101   1                      36                      40                      16
  7102   4                      38                      42                      18
  7103   3                      38                      42                      16
  7104   3                      36                      42                      18
  7105   3                      38                      40                      18
  7106   1                      36                      40                      20
  7107   4                      38                      42                      22
  7108   3                      38                      42                      20
  7109   3                      36                      42                      22
  7110   3                      38                      40                      22
  7111   2                      36                      40                      24
  7112   4                      38                      42                      26
  7113   3                      38                      42                      24
  7114   3                      36                      42                      26
  7115   3                      38                      40                      26
  7116   1                      36                      40                      28
  7117   4                      38                      42                      30
  7118   3                      38                      42                      28
  7119   3                      36                      42                      30
  7120   3                      38                      40                      30
  7121   2                      36                      40                      32
  7122   4                      38                      42                      34
  7123   3                      38                      42                      32
  7124   3                      36                      42                      34
  7125   3                      38                      40                      34
  7126   1                      36                      40                      36
  7127   4                      38                      42                      38
  7128   3                      38                      42                      36
  7129   3                      36                      42                      38
  7130   3                      38                      40                      38
  7131   2                      36                      40                      40
  7132   4                      38                      42                      42
  7133   3                      38                      42                      40
  7134   3                      36                      42                      42
  7135   3                      38                      40                      42
  7136   1                      36                      40                      44
  7137   4                      38                      42                      46
  7138   3                      38                      42                      44
  7139   3                      36                      42                      46
  7140   3                      38                      40                      46
  7141   1                      36                      44                       0
  7142   4                      38                      46                       2
  7143   3                      38                      46                       0
  7144   3                      36                      46                       2
  7145   3                      38                      44                       2
  7146   1                      36                      44                       4
  7147   4                      38                      46                       6
  7148   3                      38                      46                       4
  7149   3                      36                      46                       6
  7150   3                      38                      44                       6
  7151   1                      36                      44                       8
  7152   4                      38                      46                      10
  7153   3                      38                      46                       8
  7154   3                      36                      46                      10
  7155   3                      38                      44                      10
  7156   1                      36                      44                      12
  7157   4                      38                      46                      14
  7158   3                      38                      46                      12
  7159   3                      36                      46                      14
  7160   3                      38                      44                      14
  7161   2                      36                      44                      16
  7162   4                      38                      46                      18
  7163   3                      38                      46                      16
  7164   3                      36                      46                      18
  7165   3                      38                      44                      18
  7166   2                      36                      44                      20
  7167   4                      38                      46                      22
  7168   3                      38                      46                      20
  7169   3                      36                      46                      22
  7170   3                      38                      44                      22
  7171   1                      36                      44                      24
  7172   4                      38                      46                      26
  7173   3                      38                      46                      24
  7174   3                      36                      46                      26
  7175   3                      38                      44                      26
  7176   1                      36                      44                      28
  7177   4                      38                      46                      30
  7178   3                      38                      46                      28
  7179   3                      36                      46                      30
  7180   3                      38                      44                      30
  7181   1                      36                      44                      32
  7182   4                      38                      46                      34
  7183   3                      38                      46                      32
  7184   3                      36                      46                      34
  7185   3                      38                      44                      34
  7186   2                      36                      44                      36
  7187   4                      38                      46                      38
  7188   3                      38                      46                      36
  7189   3                      36                      46                      38
  7190   3                      38                      44                      38
  7191   2                      36                      44                      40
  7192   4                      38                      46                      42
  7193   3                      38                      46                      40
  7194   3                      36                      46                      42
  7195   3                      38                      44                      42
  7196   2                      36                      44                      44
  7197   4                      38                      46                      46
  7198   3                      38                      46                      44
  7199   3                      36                      46                      46
  7200   3                      38                      44                      46
  7201   2                      40                       0                       0
  7202   4                      42                       2                       2
  7203   3                      42                       2                       0
  7204   3                      40                       2                       2
  7205   3                      42                       0                       2
  7206   2                      40                       0                       4
  7207   4                      42                       2                       6
  7208   3                      42                       2                       4
  7209   3                      40                       2                       6
  7210   3                      42                       0                       6
  7211   2                      40                       0                       8
  7212   4                      42                       2                      10
  7213   3                      42                       2                       8
  7214   3                      40                       2                      10
  7215   3                      42                       0                      10
  7216   2                      40                       0                      12
  7217   4                      42                       2                      14
  7218   3                      42                       2                      12
  7219   3                      40                       2                      14
  7220   3                      42                       0                      14
  7221   2                      40                       0                      16
  7222   4                      42                       2                      18
  7223   3                      42                       2                      16
  7224   3                      40                       2                      18
  7225   3                      42                       0                      18
  7226   1                      40                       0                      20
  7227   4                      42                       2                      22
  7228   3                      42                       2                      20
  7229   3                      40                       2                      22
  7230   3                      42                       0                      22
  7231   2                      40                       0                      24
  7232   4                      42                       2                      26
  7233   3                      42                       2                      24
  7234   3                      40                       2                      26
  7235   3                      42                       0                      26
  7236   1                      40                       0                      28
  7237   4                      42                       2                      30
  7238   3                      42                       2                      28
  7239   3                      40                       2                      30
  7240   3                      42                       0                      30
  7241   1                      40                       0                      32
  7242   4                      42                       2                      34
  7243   3                      42                       2                      32
  7244   3                      40                       2                      34
  7245   3                      42                       0                      34
  7246   2                      40                       0                      36
  7247   4                      42                       2                      38
  7248   3                      42                       2                      36
  7249   3                      40                       2                      38
  7250   3                      42                       0                      38
  7251   2                      40                       0                      40
  7252   4                      42                       2                      42
  7253   3                      42                       2                      40
  7254   3                      40                       2                      42
  7255   3                      42                       0                      42
  7256   2                      40                       0                      44
  7257   4                      42                       2                      46
  7258   3                      42                       2                      44
  7259   3                      40                       2                      46
  7260   3                      42                       0                      46
  7261   2                      40                       4                       0
  7262   4                      42                       6                       2
  7263   3                      42                       6                       0
  7264   3                      40                       6                       2
  7265   3                      42                       4                       2
  7266   2                      40                       4                       4
  7267   4                      42                       6                       6
  7268   3                      42                       6                       4
  7269   3                      40                       6                       6
  7270   3                      42                       4                       6
  7271   1                      40                       4                       8
  7272   4                      42                       6                      10
  7273   3                      42                       6                       8
  7274   3                      40                       6                      10
  7275   3                      42                       4                      10
  7276   2                      40                       4                      12
  7277   4                      42                       6                      14
  7278   3                      42                       6                      12
  7279   3                      40                       6                      14
  7280   3                      42                       4                      14
  7281   2                      40                       4                      16
  7282   4                      42                       6                      18
  7283   3                      42                       6                      16
  7284   3                      40                       6                      18
  7285   3                      42                       4                      18
  7286   2                      40                       4                      20
  7287   4                      42                       6                      22
  7288   3                      42                       6                      20
  7289   3                      40                       6                      22
  7290   3                      42                       4                      22
  7291   1                      40                       4                      24
  7292   4                      42                       6                      26
  7293   3                      42                       6                      24
  7294   3                      40                       6                      26
  7295   3                      42                       4                      26
  7296   1                      40                       4                      28
  7297   4                      42                       6                      30
  7298   3                      42                       6                      28
  7299   3                      40                       6                      30
  7300   3                      42                       4                      30
  7301   1                      40                       4                      32
  7302   4                      42                       6                      34
  7303   3                      42                       6                      32
  7304   3                      40                       6                      34
  7305   3                      42                       4                      34
  7306   2                      40                       4                      36
  7307   4                      42                       6                      38
  7308   3                      42                       6                      36
  7309   3                      40                       6                      38
  7310   3                      42                       4                      38
  7311   2                      40                       4                      40
  7312   4                      42                       6                      42
  7313   3                      42                       6                      40
  7314   3                      40                       6                      42
  7315   3                      42                       4                      42
  7316   1                      40                       4                      44
  7317   4                      42                       6                      46
  7318   3                      42                       6                      44
  7319   3                      40                       6                      46
  7320   3                      42                       4                      46
  7321   2                      40                       8                       0
  7322   4                      42                      10                       2
  7323   3                      42                      10                       0
  7324   3                      40                      10                       2
  7325   3                      42                       8                       2
  7326   1                      40                       8                       4
  7327   4                      42                      10                       6
  7328   3                      42                      10                       4
  7329   3                      40                      10                       6
  7330   3                      42                       8                       6
  7331   2                      40                       8                       8
  7332   4                      42                      10                      10
  7333   3                      42                      10                       8
  7334   3                      40                      10                      10
  7335   3                      42                       8                      10
  7336   1                      40                       8                      12
  7337   4                      42                      10                      14
  7338   3                      42                      10                      12
  7339   3                      40                      10                      14
  7340   3                      42                       8                      14
  7341   2                      40                       8                      16
  7342   4                      42                      10                      18
  7343   3                      42                      10                      16
  7344   3                      40                      10                      18
  7345   3                      42                       8                      18
  7346   2                      40                       8                      20
  7347   4                      42                      10                      22
  7348   3                      42                      10                      20
  7349   3                      40                      10                      22
  7350   3                      42                       8                      22
  7351   2                      40                       8                      24
  7352   4                      42                      10                      26
  7353   3                      42                      10                      24
  7354   3                      40                      10                      26
  7355   3                      42                       8                      26
  7356   1                      40                       8                      28
  7357   4                      42                      10                      30
  7358   3                      42                      10                      28
  7359   3                      40                      10                      30
  7360   3                      42                       8                      30
  7361   1                      40                       8                      32
  7362   4                      42                      10                      34
  7363   3                      42                      10                      32
  7364   3                      40                      10                      34
  7365   3                      42                       8                      34
  7366   1                      40                       8                      36
  7367   4                      42                      10                      38
  7368   3                      42                      10                      36
  7369   3                      40                      10                      38
  7370   3                      42                       8                      38
  7371   2                      40                       8                      40
  7372   4                      42                      10                      42
  7373   3                      42                      10                      40
  7374   3                      40                      10                      42
  7375   3                      42                       8                      42
  7376   2                      40                       8                      44
  7377   4                      42                      10                      46
  7378   3                      42                      10                      44
  7379   3                      40                      10                      46
  7380   3                      42                       8                      46
  7381   2                      40                      12                       0
  7382   4                      42                      14                       2
  7383   3                      42                      14                       0
  7384   3                      40                      14                       2
  7385   3                      42                      12                       2
  7386   1                      40                      12                       4
  7387   4                      42                      14                       6
  7388   3                      42                      14                       4
  7389   3                      40                      14                       6
  7390   3                      42                      12                       6
  7391   2                      40                      12                       8
  7392   4                      42                      14                      10
  7393   3                      42                      14                       8
  7394   3                      40                      14                      10
  7395   3                      42                      12                      10
  7396   1                      40                      12                      12
  7397   4                      42                      14                      14
  7398   3                      42                      14                      12
  7399   3                      40                      14                      14
  7400   3                      42                      12                      14
  7401   2                      40                      12                      16
  7402   4                      42                      14                      18
  7403   3                      42                      14                      16
  7404   3                      40                      14                      18
  7405   3                      42                      12                      18
  7406   2                      40                      12                      20
  7407   4                      42                      14                      22
  7408   3                      42                      14                      20
  7409   3                      40                      14                      22
  7410   3                      42                      12                      22
  7411   1                      40                      12                      24
  7412   4                      42                      14                      26
  7413   3                      42                      14                      24
  7414   3                      40                      14                      26
  7415   3                      42                      12                      26
  7416   1                      40                      12                      28
  7417   4                      42                      14                      30
  7418   3                      42                      14                      28
  7419   3                      40                      14                      30
  7420   3                      42                      12                      30
  7421   2                      40                      12                      32
  7422   4                      42                      14                      34
  7423   3                      42                      14                      32
  7424   3                      40                      14                      34
  7425   3                      42                      12                      34
  7426   2                      40                      12                      36
  7427   4                      42                      14                      38
  7428   3                      42                      14                      36
  7429   3                      40                      14                      38
  7430   3                      42                      12                      38
  7431   2                      40                      12                      40
  7432   4                      42                      14                      42
  7433   3                      42                      14                      40
  7434   3                      40                      14                      42
  7435   3                      42                      12                      42
  7436   2                      40                      12                      44
  7437   4                      42                      14                      46
  7438   3                      42                      14                      44
  7439   3                      40                      14                      46
  7440   3                      42                      12                      46
  7441   1                      40                      16                       0
  7442   4                      42                      18                       2
  7443   3                      42                      18                       0
  7444   3                      40                      18                       2
  7445   3                      42                      16                       2
  7446   1                      40                      16                       4
  7447   4                      42                      18                       6
  7448   3                      42                      18                       4
  7449   3                      40                      18                       6
  7450   3                      42                      16                       6
  7451   2                      40                      16                       8
  7452   4                      42                      18                      10
  7453   3                      42                      18                       8
  7454   3                      40                      18                      10
  7455   3                      42                      16                      10
  7456   2                      40                      16                      12
  7457   4                      42                      18                      14
  7458   3                      42                      18                      12
  7459   3                      40                      18                      14
  7460   3                      42                      16                      14
  7461   1                      40                      16                      16
  7462   4                      42                      18                      18
  7463   3                      42                      18                      16
  7464   3                      40                      18                      18
  7465   3                      42                      16                      18
  7466   2                      40                      16                      20
  7467   4                      42                      18                      22
  7468   3                      42                      18                      20
  7469   3                      40                      18                      22
  7470   3                      42                      16                      22
  7471   2                      40                      16                      24
  7472   4                      42                      18                      26
  7473   3                      42                      18                      24
  7474   3                      40                      18                      26
  7475   3                      42                      16                      26
  7476   2                      40                      16                      28
  7477   4                      42                      18                      30
  7478   3                      42                      18                      28
  7479   3                      40                      18                      30
  7480   3                      42                      16                      30
  7481   1                      40                      16                      32
  7482   4                      42                      18                      34
  7483   3                      42                      18                      32
  7484   3                      40                      18                      34
  7485   3                      42                      16                      34
  7486   2                      40                      16                      36
  7487   4                      42                      18                      38
  7488   3                      42                      18                      36
  7489   3                      40                      18                      38
  7490   3                      42                      16                      38
  7491   1                      40                      16                      40
  7492   4                      42                      18                      42
  7493   3                      42                      18                      40
  7494   3                      40                      18                      42
  7495   3                      42                      16                      42
  7496   1                      40                      16                      44
  7497   4                      42                      18                      46
  7498   3                      42                      18                      44
  7499   3                      40                      18                      46
  7500   3                      42                      16                      46
  7501   1                      40                      20                       0
  7502   4                      42                      22                       2
  7503   3                      42                      22                       0
  7504   3                      40                      22                       2
  7505   3                      42                      20                       2
  7506   1                      40                      20                       4
  7507   4                      42                      22                       6
  7508   3                      42                      22                       4
  7509   3                      40                      22                       6
  7510   3                      42                      20                       6
  7511   1                      40                      20                       8
  7512   4                      42                      22                      10
  7513   3                      42                      22                       8
  7514   3                      40                      22                      10
  7515   3                      42                      20                      10
  7516   2                      40                      20                      12
  7517   4                      42                      22                      14
  7518   3                      42                      22                      12
  7519   3                      40                      22                      14
  7520   3                      42                      20                      14
  7521   2                      40                      20                      16
  7522   4                      42                      22                      18
  7523   3                      42                      22                      16
  7524   3                      40                      22                      18
  7525   3                      42                      20                      18
  7526   2                      40                      20                      20
  7527   4                      42                      22                      22
  7528   3                      42                      22                      20
  7529   3                      40                      22                      22
  7530   3                      42                      20                      22
  7531   2                      40                      20                      24
  7532   4                      42                      22                      26
  7533   3                      42                      22                      24
  7534   3                      40                      22                      26
  7535   3                      42                      20                      26
  7536   1                      40                      20                      28
  7537   4                      42                      22                      30
  7538   3                      42                      22                      28
  7539   3                      40                      22                      30
  7540   3                      42                      20                      30
  7541   1                      40                      20                      32
  7542   4                      42                      22                      34
  7543   3                      42                      22                      32
  7544   3                      40                      22                      34
  7545   3                      42                      20                      34
  7546   2                      40                      20                      36
  7547   4                      42                      22                      38
  7548   3                      42                      22                      36
  7549   3                      40                      22                      38
  7550   3                      42                      20                      38
  7551   2                      40                      20                      40
  7552   4                      42                      22                      42
  7553   3                      42                      22                      40
  7554   3                      40                      22                      42
  7555   3                      42                      20                      42
  7556   1                      40                      20                      44
  7557   4                      42                      22                      46
  7558   3                      42                      22                      44
  7559   3                      40                      22                      46
  7560   3                      42                      20                      46
  7561   2                      40                      24                       0
  7562   4                      42                      26                       2
  7563   3                      42                      26                       0
  7564   3                      40                      26                       2
  7565   3                      42                      24                       2
  7566   2                      40                      24                       4
  7567   4                      42                      26                       6
  7568   3                      42                      26                       4
  7569   3                      40                      26                       6
  7570   3                      42                      24                       6
  7571   2                      40                      24                       8
  7572   4                      42                      26                      10
  7573   3                      42                      26                       8
  7574   3                      40                      26                      10
  7575   3                      42                      24                      10
  7576   1                      40                      24                      12
  7577   4                      42                      26                      14
  7578   3                      42                      26                      12
  7579   3                      40                      26                      14
  7580   3                      42                      24                      14
  7581   1                      40                      24                      16
  7582   4                      42                      26                      18
  7583   3                      42                      26                      16
  7584   3                      40                      26                      18
  7585   3                      42                      24                      18
  7586   2                      40                      24                      20
  7587   4                      42                      26                      22
  7588   3                      42                      26                      20
  7589   3                      40                      26                      22
  7590   3                      42                      24                      22
  7591   2                      40                      24                      24
  7592   4                      42                      26                      26
  7593   3                      42                      26                      24
  7594   3                      40                      26                      26
  7595   3                      42                      24                      26
  7596   2                      40                      24                      28
  7597   4                      42                      26                      30
  7598   3                      42                      26                      28
  7599   3                      40                      26                      30
  7600   3                      42                      24                      30
  7601   2                      40                      24                      32
  7602   4                      42                      26                      34
  7603   3                      42                      26                      32
  7604   3                      40                      26                      34
  7605   3                      42                      24                      34
  7606   2                      40                      24                      36
  7607   4                      42                      26                      38
  7608   3                      42                      26                      36
  7609   3                      40                      26                      38
  7610   3                      42                      24                      38
  7611   2                      40                      24                      40
  7612   4                      42                      26                      42
  7613   3                      42                      26                      40
  7614   3                      40                      26                      42
  7615   3                      42                      24                      42
  7616   1                      40                      24                      44
  7617   4                      42                      26                      46
  7618   3                      42                      26                      44
  7619   3                      40                      26                      46
  7620   3                      42                      24                      46
  7621   2                      40                      28                       0
  7622   4                      42                      30                       2
  7623   3                      42                      30                       0
  7624   3                      40                      30                       2
  7625   3                      42                      28                       2
  7626   2                      40                      28                       4
  7627   4                      42                      30                       6
  7628   3                      42                      30                       4
  7629   3                      40                      30                       6
  7630   3                      42                      28                       6
  7631   1                      40                      28                       8
  7632   4                      42                      30                      10
  7633   3                      42                      30                       8
  7634   3                      40                      30                      10
  7635   3                      42                      28                      10
  7636   2                      40                      28                      12
  7637   4                      42                      30                      14
  7638   3                      42                      30                      12
  7639   3                      40                      30                      14
  7640   3                      42                      28                      14
  7641   1                      40                      28                      16
  7642   4                      42                      30                      18
  7643   3                      42                      30                      16
  7644   3                      40                      30                      18
  7645   3                      42                      28                      18
  7646   2                      40                      28                      20
  7647   4                      42                      30                      22
  7648   3                      42                      30                      20
  7649   3                      40                      30                      22
  7650   3                      42                      28                      22
  7651   2                      40                      28                      24
  7652   4                      42                      30                      26
  7653   3                      42                      30                      24
  7654   3                      40                      30                      26
  7655   3                      42                      28                      26
  7656   2                      40                      28                      28
  7657   4                      42                      30                      30
  7658   3                      42                      30                      28
  7659   3                      40                      30                      30
  7660   3                      42                      28                      30
  7661   2                      40                      28                      32
  7662   4                      42                      30                      34
  7663   3                      42                      30                      32
  7664   3                      40                      30                      34
  7665   3                      42                      28                      34
  7666   1                      40                      28                      36
  7667   4                      42                      30                      38
  7668   3                      42                      30                      36
  7669   3                      40                      30                      38
  7670   3                      42                      28                      38
  7671   2                      40                      28                      40
  7672   4                      42                      30                      42
  7673   3                      42                      30                      40
  7674   3                      40                      30                      42
  7675   3                      42                      28                      42
  7676   2                      40                      28                      44
  7677   4                      42                      30                      46
  7678   3                      42                      30                      44
  7679   3                      40                      30                      46
  7680   3                      42                      28                      46
  7681   2                      40                      32                       0
  7682   4                      42                      34                       2
  7683   3                      42                      34                       0
  7684   3                      40                      34                       2
  7685   3                      42                      32                       2
  7686   1                      40                      32                       4
  7687   4                      42                      34                       6
  7688   3                      42                      34                       4
  7689   3                      40                      34                       6
  7690   3                      42                      32                       6
  7691   2                      40                      32                       8
  7692   4                      42                      34                      10
  7693   3                      42                      34                       8
  7694   3                      40                      34                      10
  7695   3                      42                      32                      10
  7696   2                      40                      32                      12
  7697   4                      42                      34                      14
  7698   3                      42                      34                      12
  7699   3                      40                      34                      14
  7700   3                      42                      32                      14
  7701   2                      40                      32                      16
  7702   4                      42                      34                      18
  7703   3                      42                      34                      16
  7704   3                      40                      34                      18
  7705   3                      42                      32                      18
  7706   2                      40                      32                      20
  7707   4                      42                      34                      22
  7708   3                      42                      34                      20
  7709   3                      40                      34                      22
  7710   3                      42                      32                      22
  7711   2                      40                      32                      24
  7712   4                      42                      34                      26
  7713   3                      42                      34                      24
  7714   3                      40                      34                      26
  7715   3                      42                      32                      26
  7716   2                      40                      32                      28
  7717   4                      42                      34                      30
  7718   3                      42                      34                      28
  7719   3                      40                      34                      30
  7720   3                      42                      32                      30
  7721   1                      40                      32                      32
  7722   4                      42                      34                      34
  7723   3                      42                      34                      32
  7724   3                      40                      34                      34
  7725   3                      42                      32                      34
  7726   1                      40                      32                      36
  7727   4                      42                      34                      38
  7728   3                      42                      34                      36
  7729   3                      40                      34                      38
  7730   3                      42                      32                      38
  7731   1                      40                      32                      40
  7732   4                      42                      34                      42
  7733   3                      42                      34                      40
  7734   3                      40                      34                      42
  7735   3                      42                      32                      42
  7736   1                      40                      32                      44
  7737   4                      42                      34                      46
  7738   3                      42                      34                      44
  7739   3                      40                      34                      46
  7740   3                      42                      32                      46
  7741   1                      40                      36                       0
  7742   4                      42                      38                       2
  7743   3                      42                      38                       0
  7744   3                      40                      38                       2
  7745   3                      42                      36                       2
  7746   2                      40                      36                       4
  7747   4                      42                      38                       6
  7748   3                      42                      38                       4
  7749   3                      40                      38                       6
  7750   3                      42                      36                       6
  7751   1                      40                      36                       8
  7752   4                      42                      38                      10
  7753   3                      42                      38                       8
  7754   3                      40                      38                      10
  7755   3                      42                      36                      10
  7756   2                      40                      36                      12
  7757   4                      42                      38                      14
  7758   3                      42                      38                      12
  7759   3                      40                      38                      14
  7760   3                      42                      36                      14
  7761   2                      40                      36                      16
  7762   4                      42                      38                      18
  7763   3                      42                      38                      16
  7764   3                      40                      38                      18
  7765   3                      42                      36                      18
  7766   2                      40                      36                      20
  7767   4                      42                      38                      22
  7768   3                      42                      38                      20
  7769   3                      40                      38                      22
  7770   3                      42                      36                      22
  7771   2                      40                      36                      24
  7772   4                      42                      38                      26
  7773   3                      42                      38                      24
  7774   3                      40                      38                      26
  7775   3                      42                      36                      26
  7776   2                      40                      36                      28
  7777   4                      42                      38                      30
  7778   3                      42                      38                      28
  7779   3                      40                      38                      30
  7780   3                      42                      36                      30
  7781   2                      40                      36                      32
  7782   4                      42                      38                      34
  7783   3                      42                      38                      32
  7784   3                      40                      38                      34
  7785   3                      42                      36                      34
  7786   1                      40                      36                      36
  7787   4                      42                      38                      38
  7788   3                      42                      38                      36
  7789   3                      40                      38                      38
  7790   3                      42                      36                      38
  7791   1                      40                      36                      40
  7792   4                      42                      38                      42
  7793   3                      42                      38                      40
  7794   3                      40                      38                      42
  7795   3                      42                      36                      42
  7796   2                      40                      36                      44
  7797   4                      42                      38                      46
  7798   3                      42                      38                      44
  7799   3                      40                      38                      46
  7800   3                      42                      36                      46
  7801   1                      40                      40                       0
  7802   4                      42                      42                       2
  7803   3                      42                      42                       0
  7804   3                      40                      42                       2
  7805   3                      42                      40                       2
  7806   2                      40                      40                       4
  7807   4                      42                      42                       6
  7808   3                      42                      42                       4
  7809   3                      40                      42                       6
  7810   3                      42                      40                       6
  7811   2                      40                      40                       8
  7812   4                      42                      42                      10
  7813   3                      42                      42                       8
  7814   3                      40                      42                      10
  7815   3                      42                      40                      10
  7816   2                      40                      40                      12
  7817   4                      42                      42                      14
  7818   3                      42                      42                      12
  7819   3                      40                      42                      14
  7820   3                      42                      40                      14
  7821   2                      40                      40                      16
  7822   4                      42                      42                      18
  7823   3                      42                      42                      16
  7824   3                      40                      42                      18
  7825   3                      42                      40                      18
  7826   1                      40                      40                      20
  7827   4                      42                      42                      22
  7828   3                      42                      42                      20
  7829   3                      40                      42                      22
  7830   3                      42                      40                      22
  7831   1                      40                      40                      24
  7832   4                      42                      42                      26
  7833   3                      42                      42                      24
  7834   3                      40                      42                      26
  7835   3                      42                      40                      26
  7836   2                      40                      40                      28
  7837   4                      42                      42                      30
  7838   3                      42                      42                      28
  7839   3                      40                      42                      30
  7840   3                      42                      40                      30
  7841   2                      40                      40                      32
  7842   4                      42                      42                      34
  7843   3                      42                      42                      32
  7844   3                      40                      42                      34
  7845   3                      42                      40                      34
  7846   1                      40                      40                      36
  7847   4                      42                      42                      38
  7848   3                      42                      42                      36
  7849   3                      40                      42                      38
  7850   3                      42                      40                      38
  7851   2                      40                      40                      40
  7852   4                      42                      42                      42
  7853   3                      42                      42                      40
  7854   3                      40                      42                      42
  7855   3                      42                      40                      42
  7856   2                      40                      40                      44
  7857   4                      42                      42                      46
  7858   3                      42                      42                      44
  7859   3                      40                      42                      46
  7860   3                      42                      40                      46
  7861   2                      40                      44                       0
  7862   4                      42                      46                       2
  7863   3                      42                      46                       0
  7864   3                      40                      46                       2
  7865   3                      42                      44                       2
  7866   1                      40                      44                       4
  7867   4                      42                      46                       6
  7868   3                      42                      46                       4
  7869   3                      40                      46                       6
  7870   3                      42                      44                       6
  7871   2                      40                      44                       8
  7872   4                      42                      46                      10
  7873   3                      42                      46                       8
  7874   3                      40                      46                      10
  7875   3                      42                      44                      10
  7876   2                      40                      44                      12
  7877   4                      42                      46                      14
  7878   3                      42                      46                      12
  7879   3                      40                      46                      14
  7880   3                      42                      44                      14
  7881   1                      40                      44                      16
  7882   4                      42                      46                      18
  7883   3                      42                      46                      16
  7884   3                      40                      46                      18
  7885   3                      42                      44                      18
  7886   1                      40                      44                      20
  7887   4                      42                      46                      22
  7888   3                      42                      46                      20
  7889   3                      40                      46                      22
  7890   3                      42                      44                      22
  7891   1                      40                      44                      24
  7892   4                      42                      46                      26
  7893   3                      42                      46                      24
  7894   3                      40                      46                      26
  7895   3                      42                      44                      26
  7896   1                      40                      44                      28
  7897   4                      42                      46                      30
  7898   3                      42                      46                      28
  7899   3                      40                      46                      30
  7900   3                      42                      44                      30
  7901   2                      40                      44                      32
  7902   4                      42                      46                      34
  7903   3                      42                      46                      32
  7904   3                      40                      46                      34
  7905   3                      42                      44                      34
  7906   2                      40                      44                      36
  7907   4                      42                      46                      38
  7908   3                      42                      46                      36
  7909   3                      40                      46                      38
  7910   3                      42                      44                      38
  7911   2                      40                      44                      40
  7912   4                      42                      46                      42
  7913   3                      42                      46                      40
  7914   3                      40                      46                      42
  7915   3                      42                      44                      42
  7916   1                      40                      44                      44
  7917   4                      42                      46                      46
  7918   3                      42                      46                      44
  7919   3                      40                      46                      46
  7920   3                      42                      44                      46
  7921   2                      44                       0                       0
  7922   4                      46                       2                       2
  7923   3                      46                       2                       0
  7924   3                      44                       2                       2
  7925   3                      46                       0                       2
  7926   2                      44                       0                       4
  7927   4                      46                       2                       6
  7928   3                      46                       2                       4
  7929   3                      44                       2                       6
  7930   3                      46                       0                       6
  7931   1                      44                       0                       8
  7932   4                      46                       2                      10
  7933   3                      46                       2                       8
  7934   3                      44                       2                      10
  7935   3                      46                       0                      10
  7936   2                      44                       0                      12
  7937   4                      46                       2                      14
  7938   3                      46                       2                      12
  7939   3                      44                       2                      14
  7940   3                      46                       0                      14
  7941   2                      44                       0                      16
  7942   4                      46                       2                      18
  7943   3                      46                       2                      16
  7944   3                      44                       2                      18
  7945   3                      46                       0                      18
  7946   2                      44                       0                      20
  7947   4                      46                       2                      22
  7948   3                      46                       2                      20
  7949   3                      44                       2                      22
  7950   3                      46                       0                      22
  7951   2                      44                       0                      24
  7952   4                      46                       2                      26
  7953   3                      46                       2                      24
  7954   3                      44                       2                      26
  7955   3                      46                       0                      26
  7956   2                      44                       0                      28
  7957   4                      46                       2                      30
  7958   3                      46                       2                      28
  7959   3                      44                       2                      30
  7960   3                      46                       0                      30
  7961   2                      44                       0                      32
  7962   4                      46                       2                      34
  7963   3                      46                       2                      32
  7964   3                      44                       2                      34
  7965   3                      46                       0                      34
  7966   2                      44                       0                      36
  7967   4                      46                       2                      38
  7968   3                      46                       2                      36
  7969   3                      44                       2                      38
  7970   3                      46                       0                      38
  7971   2                      44                       0                      40
  7972   4                      46                       2                      42
  7973   3                      46                       2                      40
  7974   3                      44                       2                      42
  7975   3                      46                       0                      42
  7976   1                      44                       0                      44
  7977   4                      46                       2                      46
  7978   3                      46                       2                      44
  7979   3                      44                       2                      46
  7980   3                      46                       0                      46
  7981   1                      44                       4                       0
  7982   4                      46                       6                       2
  7983   3                      46                       6                       0
  7984   3                      44                       6                       2
  7985   3                      46                       4                       2
  7986   2                      44                       4                       4
  7987   4                      46                       6                       6
  7988   3                      46                       6                       4
  7989   3                      44                       6                       6
  7990   3                      46                       4                       6
  7991   2                      44                       4                       8
  7992   4                      46                       6                      10
  7993   3                      46                       6                       8
  7994   3                      44                       6                      10
  7995   3                      46                       4                      10
  7996   2                      44                       4                      12
  7997   4                      46                       6                      14
  7998   3                      46                       6                      12
  7999   3                      44                       6                      14
  8000   3                      46                       4                      14
  8001   2                      44                       4                      16
  8002   4                      46                       6                      18
  8003   3                      46                       6                      16
  8004   3                      44                       6                      18
  8005   3                      46                       4                      18
  8006   2                      44                       4                      20
  8007   4                      46                       6                      22
  8008   3                      46                       6                      20
  8009   3                      44                       6                      22
  8010   3                      46                       4                      22
  8011   2                      44                       4                      24
  8012   4                      46                       6                      26
  8013   3                      46                       6                      24
  8014   3                      44                       6                      26
  8015   3                      46                       4                      26
  8016   1                      44                       4                      28
  8017   4                      46                       6                      30
  8018   3                      46                       6                      28
  8019   3                      44                       6                      30
  8020   3                      46                       4                      30
  8021   2                      44                       4                      32
  8022   4                      46                       6                      34
  8023   3                      46                       6                      32
  8024   3                      44                       6                      34
  8025   3                      46                       4                      34
  8026   1                      44                       4                      36
  8027   4                      46                       6                      38
  8028   3                      46                       6                      36
  8029   3                      44                       6                      38
  8030   3                      46                       4                      38
  8031   2                      44                       4                      40
  8032   4                      46                       6                      42
  8033   3                      46                       6                      40
  8034   3                      44                       6                      42
  8035   3                      46                       4                      42
  8036   2                      44                       4                      44
  8037   4                      46                       6                      46
  8038   3                      46                       6                      44
  8039   3                      44                       6                      46
  8040   3                      46                       4                      46
  8041   2                      44                       8                       0
  8042   4                      46                      10                       2
  8043   3                      46                      10                       0
  8044   3                      44                      10                       2
  8045   3                      46                       8                       2
  8046   2                      44                       8                       4
  8047   4                      46                      10                       6
  8048   3                      46                      10                       4
  8049   3                      44                      10                       6
  8050   3                      46                       8                       6
  8051   2                      44                       8                       8
  8052   4                      46                      10                      10
  8053   3                      46                      10                       8
  8054   3                      44                      10                      10
  8055   3                      46                       8                      10
  8056   1                      44                       8                      12
  8057   4                      46                      10                      14
  8058   3                      46                      10                      12
  8059   3                      44                      10                      14
  8060   3                      46                       8                      14
  8061   2                      44                       8                      16
  8062   4                      46                      10                      18
  8063   3                      46                      10                      16
  8064   3                      44                      10                      18
  8065   3                      46                       8                      18
  8066   2                      44                       8                      20
  8067   4                      46                      10                      22
  8068   3                      46                      10                      20
  8069   3                      44                      10                      22
  8070   3                      46                       8                      22
  8071   1                      44                       8                      24
  8072   4                      46                      10                      26
  8073   3                      46                      10                      24
  8074   3                      44                      10                      26
  8075   3                      46                       8                      26
  8076   2                      44                       8                      28
  8077   4                      46                      10                      30
  8078   3                      46                      10                      28
  8079   3                      44                      10                      30
  8080   3                      46                       8                      30
  8081   2                      44                       8                      32
  8082   4                      46                      10                      34
  8083   3                      46                      10                      32
  8084   3                      44                      10                      34
  8085   3                      46                       8                      34
  8086   2                      44                       8                      36
  8087   4                      46                      10                      38
  8088   3                      46                      10                      36
  8089   3                      44                      10                      38
  8090   3                      46                       8                      38
  8091   2                      44                       8                      40
  8092   4                      46                      10                      42
  8093   3                      46                      10                      40
  8094   3                      44                      10                      42
  8095   3                      46                       8                      42
  8096   1                      44                       8                      44
  8097   4                      46                      10                      46
  8098   3                      46                      10                      44
  8099   3                      44                      10                      46
  8100   3                      46                       8                      46
  8101   2                      44                      12                       0
  8102   4                      46                      14                       2
  8103   3                      46                      14                       0
  8104   3                      44                      14                       2
  8105   3                      46                      12                       2
  8106   2                      44                      12                       4
  8107   4                      46                      14                       6
  8108   3                      46                      14                       4
  8109   3                      44                      14                       6
  8110   3                      46                      12                       6
  8111   2                      44                      12                       8
  8112   4                      46                      14                      10
  8113   3                      46                      14                       8
  8114   3                      44                      14                      10
  8115   3                      46                      12                      10
  8116   2                      44                      12                      12
  8117   4                      46                      14                      14
  8118   3                      46                      14                      12
  8119   3                      44                      14                      14
  8120   3                      46                      12                      14
  8121   2                      44                      12                      16
  8122   4                      46                      14                      18
  8123   3                      46                      14                      16
  8124   3                      44                      14                      18
  8125   3                      46                      12                      18
  8126   2                      44                      12                      20
  8127   4                      46                      14                      22
  8128   3                      46                      14                      20
  8129   3                      44                      14                      22
  8130   3                      46                      12                      22
  8131   1                      44                      12                      24
  8132   4                      46                      14                      26
  8133   3                      46                      14                      24
  8134   3                      44                      14                      26
  8135   3                      46                      12                      26
  8136   2                      44                      12                      28
  8137   4                      46                      14                      30
  8138   3                      46                      14                      28
  8139   3                      44                      14                      30
  8140   3                      46                      12                      30
  8141   1                      44                      12                      32
  8142   4                      46                      14                      34
  8143   3                      46                      14                      32
  8144   3                      44                      14                      34
  8145   3                      46                      12                      34
  8146   2                      44                      12                      36
  8147   4                      46                      14                      38
  8148   3                      46                      14                      36
  8149   3                      44                      14                      38
  8150   3                      46                      12                      38
  8151   2                      44                      12                      40
  8152   4                      46                      14                      42
  8153   3                      46                      14                      40
  8154   3                      44                      14                      42
  8155   3                      46                      12                      42
  8156   2                      44                      12                      44
  8157   4                      46                      14                      46
  8158   3                      46                      14                      44
  8159   3                      44                      14                      46
  8160   3                      46                      12                      46
  8161   2                      44                      16                       0
  8162   4                      46                      18                       2
  8163   3                      46                      18                       0
  8164   3                      44                      18                       2
  8165   3                      46                      16                       2
  8166   1                      44                      16                       4
  8167   4                      46                      18                       6
  8168   3                      46                      18                       4
  8169   3                      44                      18                       6
  8170   3                      46                      16                       6
  8171   1                      44                      16                       8
  8172   4                      46                      18                      10
  8173   3                      46                      18                       8
  8174   3                      44                      18                      10
  8175   3                      46                      16                      10
  8176   2                      44                      16                      12
  8177   4                      46                      18                      14
  8178   3                      46                      18                      12
  8179   3                      44                      18                      14
  8180   3                      46                      16                      14
  8181   1                      44                      16                      16
  8182   4                      46                      18                      18
  8183   3                      46                      18                      16
  8184   3                      44                      18                      18
  8185   3                      46                      16                      18
  8186   2                      44                      16                      20
  8187   4                      46                      18                      22
  8188   3                      46                      18                      20
  8189   3                      44                      18                      22
  8190   3                      46                      16                      22
  8191   2                      44                      16                      24
  8192   4                      46                      18                      26
  8193   3                      46                      18                      24
  8194   3                      44                      18                      26
  8195   3                      46                      16                      26
  8196   2                      44                      16                      28
  8197   4                      46                      18                      30
  8198   3                      46                      18                      28
  8199   3                      44                      18                      30
  8200   3                      46                      16                      30
  8201   2                      44                      16                      32
  8202   4                      46                      18                      34
  8203   3                      46                      18                      32
  8204   3                      44                      18                      34
  8205   3                      46                      16                      34
  8206   2                      44                      16                      36
  8207   4                      46                      18                      38
  8208   3                      46                      18                      36
  8209   3                      44                      18                      38
  8210   3                      46                      16                      38
  8211   2                      44                      16                      40
  8212   4                      46                      18                      42
  8213   3                      46                      18                      40
  8214   3                      44                      18                      42
  8215   3                      46                      16                      42
  8216   2                      44                      16                      44
  8217   4                      46                      18                      46
  8218   3                      46                      18                      44
  8219   3                      44                      18                      46
  8220   3                      46                      16                      46
  8221   2                      44                      20                       0
  8222   4                      46                      22                       2
  8223   3                      46                      22                       0
  8224   3                      44                      22                       2
  8225   3                      46                      20                       2
  8226   2                      44                      20                       4
  8227   4                      46                      22                       6
  8228   3                      46                      22                       4
  8229   3                      44                      22                       6
  8230   3                      46                      20                       6
  8231   1                      44                      20                       8
  8232   4                      46                      22                      10
  8233   3                      46                      22                       8
  8234   3                      44                      22                      10
  8235   3                      46                      20                      10
  8236   1                      44                      20                      12
  8237   4                      46                      22                      14
  8238   3                      46                      22                      12
  8239   3                      44                      22                      14
  8240   3                      46                      20                      14
  8241   2                      44                      20                      16
  8242   4                      46                      22                      18
  8243   3                      46                      22                      16
  8244   3                      44                      22                      18
  8245   3                      46                      20                      18
  8246   1                      44                      20                      20
  8247   4                      46                      22                      22
  8248   3                      46                      22                      20
  8249   3                      44                      22                      22
  8250   3                      46                      20                      22
  8251   2                      44                      20                      24
  8252   4                      46                      22                      26
  8253   3                      46                      22                      24
  8254   3                      44                      22                      26
  8255   3                      46                      20                      26
  8256   2                      44                      20                      28
  8257   4                      46                      22                      30
  8258   3                      46                      22                      28
  8259   3                      44                      22                      30
  8260   3                      46                      20                      30
  8261   1                      44                      20                      32
  8262   4                      46                      22                      34
  8263   3                      46                      22                      32
  8264   3                      44                      22                      34
  8265   3                      46                      20                      34
  8266   2                      44                      20                      36
  8267   4                      46                      22                      38
  8268   3                      46                      22                      36
  8269   3                      44                      22                      38
  8270   3                      46                      20                      38
  8271   2                      44                      20                      40
  8272   4                      46                      22                      42
  8273   3                      46                      22                      40
  8274   3                      44                      22                      42
  8275   3                      46                      20                      42
  8276   2                      44                      20                      44
  8277   4                      46                      22                      46
  8278   3                      46                      22                      44
  8279   3                      44                      22                      46
  8280   3                      46                      20                      46
  8281   1                      44                      24                       0
  8282   4                      46                      26                       2
  8283   3                      46                      26                       0
  8284   3                      44                      26                       2
  8285   3                      46                      24                       2
  8286   2                      44                      24                       4
  8287   4                      46                      26                       6
  8288   3                      46                      26                       4
  8289   3                      44                      26                       6
  8290   3                      46                      24                       6
  8291   1                      44                      24                       8
  8292   4                      46                      26                      10
  8293   3                      46                      26                       8
  8294   3                      44                      26                      10
  8295   3                      46                      24                      10
  8296   1                      44                      24                      12
  8297   4                      46                      26                      14
  8298   3                      46                      26                      12
  8299   3                      44                      26                      14
  8300   3                      46                      24                      14
  8301   2                      44                      24                      16
  8302   4                      46                      26                      18
  8303   3                      46                      26                      16
  8304   3                      44                      26                      18
  8305   3                      46                      24                      18
  8306   1                      44                      24                      20
  8307   4                      46                      26                      22
  8308   3                      46                      26                      20
  8309   3                      44                      26                      22
  8310   3                      46                      24                      22
  8311   1                      44                      24                      24
  8312   4                      46                      26                      26
  8313   3                      46                      26                      24
  8314   3                      44                      26                      26
  8315   3                      46                      24                      26
  8316   2                      44                      24                      28
  8317   4                      46                      26                      30
  8318   3                      46                      26                      28
  8319   3                      44                      26                      30
  8320   3                      46                      24                      30
  8321   2                      44                      24                      32
  8322   4                      46                      26                      34
  8323   3                      46                      26                      32
  8324   3                      44                      26                      34
  8325   3                      46                      24                      34
  8326   2                      44                      24                      36
  8327   4                      46                      26                      38
  8328   3                      46                      26                      36
  8329   3                      44                      26                      38
  8330   3                      46                      24                      38
  8331   2                      44                      24                      40
  8332   4                      46                      26                      42
  8333   3                      46                      26                      40
  8334   3                      44                      26                      42
  8335   3                      46                      24                      42
  8336   1                      44                      24                      44
  8337   4                      46                      26                      46
  8338   3                      46                      26                      44
  8339   3                      44                      26                      46
  8340   3                      46                      24                      46
  8341   2                      44                      28                       0
  8342   4                      46                      30                       2
  8343   3                      46                      30                       0
  8344   3                      44                      30                       2
  8345   3                      46                      28                       2
  8346   2                      44                      28                       4
  8347   4                      46                      30                       6
  8348   3                      46                      30                       4
  8349   3                      44                      30                       6
  8350   3                      46                      28                       6
  8351   2                      44                      28                       8
  8352   4                      46                      30                      10
  8353   3                      46                      30                       8
  8354   3                      44                      30                      10
  8355   3                      46                      28                      10
  8356   1                      44                      28                      12
  8357   4                      46                      30                      14
  8358   3                      46                      30                      12
  8359   3                      44                      30                      14
  8360   3                      46                      28                      14
  8361   1                      44                      28                      16
  8362   4                      46                      30                      18
  8363   3                      46                      30                      16
  8364   3                      44                      30                      18
  8365   3                      46                      28                      18
  8366   1                      44                      28                      20
  8367   4                      46                      30                      22
  8368   3                      46                      30                      20
  8369   3                      44                      30                      22
  8370   3                      46                      28                      22
  8371   1                      44                      28                      24
  8372   4                      46                      30                      26
  8373   3                      46                      30                      24
  8374   3                      44                      30                      26
  8375   3                      46                      28                      26
  8376   2                      44                      28                      28
  8377   4                      46                      30                      30
  8378   3                      46                      30                      28
  8379   3                      44                      30                      30
  8380   3                      46                      28                      30
  8381   2                      44                      28                      32
  8382   4                      46                      30                      34
  8383   3                      46                      30                      32
  8384   3                      44                      30                      34
  8385   3                      46                      28                      34
  8386   1                      44                      28                      36
  8387   4                      46                      30                      38
  8388   3                      46                      30                      36
  8389   3                      44                      30                      38
  8390   3                      46                      28                      38
  8391   2                      44                      28                      40
  8392   4                      46                      30                      42
  8393   3                      46                      30                      40
  8394   3                      44                      30                      42
  8395   3                      46                      28                      42
  8396   1                      44                      28                      44
  8397   4                      46                      30                      46
  8398   3                      46                      30                      44
  8399   3                      44                      30                      46
  8400   3                      46                      28                      46
  8401   2                      44                      32                       0
  8402   4                      46                      34                       2
  8403   3                      46                      34                       0
  8404   3                      44                      34                       2
  8405   3                      46                      32                       2
  8406   2                      44                      32                       4
  8407   4                      46                      34                       6
  8408   3                      46                      34                       4
  8409   3                      44                      34                       6
  8410   3                      46                      32                       6
  8411   2                      44                      32                       8
  8412   4                      46                      34                      10
  8413   3                      46                      34                       8
  8414   3                      44                      34                      10
  8415   3                      46                      32                      10
  8416   2                      44                      32                      12
  8417   4                      46                      34                      14
  8418   3                      46                      34                      12
  8419   3                      44                      34                      14
  8420   3                      46                      32                      14
  8421   2                      44                      32                      16
  8422   4                      46                      34                      18
  8423   3                      46                      34                      16
  8424   3                      44                      34                      18
  8425   3                      46                      32                      18
  8426   1                      44                      32                      20
  8427   4                      46                      34                      22
  8428   3                      46                      34                      20
  8429   3                      44                      34                      22
  8430   3                      46                      32                      22
  8431   2                      44                      32                      24
  8432   4                      46                      34                      26
  8433   3                      46                      34                      24
  8434   3                      44                      34                      26
  8435   3                      46                      32                      26
  8436   1                      44                      32                      28
  8437   4                      46                      34                      30
  8438   3                      46                      34                      28
  8439   3                      44                      34                      30
  8440   3                      46                      32                      30
  8441   2                      44                      32                      32
  8442   4                      46                      34                      34
  8443   3                      46                      34                      32
  8444   3                      44                      34                      34
  8445   3                      46                      32                      34
  8446   2                      44                      32                      36
  8447   4                      46                      34                      38
  8448   3                      46                      34                      36
  8449   3                      44                      34                      38
  8450   3                      46                      32                      38
  8451   2                      44                      32                      40
  8452   4                      46                      34                      42
  8453   3                      46                      34                      40
  8454   3                      44                      34                      42
  8455   3                      46                      32                      42
  8456   2                      44                      32                      44
  8457   4                      46                      34                      46
  8458   3                      46                      34                      44
  8459   3                      44                      34                      46
  8460   3                      46                      32                      46
  8461   2                      44                      36                       0
  8462   4                      46                      38                       2
  8463   3                      46                      38                       0
  8464   3                      44                      38                       2
  8465   3                      46                      36                       2
  8466   1                      44                      36                       4
  8467   4                      46                      38                       6
  8468   3                      46                      38                       4
  8469   3                      44                      38                       6
  8470   3                      46                      36                       6
  8471   2                      44                      36                       8
  8472   4                      46                      38                      10
  8473   3                      46                      38                       8
  8474   3                      44                      38                      10
  8475   3                      46                      36                      10
  8476   2                      44                      36                      12
  8477   4                      46                      38                      14
  8478   3                      46                      38                      12
  8479   3                      44                      38                      14
  8480   3                      46                      36                      14
  8481   2                      44                      36                      16
  8482   4                      46                      38                      18
  8483   3                      46                      38                      16
  8484   3                      44                      38                      18
  8485   3                      46                      36                      18
  8486   2                      44                      36                      20
  8487   4                      46                      38                      22
  8488   3                      46                      38                      20
  8489   3                      44                      38                      22
  8490   3                      46                      36                      22
  8491   2                      44                      36                      24
  8492   4                      46                      38                      26
  8493   3                      46                      38                      24
  8494   3                      44                      38                      26
  8495   3                      46                      36                      26
  8496   2                      44                      36                      28
  8497   4                      46                      38                      30
  8498   3                      46                      38                      28
  8499   3                      44                      38                      30
  8500   3                      46                      36                      30
  8501   2                      44                      36                      32
  8502   4                      46                      38                      34
  8503   3                      46                      38                      32
  8504   3                      44                      38                      34
  8505   3                      46                      36                      34
  8506   1                      44                      36                      36
  8507   4                      46                      38                      38
  8508   3                      46                      38                      36
  8509   3                      44                      38                      38
  8510   3                      46                      36                      38
  8511   1                      44                      36                      40
  8512   4                      46                      38                      42
  8513   3                      46                      38                      40
  8514   3                      44                      38                      42
  8515   3                      46                      36                      42
  8516   2                      44                      36                      44
  8517   4                      46                      38                      46
  8518   3                      46                      38                      44
  8519   3                      44                      38                      46
  8520   3                      46                      36                      46
  8521   2                      44                      40                       0
  8522   4                      46                      42                       2
  8523   3                      46                      42                       0
  8524   3                      44                      42                       2
  8525   3                      46                      40                       2
  8526   2                      44                      40                       4
  8527   4                      46                      42                       6
  8528   3                      46                      42                       4
  8529   3                      44                      42                       6
  8530   3                      46                      40                       6
  8531   2                      44                      40                       8
  8532   4                      46                      42                      10
  8533   3                      46                      42                       8
  8534   3                      44                      42                      10
  8535   3                      46                      40                      10
  8536   1                      44                      40                      12
  8537   4                      46                      42                      14
  8538   3                      46                      42                      12
  8539   3                      44                      42                      14
  8540   3                      46                      40                      14
  8541   2                      44                      40                      16
  8542   4                      46                      42                      18
  8543   3                      46                      42                      16
  8544   3                      44                      42                      18
  8545   3                      46                      40                      18
  8546   2                      44                      40                      20
  8547   4                      46                      42                      22
  8548   3                      46                      42                      20
  8549   3                      44                      42                      22
  8550   3                      46                      40                      22
  8551   2                      44                      40                      24
  8552   4                      46                      42                      26
  8553   3                      46                      42                      24
  8554   3                      44                      42                      26
  8555   3                      46                      40                      26
  8556   2                      44                      40                      28
  8557   4                      46                      42                      30
  8558   3                      46                      42                      28
  8559   3                      44                      42                      30
  8560   3                      46                      40                      30
  8561   2                      44                      40                      32
  8562   4                      46                      42                      34
  8563   3                      46                      42                      32
  8564   3                      44                      42                      34
  8565   3                      46                      40                      34
  8566   1                      44                      40                      36
  8567   4                      46                      42                      38
  8568   3                      46                      42                      36
  8569   3                      44                      42                      38
  8570   3                      46                      40                      38
  8571   1                      44                      40                      40
  8572   4                      46                      42                      42
  8573   3                      46                      42                      40
  8574   3                      44                      42                      42
  8575   3                      46                      40                      42
  8576   2                      44                      40                      44
  8577   4                      46                      42                      46
  8578   3                      46                      42                      44
  8579   3                      44                      42                      46
  8580   3                      46                      40                      46
  8581   2                      44                      44                       0
  8582   4                      46                      46                       2
  8583   3                      46                      46                       0
  8584   3                      44                      46                       2
  8585   3                      46                      44                       2
  8586   2                      44                      44                       4
  8587   4                      46                      46                       6
  8588   3                      46                      46                       4
  8589   3                      44                      46                       6
  8590   3                      46                      44                       6
  8591   2                      44                      44                       8
  8592   4                      46                      46                      10
  8593   3                      46                      46                       8
  8594   3                      44                      46                      10
  8595   3                      46                      44                      10
  8596   2                      44                      44                      12
  8597   4                      46                      46                      14
  8598   3                      46                      46                      12
  8599   3                      44                      46                      14
  8600   3                      46                      44                      14
  8601   2                      44                      44                      16
  8602   4                      46                      46                      18
  8603   3                      46                      46                      16
  8604   3                      44                      46                      18
  8605   3                      46                      44                      18
  8606   1                      44                      44                      20
  8607   4                      46                      46                      22
  8608   3                      46                      46                      20
  8609   3                      44                      46                      22
  8610   3                      46                      44                      22
  8611   1                      44                      44                      24
  8612   4                      46                      46                      26
  8613   3                      46                      46                      24
  8614   3                      44                      46                      26
  8615   3                      46                      44                      26
  8616   1                      44                      44                      28
  8617   4                      46                      46                      30
  8618   3                      46                      46                      28
  8619   3                      44                      46                      30
  8620   3                      46                      44                      30
  8621   2                      44                      44                      32
  8622   4                      46                      46                      34
  8623   3                      46                      46                      32
  8624   3                      44                      46                      34
  8625   3                      46                      44                      34
  8626   2                      44                      44                      36
  8627   4                      46                      46                      38
  8628   3                      46                      46                      36
  8629   3                      44                      46                      38
  8630   3                      46                      44                      38
  8631   2                      44                      44                      40
  8632   4                      46                      46                      42
  8633   3                      46                      46                      40
  8634   3                      44                      46                      42
  8635   3                      46                      44                      42
  8636   2                      44                      44                      44
  8637   4                      46                      46                      46
  8638   3                      46                      46                      44
  8639   3                      44                      46                      46
  8640   3                      46                      44                      46
