(written by ASE)

1080 atoms
4 atom types

0.0      24.299999999999997  xlo xhi
0.0      24.299999999999997  ylo yhi
0.0      24.299999999999997  zlo zhi

Atoms # atomic

     1   4    -0.04843124484291423    -0.36543831243243824   -0.078591136271752099
     2   2      2.0047244700254936      2.0275662139553452      1.9038920748900927
     3   3      2.0818368973255867      2.1292088008539287    0.021356749634742652
     4   3    0.053967836819624165      2.2663500596560064      2.0905942079317743
     5   3       2.015442754878582     0.13856227180707278       2.173321433836894
     6   4    -0.20726636374903626    -0.21755114439936468      3.8495614117323997
     7   2       1.913519921677628      1.9450676485093601      6.0542821398625266
     8   3      2.0135280271611706      2.3023060617116178      4.1286029065873615
     9   3    0.035108808677920926       2.214750562289602      6.1752455160000839
    10   3      2.0739117946167736    0.061274405640627951      6.0237481448151975
    11   4   -0.034103225088419307   -0.050772496372377657      8.7115966574404542
    12   1      2.0187459966107673      2.0437433482440275      10.112964148087904
    13   3      2.1904485969943233      2.0738538432292457      8.0263125449161024
    14   3 -0.00052954535832636356      2.1316520088545547      9.9716901564872895
    15   3      2.1098727016551417  -0.0056102582589122743      10.046425266922816
    16   4   -0.068679613039222015      4.0974648326524274    -0.27770263931122746
    17   2      1.9472635521595167      6.1293275158283933      1.9304094734368402
    18   3       2.063847049383174      6.1842977527454819    0.064737504698334114
    19   3    0.050045373029948631      6.0404573942094189       2.116014225693081
    20   3      2.1641367617181002      4.1484139868069851      2.1200557557899598
    21   4    -0.12978073686810082      3.9048931454839875      3.9181019485400688
    22   2      1.9406075093793735      6.0377586174862872      6.0160276251708815
    23   3      2.0451094589258938      5.9843983378965424      4.1254487453014157
    24   3    0.046576684394654899      5.9798215290880687      6.2597363145641909
    25   3      2.2304879000041677       4.101622009586535      6.2784791873986912
    26   4    -0.10056598501812707      3.6880312672327169      8.2409371808338072
    27   2      2.0398904594504526       6.011916965724188      10.019776944154412
    28   3      2.1307796157195096      6.2427816837410761      8.1404577280239394
    29   3   0.0067221801800951414      6.1075709916636658      10.161078742965261
    30   3       2.097383829375767      4.1163917142569773      9.9792760402387266
    31   4   -0.080512919816135939      8.1324090249916274    -0.32939970619262343
    32   2      1.9441507317552651      10.115300281582117      2.0089190114385156
    33   3      2.2494842582348986      10.059147689378207    0.085319444810073225
    34   3     0.05625228276513429      10.249875249700173      1.9806002473701403
    35   3      2.0168523879576385      8.1022315741524977      2.2295833234788551
    36   4     -0.2294108817614974      8.1741775359606983      4.1886972367121453
    37   1      2.0160690000970467      10.114724394766219      6.1272843409107329
    38   3      2.0356749782353836      10.215939126148568      4.0483439170364157
    39   3  -0.0097856798500800968      10.242266458281808      6.2622999666703452
    40   3      1.9185102996838781      8.0328368313626495      6.0540533226041138
    41   4   -0.018365312870359932      8.2036759666238179      7.7592164501105856
    42   2      1.9699769204780104      10.098439491497178      10.144417988271458
    43   3      2.1423420182992938      10.093566405947946      8.1826281504288758
    44   3    0.012888602733189727      10.344073248063793      10.003412253063098
    45   3      1.8792968175349787      8.1414289522153531      10.370429696880441
    46   4      4.0045513692500538    -0.29531902498003881   -0.061918282922788989
    47   1      6.0135559393439948      2.0728548476890958      2.0484130077467557
    48   3      6.1087641758937279      2.1100044103359719    0.018740461256816332
    49   3      3.9720206565949145      2.0982734941515657      2.2487517939682671
    50   3      6.1596183249939678    0.053200877914055797      2.1562404632053802
    51   4      4.1412472999142551   -0.069592999782948722      3.6478141822495393
    52   2      5.9747983448370503      1.9798081854169938      6.0970452949322942
    53   3      6.2011945418851155      2.1732115645344767      4.1541287590379854
    54   3      4.0885138269899111       2.094876663584758      6.0662443178165111
    55   3      6.2637842626373637    0.067630903068819595      6.0092585173656214
    56   4      3.6772239219442406   -0.067105373476095534      8.2459200506197323
    57   2       6.004277150511391      2.0393139911760509      10.200931142090619
    58   3      6.2000883498326704      2.0167777058430421      8.0717203328241887
    59   3      4.1053887033913776       1.944250406550603      10.048116431449525
    60   3      6.2323762268057816    0.039880420633026326      10.282150865532776
    61   4      4.3290134077983184      3.8303058258507505    -0.30926635272949221
    62   2       5.924511325664187      6.0567194571544727      2.0073821510939163
    63   3      6.0676191611426411      6.1817231351441952     0.11655664206620089
    64   3      4.0568476022569246      6.1851365989479499       2.216077959087305
    65   3      6.0745611633824979      4.1394327686778176      2.1352942257816605
    66   4      3.8882162997126741       3.896199344085173      3.8579799821286849
    67   2      5.9602333703168808      6.1144486290837667      6.1408255029504906
    68   3      6.3008201070058982      6.0508372424398225      4.1041160631012277
    69   3      4.0808226299490178      6.1708027117638418      6.0934668310401952
    70   3        6.19236628928613      4.0824521875729154      6.1447440360953998
    71   4      3.8223991911171051      3.8449535328932631      8.1693858590647768
    72   1      5.9998387102405797      6.0452739532348101      10.107598438528644
    73   3      6.2312240519251754      6.1124254341457318      8.0644951464187287
    74   3      3.9519183681852597      6.2051922666454029      10.343848461695503
    75   3      6.0614433713743949      4.0020099409642143      9.9409421085688816
    76   4      4.1706144205976328      8.2130306044596804    -0.39560572391107607
    77   2      6.0120525430599372      10.045763798137507      2.0574377872942318
    78   3      6.0164728851127389      9.9302819546647019     0.10162692000806381
    79   3      4.1028935740823131      9.9671337424114359      2.2323005654122277
    80   3      6.3063526824491181      8.0749270484296645      2.1874438547221522
    81   4      3.8099389390010572      8.4094311907026498      4.2987661112534274
    82   1      6.0636730948279078      10.140479898372119      6.0696577001981336
    83   3      6.3344790438796252      10.118911008711468      4.0384894446328126
    84   3      4.0571213447124768      9.9228693917180859      6.0504306708970397
    85   3      6.2826128403031865      8.0251234970293961      5.9966553261487352
    86   4      4.1176647571394414      8.6025565693605728      7.9661099324448008
    87   1      6.0023212756073665      10.145791290389386      10.167618801482032
    88   3       6.131571827322956      9.9696888263100387      8.1175324023076172
    89   3      3.9849369430933184      9.9461284187342383      10.292996816108717
    90   3      6.1908621779551698      8.0706027768000208      10.309404868890757
    91   4      7.5429524048681635    0.094562299852308213    0.031524306618232377
    92   2      10.025438206120684      2.0098242556512771      1.9717039318288136
    93   3      10.206621639022909      2.0789940251002861     0.06706016478921481
    94   3      8.1655850718245997      2.1619885037309752      2.1220725084058598
    95   3      10.212377900920393     0.11536971859301826      2.1098099908696617
    96   4       7.787325837532169   -0.087938523657261999      3.7551801046735052
    97   2      10.038052090704603      1.9452383083923628      5.9933081214872566
    98   3      10.284385938145395      2.2172570035275965      4.0663738434057928
    99   3        8.17709287813625      2.1480288598717174      6.0905531541861553
   100   3      10.138349666380638    0.061741507935546017      5.9275389784137111
   101   4      8.0659580100261543    -0.24192489229136163      7.8441284175868216
   102   2      10.072849262388555      2.0528256890027032      9.9553885147651382
   103   3      10.242505321549359      1.8815657080828809      8.0620899501384411
   104   3      8.1668564072756524      2.0708176123250048      10.092115464662223
   105   3      10.060194078114492    0.077484490942427625      10.415636500686084
   106   4      7.7588786933271976      3.8268816691994627    -0.23045460711297344
   107   2      10.007365893647259      6.0760061455965815      1.9276141493244665
   108   3      10.353691852328303      6.1905898414956972    0.053625301918482374
   109   3      8.1480967555394734      6.0059551277570984      2.0672540273334779
   110   3      10.360909373796797      4.0954215067132136      2.0796578163748398
   111   4      7.7602105729376625      3.9908661496165574      3.9968461592025331
   112   2      10.088719419540348      5.9261595137172973      6.0892629534331189
   113   3      10.289810777340206      5.9765241055245868      4.1094396489503326
   114   3      8.2089061034865871      6.0025806813587721       6.096126589458569
   115   3      10.329948054017747      4.0301831895292581      6.1737208380775765
   116   4      7.7547875157489985      4.1833534833513815      8.2406550881931562
   117   2      10.104170669899668      6.2184548364069414      10.111301552297927
   118   3      10.284300527912805      6.1099174325599286       8.106528558113876
   119   3      8.1964509965034278      5.8749456571310512      10.095462788953842
   120   3      10.345970787360701      3.9721210168029812       10.00587796276019
   121   4      7.7523755314051614      8.1313753675221907    -0.24505434385964145
   122   1      10.087122185706155      10.009270268613863      2.0501270121916901
   123   3      10.295957140435947      10.026684938683992   -0.026349773959192906
   124   3      8.0715883559557913      10.309740267604719      1.9909826312867451
   125   3      10.251765182465562      7.9808889133862779      2.2301793144337743
   126   4      7.8229704739892068      8.0706173839441995      4.1471974754756493
   127   2      10.119853510826141      9.9347597658188036      6.2045581292688565
   128   3      10.093980702739239      10.301354924367692      4.1395190408517815
   129   3       8.199566506446704      10.232888956445537      6.1462635460322499
   130   3      10.212410931967479       8.048414384932471      5.9865460028023429
   131   4      7.6811474628823593      8.2516281920468764      8.4274680957487185
   132   1      10.165025632920514      10.111450027929113      10.120284468346917
   133   3      10.318651507087417      10.113493507780321      8.0859257423910051
   134   3      8.1293815494998931      10.251861883899775      10.073575038452628
   135   3      10.144911945433408      8.0696581161346828      10.277062807733731
   136   4    -0.58920264046446846   -0.011028842415763785      12.200299129760413
   137   2      2.0418817375356513      1.9357874771522816      14.020835619768345
   138   3      1.9554597453186155      2.0706103639282656      12.154596318254143
   139   3    0.064725459946298317      2.0756147465695407      14.332464259345763
   140   3      2.0225286758953085    0.014592588664669497      14.227034021155104
   141   4    -0.16726929908222837    -0.16353890560354695      15.880191643337934
   142   2      2.0510181976050315      1.9661122823389363      18.119420860755071
   143   3      2.0082419646193315      2.1319139777491141      16.240227909296806
   144   3   -0.011262510375434569       2.211532690075352      18.305970397635186
   145   3      1.9871072837958217    0.099949369518416528      18.324753172780866
   146   4     0.11866400700279271    -0.36167860191999412      20.262873867564434
   147   2      2.0140766493891258      1.9872123687164822      22.185723984536576
   148   3       1.892411740073775      2.2404500868023769      20.288917856464831
   149   3   0.0018615443617909313       2.215975755929839       22.43808888084887
   150   3      2.0039764750098739     0.12984229569271735       22.26999651465405
   151   4     -0.1919786143494181      3.5749475152670969      11.956857324129469
   152   2      2.0752455709401145      5.9650246339481443      14.067103647271152
   153   3      1.8115801074451745      6.0651590866195946      12.185709152426941
   154   3   -0.016702960383853903      6.2360608117935401      14.330922442167678
   155   3      1.9317033258474796      4.0738898510468964      14.274211738450735
   156   4   -0.043317066382411694      3.7849777231756678      15.968860923282639
   157   2      2.1430886706963106      6.0692546924664574      18.097055775376898
   158   3      1.9538330834897464      6.2216862178573065      16.196768705236622
   159   3   -0.037078140605927054      6.2763811958208588      18.226679127247685
   160   3      1.8773496280150996      4.1489400463337622      18.306787544284926
   161   4    0.045958956419721218      3.9754680111348204      19.992382731595963
   162   2      2.1151506388019325      6.0786137141580516      22.157995851330803
   163   3      1.8219266480130756      6.1178459119548831      20.278241249259679
   164   3  -0.0082735167991432879      6.1370211586492474      22.502170074197995
   165   3      1.9376001836875956      4.1650132245906253      22.428054613699612
   166   4   -0.033411566263319856      7.8882870928672952      12.066308372908555
   167   2      1.9879895684452147      10.005557764498382      14.227220364666639
   168   3      1.9449224790791204      10.371291764708699      12.172819521566444
   169   3    0.028043352190067275      10.326621585430876      14.151584361469483
   170   3      1.9266192895781162      8.1326637572480447      14.092130319124296
   171   4   -0.030045986532617027      7.8529240754617513      16.200536560950599
   172   1      2.0251606761489365      10.075017493148604      18.198491855443521
   173   3      1.9955942126550232      10.163509377200473      16.117624274965657
   174   3   -0.062700963219270919      10.197031438858758      18.098186009330824
   175   3      1.9550989754560311      8.0544385650984491      18.360773460900326
   176   4     0.17752879317721351      8.0329208405120962      19.935927779804008
   177   2      2.0372606290917115      10.181186864708952      22.168235277423868
   178   3      1.8943406635059961      10.161166159335181      20.295218409479062
   179   3    0.076117340327796726      10.160233901114005      22.590223102391167
   180   3      1.9096088315977724      8.1128584820841141      22.385817253483712
   181   4      3.6768103478567693   -0.066148697026843922      11.808319881678875
   182   1      6.0910542233716791       2.006248769572669      14.106062510998347
   183   3      6.1056748371328506       2.229582286489427      12.091541929609193
   184   3      3.9643726046552206      2.0548129193039042      14.222678560848259
   185   3      6.0772093702319321   -0.038980906880321707      14.255316771647943
   186   4      4.3721585357888699     0.18204430483901313       15.99443780070281
   187   1      6.0566245496538675      1.9951842193198768      18.198406815031582
   188   3      5.8888797822184902      1.9722505914731085      16.206838138717437
   189   3      3.9322907461505254      2.1481463502485498      18.403090196746973
   190   3      6.0332423973984923   -0.044145094199328418      18.446818233942423
   191   4      3.9632318441802616    -0.30441024901931424      20.194006515704256
   192   1      6.0165946144238687      1.9805435070668507      22.265526521491076
   193   3      6.1428272047752275      2.2173685637990417      20.253731384597302
   194   3      3.9508010480534481      2.2336537019629197      22.259096034519722
   195   3      6.2684784598429877  -0.0065728648742014806      22.228281745379185
   196   4      4.4959090333222811        4.21301301491087      12.355098715690207
   197   1      6.0323426981613562      6.1561017922294052      14.216414610174899
   198   3      6.1555086479448899      5.9147152920750568      12.163057200512611
   199   3       3.948551033383437      6.1061866680784815      14.079527951631004
   200   3      5.9929457552040537      4.0697675368448456      14.307983161547195
   201   4      4.4574717412680647      3.8257544144635047      16.068426897831472
   202   2      6.2344107735586984      6.0299562256043053      18.250132513398881
   203   3      5.9525000907893943      6.3163439232114484      16.260296896604196
   204   3      4.0052954916731602      6.1276741946427959      18.306016796348452
   205   3      5.9538821572031297      4.1110938874080523      18.161421100290109
   206   4      4.3288636210398099      3.7698532822850659      20.155338218834306
   207   1      6.0373163312406666      6.0807492687893401      22.248099191087377
   208   3      6.2332351523977021      6.0069032834728278      20.211994283002223
   209   3      3.9841075964974682      6.1511085823698242      22.307702149324154
   210   3       6.109757350315844      4.0821799811230752      22.382553566983233
   211   4      4.2133598098813323      8.0340699114792233       11.79968051671049
   212   2      5.9430513499314932      10.123417263440466      14.194746099735623
   213   3      6.3234961890492905      10.205812274221849      12.215716928336233
   214   3      4.0235143593233467      10.167523372812298      14.023644257730936
   215   3      6.1643080502954186      8.1983783337671845      14.039095216903545
   216   4      4.3766390961237285      8.1712566922822631      16.483387232449633
   217   1      6.1220343687870447      10.116216054554203      18.202965569633459
   218   3      5.9962900592816526      10.052220896309636      16.131526743644702
   219   3       4.046638855545698      10.120229025764568      18.221956410890304
   220   3      5.9193492616612371      8.0694118187625854      18.348849124102344
   221   4      4.2324375865438855      8.5691774510223002       20.01707877000133
   222   1      6.0456712893322289      10.199131172449038      22.329356956390093
   223   3      6.2109514880597052      10.085302262518788      20.262370055019034
   224   3      3.9897100202152598       9.973268188937654      22.279027327436989
   225   3      6.1810520835003109       8.093080194654414      22.318236921108426
   226   4      8.1203083892821315   -0.086394092874062814      11.923556559202265
   227   2      10.186702550407391      2.0518350749852514      14.001888129206369
   228   3       10.19047419721327      2.1698568776317675      12.116309297914992
   229   3      8.1723896238324993       2.063728538029665      14.349175011924894
   230   3      10.021986789354099    0.046489412729652062      14.112017543365635
   231   4      8.0660629302888811     0.10593972914470351      15.786005105246057
   232   2      9.9667381737330842      2.0038749386707799      18.161446354336295
   233   3      10.191564715848326      1.7884459466447378       16.26810226266662
   234   3      8.1223895243734248      2.0898981833130179      18.282180569830984
   235   3      10.103360366220963    0.048283846312267328      18.545825005685352
   236   4      7.6333619580009149     0.14384535610409041       20.21832160941748
   237   2      10.174224202475244      1.9343154787500414       22.15080861590771
   238   3      10.209331633723714      2.1830977361900192      20.277262424431736
   239   3      8.2291364148683659      2.2280946182485279      22.316167981841804
   240   3      10.133436364587219    0.041450409388773805      22.283888522144409
   241   4      7.9723154331850594      4.4762838245356518      12.256925662358952
   242   1      10.123444911239185      6.0671706557276233      14.138634326170637
   243   3      10.138476274189024      5.8163661896082353      12.094368020660886
   244   3      8.1070208532644159      5.9610835562135414      14.324585910597818
   245   3      10.205525884778956      3.9743293220737796       14.40831131129751
   246   4      7.9433998384953481      4.0138353961592603      15.756479783310422
   247   1      10.084223025176584      6.0478983032947431      18.243114978271922
   248   3       10.33397661466009       6.179053312470165      16.193510579342774
   249   3      8.1026444761691021      6.1388218337684499      18.027579590148797
   250   3      10.399821514223296      3.9463837852826571      18.144618262341396
   251   4      7.7285971619957365      3.8813599284486453      20.437881503193733
   252   2      10.033481525047296       5.992774082722236      22.167318098551895
   253   3      10.169870112484592      5.9445486108310304      20.303693425854075
   254   3      8.1813007566297919      6.0814847356623174      22.434748638953479
   255   3       10.28622045908824      4.0924528671326961      22.471307648689624
   256   4      7.7012902952041564      8.0934857759405805      12.067700264375002
   257   2      10.011634314354019      10.160118182799209       14.26284238010502
   258   3      10.095111548780423      10.297235053512004      12.226375882329013
   259   3      8.1302179812675934      10.227468265971204      14.307264289259727
   260   3      10.246351012564357      8.1790678177143779      14.090488519437859
   261   4      8.2081052657981068      7.6116595052627529      16.011929672397379
   262   2      10.055012284293788      10.072594802705575      18.337989343975966
   263   3      10.410472103858099      10.067778368828206      16.191156163939155
   264   3      8.1797364627979157      10.149735743268851      18.011139691890591
   265   3      10.292722133129326      8.1730339681289319      18.281990792807733
   266   4      7.6407294609986049       8.237791906688944      20.438252184619405
   267   2      10.111773190671553      10.012957847966348      22.365296533779276
   268   3      10.010443992229018      10.291806831203296      20.248189784170826
   269   3      8.1718221052079159      10.015501911134075       22.36911462572392
   270   3      10.216846356053733      8.0511280936248184      22.283372409928887
   271   4    -0.21682643173315036      11.944757087410546    -0.14529779857476044
   272   1      1.9801541237046869      14.083010359816379      2.0306843559787846
   273   3      2.2823988893081366      14.160167166677484   -0.053172157276527708
   274   3   -0.054763952770455281      14.333960349401877      2.0338618691724197
   275   3      2.2940864074312435       12.06580821935867      1.9846160545312803
   276   4   -0.038903515894601205      11.816367405584101      4.3935072814330471
   277   1      1.9480518351633678      14.189322433504431      6.1113919445583731
   278   3      2.0671449741356125      14.219489252756683      4.0663404415411151
   279   3   -0.069012716314191286      14.302980196230122      6.0342485448337966
   280   3      2.1251972975306233      12.165695910064672      6.1426880356619815
   281   4   -0.082171280815224915      11.845866986241816      7.9507597165797135
   282   1      1.9353343859938976      14.125636666157535      10.153920695045599
   283   3      2.1625249952710544      14.270583210235738      8.1141115090074898
   284   3   -0.088399266534770884      14.292394222946047      10.024127542875471
   285   3      2.2600479184832927      12.121810596922536      10.086758163121956
   286   4     0.10287795853964171      16.183448002908278     0.42399087507997851
   287   1      1.9860873882439063      18.211075291707427      2.0460344445369167
   288   3      2.2371653849680024      18.137160992080698   -0.053164962292450962
   289   3   -0.028842831116177158      18.216267184754035      1.7671669743655694
   290   3      2.0728199647173158      16.179326391629917      1.9760420448844906
   291   4     0.14868164132504663      15.748129089871489      4.0185436459466901
   292   2      1.8887937166928983      18.166208677752444      6.0237434044312739
   293   3      2.1346626677805705      18.350150194351123      4.0925767287074013
   294   3   0.0051857509295464288      18.381616628255617      6.0643355881460828
   295   3      2.0626179090245489      16.276490199998928      6.0291491864677811
   296   4     0.24045399367188414      15.987569161620955      8.4173198988374001
   297   1      1.9319067206902136      18.223613086452094      10.094066611835315
   298   3      2.2149114329500854      18.289512347638997        7.97914496961626
   299   3   -0.068155006727955589      18.315089096626931      9.8792688880581245
   300   3      2.1053836533340125      16.223480323050534      10.070114718134342
   301   4     -0.2052537681471841      20.034544182040705     0.23081124277907777
   302   2      2.0322832229894976      22.153663706777053      1.9777512626516323
   303   3      2.0624428208850025      22.541035994817207    0.052936585050757538
   304   3    0.084819012342691749      22.415429332493133      2.0081764609866983
   305   3      2.1201903077039441      20.279318061641508      1.9655434967056786
   306   4    -0.34871359827101012      20.352111128917432      3.9576052196367311
   307   2      1.9774059084489179      22.219516219474748        6.03939275274828
   308   3      2.0731615838209501       22.35130070788108      4.0215308517698372
   309   3    0.081852333622305026      22.270382690569861      6.0384800638062845
   310   3      2.2179564232375082      20.314698877141666      6.0503795866936612
   311   4   -0.008347143499343828      20.337895178309029      8.4826352895813173
   312   1       2.009673187917032      22.253663863490907      10.110247980130637
   313   3      2.2074022152726349      22.341193213862734      7.9829821103527356
   314   3   0.0070129118845661783      22.146429393292792      10.034550553964504
   315   3      2.2197412389345201      20.255216923405609      10.023804233524135
   316   4      3.7615192468398555      12.223822683155582    0.079818777623353779
   317   2       6.064460226221839      14.056546282409041      2.1637584242860153
   318   3      6.0124973954890457      14.282594856182794    0.029243196289222118
   319   3      4.1560318707062684      14.308171092832964      2.0766276073220755
   320   3      6.0225803180607267      12.136461264465915      1.9605201345295149
   321   4      3.5440056235717718      12.175909296349236       4.283874170221182
   322   2      6.0310631619478867      14.051016823330473      6.1205364923291601
   323   3      6.2429917316206094      14.180993047985034      4.0783805523116374
   324   3      4.1601194239785579      14.279318080720149      6.0218807370258514
   325   3      6.1266007981900472      12.198644648622182      6.1421429342599669
   326   4      3.5504930845507623      12.302601396045672      8.0002864488734087
   327   2      6.0436144740690541      14.075051207926119      10.138630642887707
   328   3      6.1570730313554494      14.348430226282938      8.0961456813184309
   329   3      4.1621740970340095      14.329880993190384      10.161498652116881
   330   3      6.0873486099872727      12.202593191521323      10.050777862065242
   331   4      3.7332119908255676      16.137786918589445     0.31278150009770156
   332   2      6.0782211917612017      18.123415138147497      2.0024143620657351
   333   3      6.0339371081596376      18.261636265174239    0.047482193245129214
   334   3      4.1127929929163765      18.226450748518914       2.112245905828217
   335   3      6.2641193316549115      16.195635663217836      2.0985993868620776
   336   4      3.6339584097226072      15.943738145683891      3.9512399815359434
   337   2      6.0223716980788664      18.106200428725739      6.0983962761059605
   338   3      6.2015012172508026      18.431324079384087      4.0781477296516258
   339   3       4.129806418160717      18.308573874050488      5.9665239168154258
   340   3      6.2467337610374383      16.254347973410397      6.0293906551525671
   341   4      3.6590830390527942      16.031755042156629      8.2453597898465372
   342   2      6.0634023716238454      18.126842049092918      10.133240762710802
   343   3      6.1501667470923165      18.287607098983734      8.0793659695480411
   344   3      4.1617014212479315      18.317006255240415      10.139142886810575
   345   3      6.2391937312810635      16.252255072964051      10.129288047413651
   346   4      4.2808523665763802      20.030655339446621     0.16001524481834278
   347   1      6.0608573881662284      22.236584018496369      1.9799766499891005
   348   3      6.0004410538735877      22.497107713631113   -0.040054958253508098
   349   3      3.9995953528772747      22.524069351365775      2.0028527329379227
   350   3      5.9735149045403375      20.219159883549686      1.9324226885109255
   351   4      3.9464893706607524      19.919017727989026      3.9311108078751653
   352   2      6.0103221163962584      22.191899840780533      5.9368730905423863
   353   3      6.1912000466797297      22.318537008224453      4.0579584212962381
   354   3      4.1108282079829372      22.468235375283616      5.9923145216305285
   355   3      6.0789346151133197      20.311900512098241      6.1594845538452718
   356   4      3.7105216716779434      20.102054732737876      8.2179824052244506
   357   2      6.0435103653725193      22.234690969195533      9.9924288268188519
   358   3      6.0941521607850451      22.514278258511773      8.1040981825419962
   359   3      4.1491679218865887      22.440305340050152      10.214045529111191
   360   3      6.1012326753860648       20.34958666054861      10.050765946604674
   361   4      8.3076910355428755      12.015095824828242     0.40181791059691302
   362   1      10.119079604441701      14.119698818081842      2.0948131830185401
   363   3      10.156803349240096      14.320787551113828    -0.10084690646428943
   364   3      8.0502077744798015      14.102958601512963      1.8574234853302487
   365   3      10.201741412160008      12.114720974372663      1.8616370984183954
   366   4      8.1527071322954221      11.713873509032773      4.0723254152875352
   367   2      10.102169915325637       14.05774357611288      6.1033320084895379
   368   3      10.078025981110715      14.244882641338803       4.150906566574923
   369   3      8.1371029003095394      14.287454988961899      6.2020268041869091
   370   3      10.184774455312951      12.187380333419931      6.1601937971348786
   371   4      7.8681142751819575      11.681490096450736      8.2277578018357733
   372   2      10.084439299365638      14.051846230988474      10.118796532078102
   373   3      10.162657881413836      14.439852175824063      8.1143106261949107
   374   3      8.1496967600613424       14.23607662539675      10.017602899748226
   375   3       10.24291574435556      12.213322072095595      10.046845501831367
   376   4      8.3826052557293007      15.967604255979019      0.3050909771006125
   377   1      10.157918677274042      18.191316074995349      2.0165824493102069
   378   3      10.082091303817519      18.279333088725458   -0.081492606777224696
   379   3      8.0704475096016441      18.451730890882516      2.0042816127298893
   380   3      9.8948684329034471      16.185537878815733      2.0583474900191057
   381   4      8.4296202461371781      16.054338916911036      3.8770187486166137
   382   2      10.167818021486669      18.230939864240984      5.9342091873502438
   383   3      9.9883297505066988      18.386367439092382      4.0591343695383602
   384   3      8.0968876087430122       18.46696330821991      6.1228549445778508
   385   3      10.008109247351232      16.292097406332473      6.0573391743734843
   386   4      8.1200222807358067      15.981797554058321      8.0028046317037713
   387   2      10.080032727965717      18.154388059955295      10.035622187354921
   388   3       10.10092499195432      18.214150587275039      8.1242330239905964
   389   3      8.1536555436324587      18.477367036728477      10.118179339996017
   390   3      10.105877939214288      16.292591366995726      10.235587254116762
   391   4      8.0452874553273013      19.880048582960402   0.0095634816536091412
   392   2       10.05473249361107      22.180950691021533      1.9867388182233234
   393   3      10.240461872640685      22.524045241722465  -0.0039959257465675751
   394   3      8.1688532781237395      22.330557354058065      2.0284706936527601
   395   3      10.223310587788005      20.318475500392225      1.8421530827369217
   396   4      8.0435713453932038      20.028292976691493       3.828953199247823
   397   1      10.062509339010516      22.258830783747705      5.9872701545950342
   398   3      10.316966908156093      22.280562637009517      3.9264046126501224
   399   3      8.0402032075917056      22.279846013357478      6.2518922604903286
   400   3      10.169602340782914      20.248412635792182      6.2989435609462037
   401   4       8.189733137604744      20.216023719566195      7.7452841865523334
   402   2      10.136980275093332      22.199856849638255      10.073075813055759
   403   3      10.106017315858185      22.577732379264479       8.156363802976264
   404   3      8.1242562354748973      22.411757840777049      10.174546333645894
   405   3      10.245752739813174      20.319622595871163      10.011866522902002
   406   4    -0.20644433366173034       11.98774529040428      12.313046606243731
   407   2      1.9488357803413798      14.073548848545318      14.229165219047013
   408   3      2.2342743339488247      14.164193953988006      12.180878087476989
   409   3    0.058015752159303914      14.219633474664484      14.012282359883185
   410   3       2.092069800970668      12.177496206072817      14.175798623545843
   411   4     0.24632986455587591      11.959142822314714      16.449402012620631
   412   1      1.9988961723750127      14.183455951653729      18.204223909379508
   413   3      2.0823993839172061      14.307453102002873      16.127679288977443
   414   3   -0.054267265034094188      14.174159900406108      18.394297921851297
   415   3      1.8810203481895151      12.138381266293541      18.143733887156024
   416   4     0.24353246402325276      12.241363034135935      19.897270027399575
   417   2      1.9224771084055245      14.265742957593181      22.275465087481319
   418   3      2.0361480611627578      13.900895019726432      20.343321173685254
   419   3    0.029793955968494094      14.127447669574629      22.409542489359001
   420   3      2.0980772066708777      12.111064209776236      22.485315089393257
   421   4    -0.29971215119121647      16.075442577290872      12.397479430193423
   422   2      2.0816793537051712      18.134760524713574      14.055586991317979
   423   3       2.082760401462084      18.358283430268731      12.168599199645067
   424   3      0.1004924792783088      18.221105334605063      14.327950670786302
   425   3      2.0776257446146524      16.218055956502653      14.055354662309153
   426   4    -0.32310143542973635      16.438505835985143      15.977463741542239
   427   2      2.0553088306440146      18.077033129880089      18.160177037530744
   428   3       2.103827155840587      18.217983729915613      16.250655840647813
   429   3    0.074185354688916266      18.181380953715852       18.33736850392048
   430   3      2.1019296167459007      16.204262501764305      18.340530289824972
   431   4    -0.11827992135066162      16.178701931988627      19.887395558482581
   432   2      2.0341906483487007      18.399536275815752      22.348779880908655
   433   3       1.924093223720672      18.317995368126429      20.263322852630385
   434   3    0.033176232710012472      18.259902828630842      22.402574970536723
   435   3      2.1242102841746031       16.14887888071846      22.180810286443126
   436   4    -0.25901235988368959      20.636675200482877      11.941834510057424
   437   2      2.0237486291862159      22.191135257634894      14.135820179104694
   438   3      2.1161621397303181      22.260553956431608      12.222870783787171
   439   3    0.088113119151037214      22.305360435667769      14.278231215929726
   440   3      2.0347383239804318      20.280862666760846      14.316941832043527
   441   4    -0.28673063385061348      20.026516244621629      15.878958558978033
   442   2      2.0359208892592133      22.138505505627268      18.164657321171674
   443   3      2.0439927386473924      22.403538467096375      16.265220454847164
   444   3    0.026762597776669849      22.392865683081517      18.361103801828783
   445   3      1.9502123201111163      20.267193233217721      18.278856541794468
   446   4  -0.0046944266716825627      19.913567377166043      20.084985026410827
   447   1      2.0088237136712959      22.253413046155561      22.261674623469883
   448   3      2.0118750851097444      22.495291283163841      20.203709740384443
   449   3   -0.034316974944259136       22.49597372346409      22.275864722315497
   450   3      2.1033044971218549      20.253993534072169      22.335516614723605
   451   4       3.710263145245396      12.148360082230882      11.994535604947721
   452   2      6.0270693965851834      14.162938283787623      14.198816129404642
   453   3      6.2261903168382586      14.167535977488027      12.088933862656072
   454   3      4.0931849804354306      14.268330965373886      14.150834510495747
   455   3      6.1321567161779305      12.175841405170843      14.222539242765842
   456   4       4.049469926362355      12.022496553737865       16.73376308292216
   457   1      6.0923374095570262       14.16540680718431      18.235225810155868
   458   3      6.1107789579149099      14.327942546582268      16.153158009894899
   459   3      4.0477511656298617      14.028260886110651      18.157882687007753
   460   3      6.1976740622186259      12.137341830150637      18.112617547094356
   461   4      4.0511828138849282      12.528415649453322      20.031952343514472
   462   2       6.040626110010324      14.112137466729772        22.4280975506557
   463   3      6.2172954452030584      14.057673939709671      20.272315614229342
   464   3      4.0900497324488247      14.127335404299266      22.128038355421818
   465   3       6.177961094935088      12.207226580695812      22.297485919797943
   466   4      3.6573922299785613      16.021931310409954      11.917007987133259
   467   1      6.0039281553721109      18.139406976293568      14.106792079613717
   468   3      6.2308367548588883      18.428928306627615      12.048378047037083
   469   3      3.9993318250279044      18.387192661261381      14.231568986162674
   470   3      6.2082514295701063      16.145387929307212      14.030767670297932
   471   4      4.0485753092108725       15.75342804163529      16.449866195102619
   472   2      6.1595705372508691      18.114511145980178      18.158597074328501
   473   3      5.9996250320792175      18.318456367719946      16.247072676636268
   474   3      4.0265994618207603      18.359286542091851        18.3809499083799
   475   3      6.0015393513693107      16.238736671746661      18.323008585476341
   476   4      4.1445569225197074      16.277835342742364      20.532755929613977
   477   1      6.0675361680853195      18.169410861467565      22.297150688215989
   478   3      6.0966798487496137      18.437179108051581      20.199573348382156
   479   3      4.0107321461901924       18.17377608683756      22.010426210880382
   480   3      6.0543327120725658      16.137814548260543      21.999341609312911
   481   4      3.7495701813463604      20.098642187048437      11.826695253762338
   482   2      6.0631014500879159      22.281271710811318      14.016629707325844
   483   3      6.1602542044035964      22.273448830025615      12.133799117950673
   484   3      4.0544870670078934      22.317024463855709      14.275957808247226
   485   3      6.0516318285837638      20.335742906584343       14.39028034483893
   486   4      4.1963215753903667      19.999943909097961       15.96016334850969
   487   2      6.1094704258553305      22.269685793500599      18.156855378729755
   488   3      5.9996038517564125      22.407708257339021      16.268760705730671
   489   3      4.0117966829995027      22.366209398794169      18.376135273979401
   490   3      5.9882514874284878      20.323958876084799      18.214313366142392
   491   4      4.2116326736758145      19.944799009548181       20.28000435036671
   492   2      5.9798218498345141      22.209852437481125      22.284449530933387
   493   3      6.0523329460982245       22.29673497217372       20.30475677591896
   494   3      4.0605845779253311      22.527551438901209      22.283898293401261
   495   3      5.9286229029050315      20.300664714646622       22.40469316568727
   496   4      8.0667216060453395       11.74561819288204      11.946585431788613
   497   1      10.138683697519308      14.105987998834101      14.196772431241266
   498   3      10.176823596840197      14.248178712593726      12.055592940777395
   499   3      8.1093253254107776      14.300168728194127      14.193613685604332
   500   3      10.407176793324311      12.091983479927201      14.273230291688703
   501   4      7.8433223776568468      12.059536815948794      16.481980344837257
   502   2      10.056438486985867      14.218442734748786      18.280671436304818
   503   3      10.199727243134245      14.458207686316912      16.213011265588687
   504   3      8.1465047804693782      14.272072347687937      18.083733448461182
   505   3      10.118591941161485      12.196135352915995      17.947798756705257
   506   4      7.5941342994728087      12.019892258691621      20.230917581752593
   507   2      10.122765515751105       14.00708048366533      22.246256083053566
   508   3      10.074061135286389      14.042031127663394      20.225197043660174
   509   3      8.1167906936804677      14.302634716151946      22.256136168817239
   510   3      10.135106669658063      12.127615593849177      22.382203096245586
   511   4      8.0374138355466762      15.951395098050138      12.439875964416293
   512   2      10.038019063503086       18.25937203425255      14.281751113512685
   513   3      10.113102409282527       18.52304997610382       12.09450778063607
   514   3      8.1181403474523304      18.423031620165229       14.17823474323103
   515   3      10.125731520709845      16.335543591487586      13.916337774132897
   516   4      8.1260987605782127       15.80418358283028      16.082034632653244
   517   1      10.080911978372738      18.173736856915188       18.26628007904149
   518   3      10.242528996879512      18.134491496635807       16.15836069616504
   519   3      8.0490711393723711      18.352041052341512      18.252570960344144
   520   3      10.284359657043188      16.145439639593921      18.317776178510385
   521   4      7.7881099026385554       15.92978345972163      20.391941658827541
   522   2      10.059049839714095      18.092560365300542      22.241367633593846
   523   3      10.069957286150421      18.544282674407594      20.300835067142607
   524   3      8.1142313304233902      18.447611942086461      22.254300831291044
   525   3      10.039652558583922      16.213458409883529       22.05858206832632
   526   4      8.0137844334293611      19.981695097717171      12.149521831480593
   527   1      10.060763883885887      22.274674674993044      14.203667393675914
   528   3      10.223635573504108       22.25827199328014      12.108312357734047
   529   3       8.003574789917451       22.24782237662599      14.354353934820304
   530   3      10.248655141470232      20.239313016154671      14.213115121241531
   531   4      7.9199624805341688      20.201880016109147      15.922430042676069
   532   2      10.110013522808368      22.255362287187374      18.129909703160958
   533   3      10.087023101857621      22.581736931409033      16.269601723526662
   534   3      8.0671601859009527      22.289756405676265      18.326325528504988
   535   3      10.181605082748154      20.358592199129806      18.089407286752422
   536   4      8.0489668738230016      19.898817206184322      20.204809825706853
   537   2      9.9853161281658025      22.197948260321077      22.220963331619931
   538   3       10.17489517398233      22.259617642426893       20.33460472247129
   539   3      8.0994124697507122      22.230580045977845      22.347711379898229
   540   3      10.227863577377619      20.335257510609857      22.460680632740591
   541   4      12.001074283724517    -0.16069811700106848   -0.067267134593197761
   542   2      14.132558817626197      1.9151164616918614      2.0461127190843929
   543   3      14.312721699424092      2.0159479032341183     0.11812870705555568
   544   3      12.242893256960494      2.1279414915291768      2.0913165823412352
   545   3      14.319949711694489    0.055097418585009321      2.1765001447509396
   546   4      12.025664368954917    -0.39788446172533631      4.1902590517940128
   547   2      14.078739698751322      1.9878658695907807      6.1336092627724366
   548   3      14.313358417213054      2.2727292826146446      4.0708059831376531
   549   3      12.205341509691774      1.9910207973192258      6.0535373839440538
   550   3      14.346279901830822    0.085392613447113908      5.9461183154814448
   551   4      12.153667837935467    -0.40805195495029872      7.9548374700620945
   552   2      14.108040348580939      1.9863167400457669      10.223143336035889
   553   3      14.285700104247875      1.8761946379484271      8.0657856055033914
   554   3      12.173509801178078      1.8715163432747925      10.150884496988006
   555   3      14.423502051034564     0.03717978311622986      10.190037313208528
   556   4      12.141659963937625      3.8116477949577687    -0.24120652417814617
   557   2      14.154022451404039      6.0308041869184326      1.9299943313279526
   558   3      14.165149321504915      6.3030801448377503    0.063407871135260752
   559   3      12.255774313860403      6.1339288544417281      2.2162372156449912
   560   3      14.269536533008447      4.1234200185176215      2.0290887397095725
   561   4      11.994678704961679      4.0115756974118399      3.9219316761714409
   562   2      14.250855861451397      6.0206751536119922      6.0636750074620824
   563   3      14.363080134174055      6.0222691632143572      4.0885982405072108
   564   3      12.193141973393782      6.1258865701986958      6.0975001411906202
   565   3      14.191619066543796      4.0525903728888757      6.1880271236323168
   566   4      12.279949302314893      4.3096498589144412      8.2895739551991099
   567   1      14.165871338451185      6.0321771481143651      10.177173565793989
   568   3      14.058476324305969      6.2272748989334152      8.0977650456256711
   569   3      12.130185398514717       5.938145889721441      10.203407528638829
   570   3      14.109641163283181      3.9742359023537923      9.9032305071292619
   571   4      12.042194968685317      8.0660145370583596    -0.18597453851901072
   572   2      14.069275413462282      10.089102967361629      2.0480821549551935
   573   3      14.183202191169897      9.9005187222771429    0.095180989846163078
   574   3      12.172488654110875      10.090207087578772       2.208626582221962
   575   3      14.279204454967234      8.0846054131446561      2.3133905348454613
   576   4      11.947075143792963      7.9306986744771111      3.9557156648690648
   577   1      14.169056211101941      10.078535456164236      6.0954921782573592
   578   3      14.396892393667187      10.226046087261818      4.0390836897019256
   579   3      12.111566066137897      10.297767234726754      5.9827763280720943
   580   3      14.139940866092818      8.0524185221823554      5.9976829994290002
   581   4      12.444726932848482      7.9911560985394923      7.9242724745472035
   582   2      14.099016530527834      10.016783133569982      10.162894662179323
   583   3      13.904857140355295      10.068995768003514      8.1923488568767979
   584   3      12.224504026415433      10.170615889194366      10.417425818449992
   585   3      14.275572325970739      8.1354246126546172      10.273299843880292
   586   4       16.06323368100001    0.083988942636826713    -0.41831857971638026
   587   2       18.16069587688515      1.9457476184044331      2.0008187286172348
   588   3      18.364689116788398      2.1579374980307833    0.096576926232989677
   589   3      16.264877572142517      2.2576695902387964      2.0922501177417407
   590   3      18.217832988124297    0.078109027218652913       2.094756107732533
   591   4       16.21494438605033    -0.34017525296479451      4.3131474686492721
   592   2      18.122481731297217      1.9679789230366116      6.1399586266362114
   593   3      18.265244547097929       2.281759430620776      4.0166023008939158
   594   3      16.237331426205166      2.1705679446578867      5.9946652500284872
   595   3      18.201557253779701    0.073299958130481152      5.8275732588953568
   596   4      15.862830490947704    -0.19733224504563276      8.1877927245011648
   597   1        18.1610492453913      1.9665232683847997      10.113611188661269
   598   3      18.406750195901154       1.952940388843343      8.0319309301426269
   599   3      16.170472998252215      2.2303885261615775      10.133610823282378
   600   3      18.369234524017283   -0.066036885875056239      10.202168149812099
   601   4      16.108424833691991      3.7454791206907854    -0.29993074869609321
   602   2      18.134814861525363      6.0517109730247229      1.9731401739729004
   603   3      18.403463222199196       6.190254477426377    0.052858427484423619
   604   3      16.256398471777757       6.138638994805512      2.0597254114325385
   605   3      18.416838797944187      4.1482661237321272      2.0374403923818361
   606   4      16.097598655296935      3.8711677330505405      4.0729572170180433
   607   1      18.178626188444692      6.0205687334527438       6.063002684036273
   608   3      18.394495256389639      6.0895833937240491       4.011795710961076
   609   3      16.177670078829578      6.1245885961068964      6.2280119341384701
   610   3       18.48403007037151      3.9949477314011079      6.1114909534179391
   611   4      16.230725630051932      4.0728982329592682      8.6121319988046903
   612   1      18.256114382924878      6.0542597702344203       10.17557473427123
   613   3      18.387755275984006      6.1808245033654572      8.1040606346454531
   614   3      16.219138549421956      6.0823691579097305      10.014959948934001
   615   3      18.391844337348271      4.0376870728392591      10.042987363437524
   616   4      16.064260769105825      8.3697314202908206    -0.39069330097816185
   617   2      18.105958163874597      10.073069538432581      2.0127218668454163
   618   3      18.415829462519106      10.092470484445228     0.12802658197391392
   619   3      16.240065595520448      10.098555484286976      1.9949261803244422
   620   3      18.324409784873499      8.1470310956027649       2.206689423524125
   621   4      15.843315564666915      8.1508285779688929      4.1827233675401141
   622   2      18.117583122337475      10.080935606862329      6.0913050012235326
   623   3      18.229739866033068      10.213895965892309      4.1043988885421374
   624   3      16.233237349306837      10.151615082785327      6.2721280335852425
   625   3      18.354401301031885      8.1537754288966777      6.0583849972158994
   626   4      16.290185635077265      7.5902173098990575      8.2174227072761727
   627   2      18.089148835149313      10.063232252935672      10.166972780027503
   628   3      18.490077088795477      10.127933274346313      8.1254171184475581
   629   3      16.222201189975969       10.24857982159728      9.9254591461079507
   630   3      18.259408883590737      8.1714433345841737      10.120415930493319
   631   4      20.221148456666452    -0.35170720438071484   -0.066631828990872291
   632   2      22.193483608271595      1.9928081857987949      1.9765457242907076
   633   3      22.311230358097653       2.211693619394826    0.071232142088076364
   634   3      20.301147405029976      2.0854498507094639      2.1421734298577415
   635   3      22.424975769885737     0.11946163993422221      2.0516304980616358
   636   4      20.093604860667593    -0.31956659631453049      4.0063470288308531
   637   2      22.160755099177873       1.945427687400471      6.0696684224840167
   638   3      22.515068907913594      2.0885576508256727      4.0637555719978717
   639   3      20.290027602180363      1.9320595202437862      5.8922456879010978
   640   3      22.440563407614476    0.025943436762095189      6.0202570205544319
   641   4      20.313683913784473     0.28149643921102785      8.4671832318205542
   642   1      22.256032445125019      2.0357400452889776      10.109293445664653
   643   3       22.22786286619985      2.0759614030028106      7.9981305557679665
   644   3      20.247088403849109      1.8965164552349507      10.228464363488211
   645   3      22.278902657321183  -0.0071186116345249139      10.088789839323924
   646   4      20.054846616350392      3.9344329000751297    -0.23122490242311447
   647   2      22.196137824315269      6.0431747148578374      1.9615848975181756
   648   3      22.321774905430139      6.0652878075408578    0.090071141968753154
   649   3      20.335809698857549      6.2462179295307099      2.1628189165110081
   650   3      22.329974537996002      4.1284685736704789      2.2142000228434795
   651   4      19.898539114840982      4.0541104035118458      4.1445820564359401
   652   2      22.210921492039382      6.0059135850786713      6.0319812002452329
   653   3      22.461641563422415      6.1956115664977984      4.1080732722531295
   654   3       20.33646015481499      6.2091201757153502      6.0545240096013142
   655   3      22.288010366450525      4.0616764809289245      6.0173712176027578
   656   4      19.784731890098556      4.1418763053944474      8.1680580780030478
   657   2      22.252579384456173      6.0020453621886656      10.038585536709002
   658   3      22.287846799954757      6.0929111980694399      8.1178823364983259
   659   3      20.370895374283069      6.2356468298856322      10.227372916447145
   660   3      22.286910818357285      4.1114110903242018      10.219908652806426
   661   4      20.153873929855788      8.2393611689790465    -0.32909971217545092
   662   2      22.160649994144912      10.025185058180364      2.0911114167925158
   663   3      22.297958305475941      10.271018693770591      0.1630451079933847
   664   3      20.292533959935458      10.128954623788438      2.2530542307085941
   665   3      22.475111286885927      8.1150675138822397      2.1173383248756781
   666   4      19.935627767610754      7.9194019222733889      4.1536501615175823
   667   1      22.218430283513303      10.059143683768431      6.1052766991942384
   668   3      22.585697813442764      10.104803173861455      4.0454849782337412
   669   3       20.23352604142579      10.305405996817814       6.020823185455586
   670   3      22.553920027067534      8.0267564275115806      6.1380314614072891
   671   4      19.939542417616252      7.8541048303570573      8.0597634044333599
   672   2      22.164874152612288      10.024048326392862      10.129285903003366
   673   3      22.248410809805268      10.358533065065565      8.1873549334183675
   674   3      20.277512215241778       10.15893994062551       10.26163102949811
   675   3      22.446182448167839      8.1490437507673494      10.087082395580484
   676   4      11.884186279794369    -0.21603019414813387      12.040908057263296
   677   1      14.120178237893457      1.9877885353394438       14.18390304245556
   678   3      14.306306961756054      2.1040412534120727      12.128051024484362
   679   3      12.098689463097376      1.8341905653173023      14.288941805401725
   680   3      14.412602099290464   -0.076258932858067258      14.137193441285218
   681   4       11.96053267251026    0.060693928118392221      15.959434750779177
   682   2      14.104160582396153       2.049696671187101      18.210369626210852
   683   3      14.371214932406403      1.8549718569267659      16.239740860258802
   684   3      12.174484835541863      1.7871878642065533       18.29320100840571
   685   3      14.365794727991114   -0.014062153224683779      18.319193439255518
   686   4      12.121764002990863    -0.13038297705055055      19.914940420830963
   687   1      14.139906459712369      1.9909137305457203      22.218233022318024
   688   3      14.354443687038112      2.0149848684922795      20.205967814810617
   689   3      12.120466142157323      2.0512918934281359      22.462372766934859
   690   3      14.410639849223019   -0.056335270491685713      22.229694709114927
   691   4      11.982910876051891      4.3209325277611796      12.007150757673699
   692   2       14.10657682933244      5.8923473284997678      14.173835501865907
   693   3      14.414926775838563      5.9634482681911036      12.213696232095206
   694   3      12.210626876508581      6.1027007687525527      14.004129141151481
   695   3      14.230658352384541      4.0392906627602612      14.307851763182576
   696   4      11.804337016627803      4.2787677463436751      16.207450189635217
   697   1      14.208526610603833      6.0010431928848496      18.184976480276493
   698   3      14.134358362848278      6.3178252340590353      16.111162778836775
   699   3      12.178334778372998      6.1172591265017333      18.371906249976092
   700   3      14.023124997924523      3.9750376923451194      18.138992534336609
   701   4      12.090480428686188      4.2407301551648739      19.835353149074468
   702   2       14.12459150556159      6.0201901582158595       22.15288277605206
   703   3      14.283262727619348      6.0153821073037204      20.292534653275911
   704   3      12.213197689110434      6.1742683548580262      22.335517087073278
   705   3      14.174832194499022      4.1158235929811857      22.531885459124791
   706   4      11.860883224283793       8.178460419782164      12.321191317236186
   707   2      14.244413660737285      9.9861861292042331      14.219032359305546
   708   3      14.439048763204607      10.363149643712838      12.102408342010959
   709   3      12.272264932517775      10.097944661587983      13.846548603629955
   710   3      14.324740990891749      8.1120658615414012      13.944979429835465
   711   4      11.919109947138013      7.8300191025359256      16.275383651543923
   712   1      14.098181242471364       10.15674243866772      18.171708329200641
   713   3      14.116436572869146      10.071251499581614      16.102681986591143
   714   3      12.093248526895088      10.330363459716608      18.346370835501787
   715   3      14.288885722476286      8.1180938451862019      18.334628272321954
   716   4      12.238947596568206      7.9356744954326537      19.798682839434957
   717   1      14.081107121305745      10.070720426157388       22.31592398745757
   718   3      14.295126133918876      10.253710509804641      20.226269941438527
   719   3      12.083160596749641      10.099676776645339      22.097159432784149
   720   3      14.377236497242954       8.034470603382811      22.239673368945649
   721   4      15.893337958537558    -0.17772070570454607      12.123211050964168
   722   2      18.226207629161216       1.856050666751849      14.188441655029651
   723   3      18.272609695669559      2.1502715576534364      12.233049345841692
   724   3      16.288510333395234       2.183360372968056      14.167780612175617
   725   3      18.271648982915501   -0.044848267517401869      14.224559287999137
   726   4      15.840259743969398   -0.070543861662726637      16.195968468613643
   727   1       18.22783680187186      1.9262135878678992      18.200604107015714
   728   3      18.212335264011227      2.2022469053311329      16.177116662929123
   729   3      16.200845913697762      2.1632759195599629      18.254570769778059
   730   3      18.298435449654868    -0.10658422174860842      18.425105580067317
   731   4      15.907035936458229    -0.02229226534307243      20.091323302350215
   732   1      18.268304307978262      1.9524754322645839       22.30521088132522
   733   3      18.329653252308955      2.1317653515172417      20.271769788519304
   734   3      16.245653684179935      2.1454463484261215      22.375409014790247
   735   3      18.348028151252709   -0.087526365897618114      22.264079563738672
   736   4      16.175664342406751      3.6759812968115195      12.182979294073084
   737   2      18.135251670121512       6.032774438029274      14.167723616666006
   738   3      18.272105714584139      6.1583228980393159      12.233515239371652
   739   3       16.25353830510646      6.1136061266539219      14.302348221177857
   740   3      18.381848713944315      4.1194899982136333      14.244351771087183
   741   4      16.138486263241365      3.6120775817056945      16.232414987774611
   742   2      18.146727769165341      6.0125111038392216      18.194837430259536
   743   3      18.467077262868663      6.1496224245776796      16.232576820693549
   744   3      16.278457594488657      6.1284574680766308      18.079411710929335
   745   3      18.371448429214642      4.1419376195481217      18.262793855511291
   746   4      16.303575893098081      3.4735309443738713      20.287092280550041
   747   2      18.130106919021589      6.1008790278518576      22.183042012330315
   748   3      18.256134407428664      6.1398357402765278      20.260863769148862
   749   3       16.24393087621797      6.0380960131632246      22.443062893085965
   750   3      18.397920677001178      4.1752773280747002      22.376225001961085
   751   4      16.039571891906828      7.6568108266640875      11.971716770705592
   752   1      18.161285885049608      10.085703503961211      14.192176134966008
   753   3      18.130222817756142      10.213189704037397      12.074670267929552
   754   3      16.162160174126306      10.380546459825082      14.193270288741182
   755   3      18.427234265897496      8.0575844218194987      14.218495324924945
   756   4      15.779715802337867      7.9713743927993388      16.461717542216512
   757   2      18.115952404040883      10.112192367957157       18.21293299589232
   758   3      18.488265185961382      10.180808548641206      16.225736221796033
   759   3      16.231441408006006      10.219920466913271      18.076191777309244
   760   3      18.328496034157659      8.1468744859159052      18.169130662303033
   761   4      15.734550918444171      8.3279373211124295      20.181478214292039
   762   1      18.194372168912189      10.160267599070872      22.275868252042716
   763   3      18.320579023337917      10.134999653332722      20.183961121768775
   764   3      16.206789806039705      10.183346833976678      22.391541777192341
   765   3      18.331352949290231       8.068164524778684      22.335420055028244
   766   4      20.313847043254846     0.17928852236947043      11.834668687985275
   767   1      22.250375230014871      2.0263008685171759      14.171780508405478
   768   3      22.419583349354976      1.9621172771335305      12.164134184380178
   769   3      20.215998058185722      2.0216646610738915       14.31936499027027
   770   3      22.361090054574195   -0.013523706415402481      14.322950367545934
   771   4      20.461562744386146    -0.18861378085425978      15.780025907939145
   772   2      22.260371766148506      1.9178507088307444      18.167683855916248
   773   3       22.32613824891796      2.1917382419269735      16.283345882371282
   774   3      20.346211065830602      2.1472413053328938      18.297142822045455
   775   3      22.332645112153706    0.050246516413175214      18.249099322503739
   776   4      19.829946389915321    0.029976292954108252      20.229908226821781
   777   2      22.266793777941032       1.982003814297947       22.20133535349126
   778   3      22.350059973814155      2.1793526255472675      20.295914768781632
   779   3      20.361310857591381      2.2050705792631069      22.344900707294254
   780   3      22.288617734558908     0.11847289041494113      22.372757109717323
   781   4      20.024837922553242      3.7557023899975972      11.784861769861276
   782   2      22.256452134098051      5.9722449200830372      14.090877804616243
   783   3      22.432520798068808      6.2355926359969827      12.171287335374782
   784   3      20.351687318186144      6.1951580218811406      14.142564451706415
   785   3      22.368855235495129      4.1117191342047654      14.202881697034249
   786   4      20.074880846217148      3.7132760224096648      16.101055131557466
   787   2      22.166364176734369      6.0322861691647622      18.137482630908529
   788   3      22.316629208042116      6.1523002699334555      16.209524090079249
   789   3      20.297773937926927      6.1851741675671592      18.317772284474039
   790   3      22.355692412786063      4.1502923474115203      18.325942791741113
   791   4      19.972431927719843      3.7366150046604694      20.162114730950808
   792   2       22.24565689539773      6.1220612441424107       22.12873787381103
   793   3      22.415969590613265      6.2253437803010403      20.251551456954257
   794   3      20.313148543212616      6.1760943588380615      22.320926782400658
   795   3      22.362142818173446      4.1594544863126037      22.394296502415173
   796   4      19.960828465041555      7.9756474870163609      12.286538846726781
   797   2      22.202772875583111      10.125122119869843       14.26567107493128
   798   3      22.528307606177432      10.125959557822522      12.087670865101309
   799   3      20.303532194756471      10.153845851227846      13.937295647573597
   800   3      22.378372192071449       8.192256298221972      14.228094688498928
   801   4      19.927343905271279      8.1404626235425823      16.105790167425813
   802   2      22.279652050140871      10.076381785520812      18.355643282161513
   803   3      22.192290833978703      10.335302397397804      16.151038804925271
   804   3      20.302426277885797      10.250749088899404       18.24406770498781
   805   3      22.309449165700851      8.1595296100087999      18.117435070335137
   806   4      20.076926544532078      8.4915060947687433       20.46342391821495
   807   1      22.316438369546162      10.114227100138962       22.24914438181472
   808   3      22.293025746747542      10.044721625847071      20.227228842045612
   809   3      20.274573745920065       10.02911278638609      22.367701221995841
   810   3      22.354322825417054      8.0638311074396096      22.499154007677259
   811   4      11.977443456425801       12.21875057076112     0.41889554118869465
   812   1      14.198910986466393      14.088492044129485       2.002461291979222
   813   3      14.151371525604846      14.325912981615156   -0.010008144987102289
   814   3      12.147638653487352      14.247899924212964      1.9749367151243682
   815   3      14.189205397368131      12.045919267447546      1.9066876617615371
   816   4      11.900410111205282       11.79805220010323      4.0532271231006245
   817   1       14.10177743977251       14.14180667803233      6.1027403243062972
   818   3      14.225015648450984      14.153953792572787      4.0505919935698271
   819   3      12.068187143527892       14.35859250336312      6.1070116191124697
   820   3      14.269350294960109      12.140724295991353       6.249512990328645
   821   4      12.336314663855276      11.855659422473938      7.8321020239685444
   822   2      14.061656744533042      14.099950308542219      10.125940599154928
   823   3      14.186375881893339      14.416429575613133      8.1905499261087904
   824   3      12.169854741453445      14.366074589286367      10.146085168792656
   825   3      14.182266614860762      12.232105808673248      9.9884297828020223
   826   4      12.173229104266197      15.758482877440581     0.20103068813309938
   827   2      14.084203136582584      18.106955991586041      2.0628963439494892
   828   3      14.306376638712722       18.22608868959097     0.04681126619688239
   829   3      12.198098657437033      18.266447058573608       1.918491782744715
   830   3      14.238956858337316      16.225744606275093      2.1261442730814384
   831   4      12.291901050574296      15.634390755863835      3.9034301029833891
   832   1      14.176902827195299      18.216561625160615      6.0368856862502547
   833   3      14.153253229446605      18.485062978266338       3.961520528429638
   834   3      12.095749538919907      18.290743034116954        6.10560590115296
   835   3      14.228581362610988      16.218142866782962      6.0787984931786552
   836   4      12.342253772534724      16.127558591596745      7.7001069659480317
   837   2      14.052657498353351      18.224125834900427      10.050180513334647
   838   3      14.199990045346407      18.197730418705444      8.1561818694209691
   839   3      12.150045094679056      18.293777690099759      10.216544474284639
   840   3      14.301094003997703      16.289599943645079      10.283994206444916
   841   4       11.99916116374118      19.844867122175902   -0.037525709234437078
   842   2        14.1697054117126      22.205040978004089      1.9555290548120796
   843   3      14.303222594042307      22.525455395890706   0.0038715644491615145
   844   3      12.234136693919305      22.497648283020101      1.8880905905893823
   845   3      14.170567965248003      20.310320791509064       1.824173349108225
   846   4      12.441606570899681      20.214327276481963      4.2325547168274325
   847   1      14.171158168552141      22.314583566826386      6.0430914981516741
   848   3      14.072424928625813      22.183097462460228       3.944710347768317
   849   3      12.131969691141977      22.359940818924979       6.141471418405021
   850   3      14.097320970909564      20.262769153018439      6.1211593751808921
   851   4      12.186033368028598      20.354218647110528      7.6521642006529138
   852   1      14.095425202161945      22.262614332477174      10.135619079689073
   853   3      14.298490224479162      22.404208087814492      8.1034924834349695
   854   3      12.089641826171022      22.563293148688974      10.094155487922682
   855   3      14.348516141437488      20.221869441280987      10.078116422977546
   856   4      15.698713262742039      12.137093227805419    -0.20900454832609192
   857   2       18.10784720225606      14.029542357892414      2.0347440936268266
   858   3      18.395275978439834      14.270553639599314    0.040176819346856164
   859   3      16.256862849720633      14.153785130713901      1.9826693254074743
   860   3      18.373614473178232      12.129483806969503      2.0579550496664041
   861   4      15.680953861902115      12.252903321367578      4.2279194365743376
   862   1      18.221372281271542      14.186865274716315      6.0905000059076508
   863   3      18.317341128719256      14.267779948700388      3.9645960972803911
   864   3      16.205164265930783      14.247303705585175      6.1644654218009896
   865   3      18.279159554679826      12.135528872417204      6.1655438631826316
   866   4      16.073501182249991      12.253713904566114       7.702866522510627
   867   2      18.151223282152298      14.081726556770356      10.080322480713038
   868   3      18.358494408953703      14.340898177034548      8.1561337485310794
   869   3       16.23757477934743       14.31204348903619      10.077596597303764
   870   3      18.346468441868964      12.198459540786015      10.077813170224871
   871   4      15.716059844450346      15.996340166384817    -0.19513235024036549
   872   2      18.101577418529981      18.096303791096702      2.0553112531475439
   873   3      18.400696528018411      18.288741330783573    0.024737688574264043
   874   3      16.236175200975278      18.339754233459328      1.9816649637395258
   875   3      18.304871217058693      16.219199993959215      1.9704027299724141
   876   4      15.880047723159167      15.837185970251308      4.3294876326393723
   877   2       18.13457337501459      18.243614160170299      6.1275304912909245
   878   3      18.352641799596149      18.265297627805221      3.9665789581396544
   879   3      16.255103401413407      18.308360971529066      5.9976164443386875
   880   3        18.3509964376616       16.31748295154437      6.0021600774796822
   881   4      15.960401072829166       15.98933367403429      7.7938197566284018
   882   2      18.164181971721156      18.236030011374787      10.100386221208224
   883   3      18.363067504427324      18.324471400958611      8.0504747595306743
   884   3      16.277765219804184      18.282561147955555      10.140013024982155
   885   3      18.347131296709371      16.315423416788363      10.063722861805822
   886   4      15.926156982493039      20.007897781487078    -0.14375310273680861
   887   2      18.196190270472012      22.142225160873924      1.9774839385041005
   888   3      18.297472718625986      22.406476934048886   0.0071865441544154843
   889   3      16.230009431033093      22.315086816321738      2.0748672048625592
   890   3      18.336521286411038      20.252399130621686      1.9478870577997052
   891   4      16.088950574510136      20.353191376668871      4.4440027788431644
   892   1      18.240484694782211      22.275910928176213      6.0848904761843983
   893   3      18.329681326222786      22.326373838315209      3.9371387166008187
   894   3      16.210095626219985      22.219572164980587      5.8774167190886475
   895   3      18.335270963529123      20.215456546611641      5.8519962110923789
   896   4      15.744833522928646      20.486051411819048      8.0128203937424551
   897   2      18.188149498149492      22.315034729864166      9.9639967705217121
   898   3      18.226592559860432      22.283580339912813      8.0955049243195507
   899   3      16.270438190780361      22.270816005674813      10.208905679197827
   900   3      18.318211491452374      20.257037294296463      10.111412628888639
   901   4      20.166653893464535      11.845537459481537    -0.32225648371697369
   902   2      22.254192450422462      14.024942699292014      2.0367388687266583
   903   3      22.296297186475545      14.143891326630531    0.073647972437225831
   904   3      20.310554867606793      14.340386168698034      2.0376407879659224
   905   3       22.32347774772516      12.153056896312973      2.2076281645439884
   906   4      20.023494366288038      12.009214491039218      4.3296611592967551
   907   2      22.291904121852536      14.124990403194733       6.106419712299922
   908   3      22.317864664194786      14.421758678096657      4.0314727658216309
   909   3      20.312677055030061      14.275432060976248      5.9561308578867571
   910   3      22.309502282265697      12.222098395005697       5.952645913160679
   911   4      20.138490654398542      11.882327013850738       7.889427809023899
   912   2      22.281098413961601      14.083089013883484      10.133131669670329
   913   3      22.184609597204133      14.187076196058824      8.0577697251555431
   914   3      20.269727409386224      14.403069443595619      10.117693335131008
   915   3      22.250071888508543      12.206306576729531      10.244448431053025
   916   4      20.157233141172902      15.921386083187409     0.09378465871654669
   917   2      22.224364116604178      18.172940331264371      2.1236034446848224
   918   3      22.264682592456957      18.472838236123856   -0.025770382956226745
   919   3      20.294409495838877       18.31656590069645      1.9669024110280036
   920   3      22.318092640731397      16.265957240155224      1.8637718106318286
   921   4      20.045027654523807       15.92369676204533      4.2007917806771253
   922   2      22.226847142814421      18.170148348164634      6.1527509300648919
   923   3      22.432283677432078      18.264620779968311      4.0197649112140041
   924   3      20.327153637593039      18.361071403732016      5.8879890904276957
   925   3      22.280798542501959      16.295917459570198      6.1158240022869421
   926   4      20.086332288242723      15.979159003382712      8.1767029622962522
   927   2      22.298567431332469      18.157911584773483      10.174727340482319
   928   3      22.194712617322899       18.52496233354633      8.0037961307949939
   929   3       20.29154685734381      18.363834717406515      10.010698597455987
   930   3        22.2799261712447      16.254310169978069      9.8349595211527525
   931   4      20.183127559958539      19.976264620025198    0.001308356094983112
   932   1       22.22815551307264      22.264295232348264      1.9864641243616237
   933   3      22.371601240999944      22.409101633945024   -0.057268213225335061
   934   3      20.199100399212817      22.496574515779383      1.9646996884080101
   935   3      22.483603397267053      20.233430369537288      2.0420409066050773
   936   4      20.030324733146067      20.224856028411185      4.2331272033490484
   937   2       22.20257859169881      22.258130251776734      6.1189610444026181
   938   3      22.484871261864203       22.38221900094068      4.0426241011250745
   939   3      20.321735541545742      22.356587736100554        5.88524512562143
   940   3      22.324493987081322      20.316649549993343      5.7988042692535275
   941   4       20.28045408687148      20.286619139183408       8.387951750458674
   942   1       22.25664844481587      22.293446582925444       10.06072975923316
   943   3      22.273881756696564      22.153570458387506      8.0034441454464229
   944   3      20.234734952381956      22.154232241039743      10.153149229701212
   945   3      22.283502749400206      20.228303118741685      10.158737284804257
   946   4      11.913310163413897      11.910486632992283      12.289571121035165
   947   2      14.091353403540648      14.111153174648894      14.188028535625023
   948   3      14.345376396827124       14.25483995387153      12.102372914120975
   949   3      12.230822841678394      14.387187818678331      14.014746882706165
   950   3      14.147655711657276      12.221838894174907      14.144046900197726
   951   4      11.971353865907869      12.025198979160777      16.428183736568776
   952   2      14.181039894795148      14.116041274427166      18.349839482248036
   953   3      14.219476484683248      14.391991425053988      16.077784698133314
   954   3      12.202634329041999      14.168583041766578      18.077036208335446
   955   3      14.214710261376457      12.211942819449474      17.951052639573227
   956   4      12.367395677278759      11.720221421695109      20.411261136583658
   957   1      14.073278034020694       14.14078461589002      22.275213597606335
   958   3      14.199355252448735      14.110372902951587      20.216264764564951
   959   3      12.038336740743381      14.354866381706783      22.182872447595589
   960   3      14.236621092278343      12.134594855158706      22.302944234303578
   961   4      11.862186333035574      16.029697860292181      12.271098066266918
   962   2      14.113349260695855      18.168011687142254      14.134467973582254
   963   3       14.35132952304928      18.419075522042569      12.149424601408448
   964   3      12.199432714678554      18.253092080364961      14.009859180160223
   965   3      14.345532579506719      16.269307201267061      13.982327132624597
   966   4      11.916421349067548      16.141987235555046       16.51826384171375
   967   1      14.137702683369254       18.18107649145951      18.194069044937365
   968   3      14.257277099121557      18.220204196130542      16.087560884773364
   969   3       12.12526962591194      18.367775271639829        18.2194264699122
   970   3      14.314100241729864       16.15221285199522      18.222320800681089
   971   4       12.32445601771779      16.188535815536433      20.624857803530599
   972   1      14.118051655219711      18.243323882884471      22.297976566596343
   973   3      14.264575259443335      18.302066016781232      20.251651544217022
   974   3      12.070084226466957      18.249917449119174      22.182680015630567
   975   3      14.259741926892779      16.207378392728099      22.103502335862441
   976   4       11.78378535825558      20.249911783512001      12.324916187790878
   977   2      14.042973138280823      22.264745229434098       14.19333381831925
   978   3      14.301099266935365      22.251246319160938      12.198987927936248
   979   3       12.16583817008998      22.397170471669838      14.184503281688489
   980   3      14.267630053102319      20.275800951648943      14.221970779012846
   981   4      12.140392739155027      19.982131949970313      16.592916221990652
   982   1      14.119454739536247      22.259474337248925      18.197640894831679
   983   3      14.358097640661317      22.332281854121433      16.149850815865769
   984   3      12.071579331952634      22.446542332147985      18.287987994339129
   985   3      14.249885454054013      20.249277831970204      18.106634106843124
   986   4      12.168348658646579      19.785635548631667      20.088462586008379
   987   2      14.045276349080524      22.248337949008871      22.197097327880822
   988   3       14.23438098529572       22.23476626569105       20.30380112451105
   989   3      12.161306301015559      22.451665745034315       22.38411841526819
   990   3      14.216699730825489       20.33757621504305      22.484288243167995
   991   4      16.238100585557039      11.929521068213475      12.410247386685676
   992   2      18.220025830191663      14.158191561342187      14.293020779917059
   993   3       18.25517896790657      14.373616045148466      12.054472135542806
   994   3      16.239402980544838       14.21628300338735      14.075632640592303
   995   3      18.343500804767615      12.226381798723677      14.041987297542505
   996   4      16.091701255059565      12.153277324651915      16.472433564728352
   997   1      18.170642340910586      14.212292449965879      18.235380331039245
   998   3      18.288123923319972      14.128944784026185      16.158668924554949
   999   3      16.148419827899463      14.141831900957552      17.979939005156126
  1000   3      18.378529693825477      12.124962500601237        18.1807094387026
  1001   4      15.903103145702186      11.849476635166658      20.648737577421201
  1002   2      18.134730873515181      14.117540843954774      22.229342499613715
  1003   3      18.342437283451126      14.132544926816482       20.33703288694295
  1004   3      16.257176910283146      14.180589164160546      22.381758155649926
  1005   3      18.379138299078726      12.214362214695061      22.381715329836897
  1006   4      16.047751942217776      16.018371354469128      12.080144101605367
  1007   2       18.16885968427999      18.190292914290872      14.037753448396284
  1008   3      18.329154418594872      18.297805757978917      12.123701202332363
  1009   3      16.270319094183712      18.336301349932963      14.158488069610456
  1010   3      18.226417576898715      16.254595739371396      14.142534323659774
  1011   4       15.98351670389561       16.09819465267018      16.473471229147812
  1012   2      18.235617517142771       18.16756431049544      18.073739529289757
  1013   3      18.296808865050721      18.223046164930558      16.196837157392476
  1014   3      16.294210910404615      18.295001284713248      18.256480450495332
  1015   3      18.268808566807309      16.261175592136876      18.346416312935045
  1016   4      15.776852830708217      16.421636120562344      20.315473531901169
  1017   2      18.172600717831436      18.139027773300082      22.252135316585449
  1018   3      18.300794008489905      18.340191610972251      20.348386200647816
  1019   3      16.293420182533865      18.307196824291257      22.359427783819857
  1020   3      18.334304764298011      16.225945758301762      22.329865464015043
  1021   4       15.87871407317393      20.327075057805921      11.928382692131329
  1022   2      18.202011707386813      22.140884789795308      14.071145816794388
  1023   3      18.364347783049041      22.190208637349855      12.186579754972504
  1024   3       16.29496812022542       22.24053137980674      14.155611211576275
  1025   3      18.370117344990337      20.230735138614524      14.304146501508813
  1026   4      15.803456994014006      20.206869484854245      16.314721521825948
  1027   2      18.168376132176544      22.272232696343586      18.102638202199365
  1028   3      18.266414521550441      22.313584014681702      16.229320183708747
  1029   3      16.293668787454909      22.202775192745023      18.334587332843427
  1030   3      18.374631473908391      20.251925430306841      18.338262862773615
  1031   4      15.799969280963209      20.096159309501115      19.947538584723187
  1032   2      18.161119628230921       22.19799957926995      22.210396908982187
  1033   3      18.442394677011826      22.201312057418569      20.314679334021321
  1034   3      16.267888813287712      22.240365287452178      22.338975131090603
  1035   3      18.401067811693146      20.261397232619462      22.435090532503423
  1036   4      20.181377635334947       12.07170899790145       12.44682401578306
  1037   1      22.244326436853175      14.125821471488139      14.166168287187171
  1038   3       22.26842924763417      14.465070119242027      12.042129534725207
  1039   3      20.189431748161898      14.309013552638222      13.974498485486913
  1040   3      22.237402747960981      12.126482401655482      13.856721204875907
  1041   4      20.004063966874792      12.049689292477845      16.347383790165036
  1042   2      22.260505887933807      14.148082455959454      18.054985477396606
  1043   3      22.248550901498447      14.189998922502845      16.198490195470598
  1044   3      20.316863638730627      14.143819979580956      18.415938832859688
  1045   3      22.315964837544229      12.175332203732088      18.292548769823579
  1046   4      19.961515040016071      12.238930508436743      20.030104725126922
  1047   2       22.21947660669305       14.06790474913244      22.226614449503398
  1048   3      22.336941910215188      14.224495668260451      20.358496909579912
  1049   3      20.314687447767689      14.241870539464689      22.393071757306419
  1050   3      22.327656186233874      12.178480423580432      22.425082937315796
  1051   4      20.219590368814963      15.929820291951026      12.190525391595139
  1052   1      22.274550336128438      18.247156499238834      14.052341897799131
  1053   3      22.353589429459419      18.096561191944343      12.055955153372205
  1054   3        20.2173596189091      18.205582625639568      14.304047638503283
  1055   3      22.398187784618614      16.203157225495378      14.233260600745826
  1056   4      20.569805813120457      16.448576052295529      15.852598887377232
  1057   1      22.263831118340107      18.208946717844473      18.237109712297318
  1058   3       22.32314665090539       18.14070535715561      16.226707479012099
  1059   3      20.231445799616701      18.213798786375936      18.447681473580555
  1060   3      22.286176597603657      16.132511419846523      18.377775212152983
  1061   4      20.193662222596068      16.133546210005456       19.85516742853002
  1062   2      22.275681669273432      18.048153292239057       22.27421013107795
  1063   3      22.453064563410933      18.217327615584942      20.356639596604637
  1064   3       20.34261662658497       18.31672605676366      22.320735559144175
  1065   3      22.357872538288291      16.175737333007589       22.44568140682328
  1066   4      20.483709218133413      20.605033909575678      11.976554412401963
  1067   1      22.279660252890825      22.239482304075125      14.160539990477998
  1068   3      22.338378382597913      22.218804410433336      12.143185221707302
  1069   3      20.234548657675266      22.271910762779854      14.351604822379596
  1070   3      22.309750410151686      20.236969827048082      14.306188969707264
  1071   4      20.468948896108582      20.112781108012467      15.789029868856382
  1072   2      22.245193199274926      22.161791056985223      18.229857283725366
  1073   3      22.358761913296213      22.334973571069277      16.322896529764208
  1074   3      20.331264077718075      22.270629121454675      18.312232487663266
  1075   3      22.387862982061634       20.28088557477388      18.377886129282917
  1076   4      20.119939417845107      20.044998563733021      20.020994029588181
  1077   2      22.297544412653846      22.128636302888747      22.251172259021892
  1078   3      22.335797015681184       22.45666537699077      20.295225642807903
  1079   3      20.333190395500019      22.348173402951986      22.410422965767562
  1080   3      22.371429182081592      20.263618598470867      22.241255931772422
