(written by ASE)

1080 atoms
4 atom types

0.0      24.299999999999997  xlo xhi
0.0      24.299999999999997  ylo yhi
0.0      24.299999999999997  zlo zhi

Atoms # atomic

     1   4    -0.17398506046842518    -0.20723608964447982    -0.11361756126020581
     2   2       1.980104660703329       1.949768597726828       2.061318617756295
     3   3      2.2290916257784077      2.0858629660311787     0.05872282597087209
     4   3     0.07957832532572294      2.2271089606321492      1.8980285454229089
     5   3      2.0245813877262915    0.082814413385275995      2.1453372881441961
     6   4    -0.22169858304092813   -0.074866947580324389       4.186068107113873
     7   2       2.052028800877344      1.9382676442942566      6.1976997604488844
     8   3      1.9904060404116231      2.2841499168277783      4.0033446636183898
     9   3     0.10375579588328571      2.3214469948958207      6.0883574962592055
    10   3      1.8530318543138347    0.064388339049632745      5.9912941529004149
    11   4    -0.28074918724795322    -0.07070330310438748      8.0166349690661196
    12   1      2.0390980873277784       2.001345280226837      10.088643131928478
    13   3      2.0457144307529549      2.0823729996281481      8.0593576906456228
    14   3  -0.0087827922984350486      2.3240591001510134      10.118814536222944
    15   3      1.8870894946110155   -0.063476625306865958      10.360895670253049
    16   4    -0.16576793817168017      3.8753580268311763   -0.040834038005579207
    17   2      1.9244255933954841      5.9829111330361862      2.0554172300105535
    18   3      2.0629681634234123      6.3677352234952753    0.062680953781283619
    19   3    0.055423664569952368      6.1115003256805629      2.1267995389942396
    20   3      2.1715120752777195      4.1286102971310674      1.8788910266339178
    21   4    -0.12531274434424586      3.8270964279477058      4.2616857062340721
    22   2      1.9773223325719198      6.0863178460402443       6.192378365880244
    23   3        2.27106562883773      6.0611406706037467      3.9789631497793287
    24   3    0.047904013335143408      5.9970434848762375      5.8927784878655505
    25   3       2.230503264215538      4.1364288898579042      6.0189775704405868
    26   4   -0.070493944913439327      3.7584601746864572      8.1659070945648384
    27   2      2.0292992181008493      5.9391714339924251      10.206988488242906
    28   3      2.0268774985981177      6.2033227308707541      8.0908588493992326
    29   3    0.054229115261542046      5.8246758341867233      10.124105981633742
    30   3      2.3079025472015506      4.0795547409277093      10.133462667495289
    31   4    -0.28469727232895997      8.0727068622344653   -0.034609942296844512
    32   2      2.0172987554572268      10.019783927527291      2.0386347709306136
    33   3      2.2041516927841598      10.173225886248265    0.027577589961467391
    34   3    0.073224582580724396      10.305980026863667      1.9716614356671378
    35   3      2.0719380816256101      8.1480078644003964      2.1459182414337299
    36   4    -0.14722888812266846      8.1410998560811674      4.4025320732108719
    37   1      2.0293335921477884      10.100197798227025      6.1089561391768967
    38   3      1.9986460435463604      10.432175909037976      3.9694126036146411
    39   3     0.01721855283613755      10.305785006966497       6.040003118314778
    40   3      1.9302936730957183      8.0594459937638803      5.7912892492205508
    41   4    -0.39113843527650882      8.2879089301745985      8.0888258530619268
    42   2      1.9995333863888491      9.9892170140837582      10.005893458725202
    43   3      2.0925632631138114      10.138422457881124       8.147839238841426
    44   3    0.096530175230379531      10.390026131002037      10.187878774429068
    45   3       1.853431467386655      8.1220895488461249       10.22099736720914
    46   4       4.177578751825477     -0.3380652113046036    0.036829768923912536
    47   2      6.0473171784631692      1.9496825658637444      2.0031216744223892
    48   3      6.0855331837678017      2.1410612294396576    0.067030104132975124
    49   3      4.0888201302713911      2.1411944346798304      2.1141815194800468
    50   3      6.1439967187675091    0.081344978661591696      2.1050405421086382
    51   4      4.1346283104730972    -0.30155820274019624      3.9626276047612663
    52   2       6.135105310002654      2.0046324889507035      6.0800892605889887
    53   3      6.1496610438371704      2.1910307302749761      4.0712133568474034
    54   3      4.0251291437462937      1.9901663252161732      5.9019560550479815
    55   3      6.1070761542794791    0.072734434539931503      6.1541402863785439
    56   4      4.2434717978574286    -0.26755105137239937      8.0826842018360754
    57   2      6.0809933149943056        1.93301180879427      10.151273097879097
    58   3      5.9262404131594124      2.1413740115917279      8.0882312268808061
    59   3      4.0890840463843183      1.8393325292376552      10.335605672764611
    60   3      6.2715316885014092    0.039470060732006512      10.051316250805836
    61   4      4.0168205660531235      3.7881311469163581    -0.11215749614845068
    62   2       5.973878964896179      6.0835819714553265      2.0727119508937863
    63   3      6.2589940986338561      6.2224698268458463    0.040476970078725007
    64   3      4.0891012171175491      6.2761697385177415      1.8928687120799452
    65   3      6.1133804880397067      4.1545115390848721      1.9892587779383988
    66   4      4.0216704831547325      3.9343231544215924      4.3059991037347309
    67   1      6.0791430391469925      6.0284603044770515      6.0469746961183777
    68   3      6.0880169946973934      6.2081499305896335      4.0055051723331365
    69   3      4.0082209728425733      6.3448908716086923      6.0677887996186088
    70   3      5.7844237436048784      4.0284624794862101      6.1044963877878278
    71   4      4.4195194445783104      4.1364815083822482      8.0869460745954189
    72   1      6.0800468097839602      6.0152497809262577      10.099577369668621
    73   3      6.0008918648595833      6.2352644531940555      8.0852443800541351
    74   3      3.9812796468305738      6.3754959540029263      10.099856954786754
    75   3      5.7546975161316993      4.0214932494810407      10.057317134524887
    76   4      3.9316156167069694      7.9097574415740839   -0.056911564690148721
    77   1      6.0463560015250941      10.117697211905782      2.0364329049524703
    78   3       6.128024341869458      10.327651929623745   -0.013508285753475366
    79   3      4.0094277862471808      10.333565592706762      2.0891339076466902
    80   3      6.3654350445961345      8.1022771976320183       2.014135400754447
    81   4      3.8677013352743939      7.9170309515519266      4.2904611152073873
    82   2      5.9687609913619095      10.086015818298309       5.984636007141237
    83   3      6.2705875021734894      10.273923853183129      4.0997589219373136
    84   3      4.0686765900124779      10.081482974030187      5.8807235338583821
    85   3      6.2474463575184638      8.1845979652069367      6.0453928106463932
    86   4      4.2657031482414016      7.7724683875597504      8.0857877639520552
    87   2      6.1857840472952299      10.111868854609106      10.088867284182816
    88   3       5.899273433997724      10.062622930228956       8.130621737606111
    89   3      3.9898743095062752      10.018700300062282      10.386320307583937
    90   3      6.0942892459850357      8.1525000840376727        10.3223784997772
    91   4      8.0131775997594819     -0.3430034154813183    0.048420828811624711
    92   1      10.122939448894885       1.997081021331389       2.037811681053411
    93   3      10.211038629847771       2.083174196031174   -0.018179671230373649
    94   3      8.0478928493237252      2.2427778556217479        2.04826233804331
    95   3      10.105130681342132    -0.01237970479805627      2.3014614502607098
    96   4       8.282483256250071     -0.1755623563937799      3.8214868222795002
    97   2      10.248375222089107      1.9046804888039925      6.0573421146311421
    98   3       9.952435851638425      2.2658110393756319      4.1540357051999832
    99   3      8.0303341823573451      2.2820366917354153      6.1354703768766354
   100   3      9.9159126657755756     0.03257286230966764      5.9647361681101501
   101   4      8.3706125434933565    -0.14085175650118212      8.3183377770338591
   102   1      10.138274114279312      2.0166020218431808      10.085601828285544
   103   3      9.9682764827905075      2.0260974459712604      8.0196678612133994
   104   3      8.0361395418149595      2.3293365065969627      10.044216662983446
   105   3      9.8790737828193418    0.012231137502528031        10.2127975935453
   106   4      7.9441853662491786      3.7573918643121016   0.0062954851376729789
   107   2      10.113110109851265       5.967064110669809      1.9563450269201512
   108   3      10.151399549321882      6.2582240830695115    0.060652976929456238
   109   3      8.1687841468394993      6.0984744373880488      2.1372539388810665
   110   3      10.251604982503638      4.0912501114140687      2.0048298202569819
   111   4      8.1314701643086789      3.7810618657864925      3.9160008545761666
   112   2      10.086101666312368      5.9810277702622905      6.0331796820123786
   113   3      10.218822868585212      6.0863007822804409      4.0853981944067357
   114   3      8.1701774795801896      6.1426972185032058      6.1046977501232433
   115   3      10.189763998423885       4.105962727290926       6.228575990508352
   116   4      8.3027556802460278      3.8086665516666574      8.1939023132267526
   117   2        10.1278047410893      5.9765744288951437      10.209408626026516
   118   3      10.140159770280897      6.3354415006970779      8.0598956448469536
   119   3      8.1340050160576389      6.1316031246843652      10.056691477512883
   120   3      10.220640367695086      4.0855032438317727      9.8762037839044439
   121   4      7.8445321214426631      7.9919412809418855    0.041399985240820281
   122   2      10.046371099806343      10.060800972653738      1.9986076159639319
   123   3      10.252902425381118      10.121335735123129    0.072899622959764626
   124   3      8.1772629109725372      10.361840236881424      2.0218657678402532
   125   3      10.074333839825231      8.1778688169697524      2.2022438969815883
   126   4      7.8344253980580811      7.9285084972123174      3.9808737831040983
   127   2      10.001471882679938      10.061466753399037      6.1810233609755949
   128   3      10.129485551747489      10.423104874143849      4.0516058947673654
   129   3      8.1095029038154216      10.380693866155697      6.1966032949280283
   130   3      10.057400836511171      8.1783911512396763      5.9203618576062569
   131   4      7.9254033154171069      7.6550164921664212      8.0459566010108841
   132   1      10.114463317683725      10.108595765985026      10.059495670875132
   133   3      10.285293365450158       10.07129600181057      8.0348347832395852
   134   3      8.0612730574464138      10.220376886745797      10.167356353041296
   135   3      10.060693676886673      8.0899248232133623       10.38531420020024
   136   4   -0.068434553102667578   -0.036261633426727488      11.842244289384729
   137   2      2.0364051710373108      2.0322752570849949       14.05001963888493
   138   3       1.947181077749943      2.0855034333805373      12.188047254998692
   139   3    0.066804938703981687       1.979271981883006      14.405544076373078
   140   3      2.1129229321037473   -0.023244484967079433      14.232388489991813
   141   4    -0.25629740605562001     0.12155560388076547      16.119476050839523
   142   2      2.0173372203372688      1.9301980739200988      18.172243845666067
   143   3      2.1725542498865846      1.9129419101223557      16.310683958293833
   144   3     0.10897098501759513      2.1528147534241229      18.297190657942444
   145   3      2.0263109721245649    0.017438535592825044      18.488352409082275
   146   4    -0.24879420486635798    -0.12760872257753414      20.123323244440829
   147   2      2.0561388299798677      1.8991382456888877      22.271493092947377
   148   3      1.9583307988203249      2.1989970039910025      20.379840056348119
   149   3    0.085588855283202439      2.1100814301526043      22.540824018963139
   150   3      2.1605983044954247    0.018428603792924443      22.314166960149791
   151   4    -0.13323375514353455      3.9061179504434174       11.92410356124701
   152   1      2.0850476346997553      6.0007951551049379       14.14142275900608
   153   3      2.0161925759034256      6.1080435843746983      12.113371293793461
   154   3    0.030829388051528534      6.1158206175897822       14.27248958676144
   155   3      2.0364556478550546      3.9595766651622157      14.408680843196249
   156   4   0.0018619633738842479      4.2062766334624406      15.781712592627663
   157   2      2.0734613357504679      6.0046544208745907      18.170710991876028
   158   3      1.9429404060466433      6.1610794802762348      16.287513822926488
   159   3    0.065564271764873255      6.0592499808336493      18.477292238048111
   160   3      2.1600256417826871       4.058008233597266      18.338348674754442
   161   4    -0.11078259629518898      3.8598278835344404      20.023870995638571
   162   2      1.9836038828160893      6.0093381737949105      22.278085893149711
   163   3      2.2172481466772322      6.0658504602372618      20.381846448273095
   164   3      0.0818804461678658       6.229240680653362      22.322011643449315
   165   3      2.0274568760006999       4.138455027522288      22.538144533634291
   166   4   0.0076664611101217202      7.6579689524679839      12.341247945327936
   167   2      2.1179822344766039      10.021283009789938      14.181120304743228
   168   3      1.9630657673136753      10.337784579368918      12.207223165014199
   169   3  -0.0016604065188106471      10.334108002918319       14.20780642826667
   170   3      1.9578396316582833      8.1314644772702103      14.167398831697133
   171   4     0.05484607695956422      7.7776885347178135      15.915543576307337
   172   1      2.0243691191619226      10.083566829037258      18.193495958711953
   173   3      2.0024995288259246      10.217213147041955      16.162271023767168
   174   3  -0.0079486154655624454      10.232894309507389      18.413865942696521
   175   3      1.9710865730149689      8.0504001799832139      18.509318066841345
   176   4    0.046105341173364976       8.120534649380744      19.929819668251149
   177   2      1.9511352212640407      10.078194326513092      22.219369319359306
   178   3      2.1084556194696673      10.312771970865908      20.356628728591819
   179   3    0.072848618338251417        10.0782173930792      22.374174228546128
   180   3      2.2464523912617471      8.1802962730347666       22.30140879030758
   181   4      3.8834810895368959    -0.07911388380210034      11.801083003933787
   182   1      6.0922140251050996      1.9848737286454881      14.136082795573637
   183   3      6.1912658573349981      2.2186888080512244      12.101415065380097
   184   3      4.0170545622839322      2.0189191197611662       14.25332716292446
   185   3      6.0718895354461218   -0.044083663935919642      14.263642692802646
   186   4      4.1743866448845921    0.071787124397492977      15.839077302811061
   187   2       6.161385215723481      2.0782898053047916      18.174891478528075
   188   3      5.9552614239690804      1.9187331975263373      16.294930664441548
   189   3      4.0458306345506232      1.9449970272148105       18.55712622992348
   190   3      6.0996047050915738    0.019631454985583295      18.504784356672538
   191   4      4.2890551389067921   -0.001039301662074836      20.131837135306387
   192   1      6.0363698371820966      1.9640070244695642      22.297808929340182
   193   3      6.1219962183280732      2.2238106041188686      20.287244877736043
   194   3      3.9946351279208576      2.2814668345722535      22.286484488611578
   195   3      5.9382298632687958   -0.037311334284570945      22.229506232384516
   196   4      4.2067816140966654      3.8478922498009691       11.87886054005841
   197   2      6.0846327899361592      6.0713429710095168      14.046594436498019
   198   3      5.9658539587327741       5.978060367395984      12.143540989064249
   199   3      4.0882946257931092       6.031570325297543      14.414689133998621
   200   3      6.0523475580382353      4.0711572136290597      14.376770268938071
   201   4      4.1797267991341318      3.9710907822644295      15.856869443872105
   202   1      6.0546919219459863      6.0147867296399147      18.229692125954688
   203   3      6.1036729195016886      6.2902746151238595      16.220755530043995
   204   3      4.0138686691735401      6.3119038867481727      18.211296132696269
   205   3      5.8946551781637284      3.9928619033135333      18.238644685390348
   206   4      4.2269238560186162      3.7710853532692372      20.175443385365874
   207   2      6.1047792191973054      5.9914896994443483      22.243710587316954
   208   3      5.9689952540815945       6.195289579324041      20.337094801976718
   209   3        4.09049731807937      6.1583753724926344       22.56085175918798
   210   3      6.1334646260242982      4.1124182573373824      22.396439593807706
   211   4       4.237743097433067      7.9423103308842773      11.911516170100924
   212   1      6.0865741155543835       10.05684957667523      14.145169877148909
   213   3       6.089963342215678      10.355242744996929      12.113811045075321
   214   3      4.0347579361912542      10.286807242483501      14.155135742072414
   215   3      6.0398552910967682      8.0418169229954213      14.130351582316869
   216   4      4.2368196162196456      7.7346589650907962      16.080526148050549
   217   2      6.0304777760670438       10.12406766892583       18.09414709045388
   218   3      6.1205813109395999      10.185949151837612      16.218692291742872
   219   3      4.1153275765073518      10.134819781698903      18.388941388634837
   220   3      6.1811189575375476      8.2097910623820418      18.394807208694242
   221   4      3.9717619197705831      7.9929626427152751      19.935360872913925
   222   2      5.9979171545318479      10.106426054814328       22.26301973970164
   223   3      6.2304905276085663      10.211612906729833      20.345937493109695
   224   3      4.1062771229681765      10.349361481835681      22.322777746497035
   225   3      6.0599707895343533      8.2024639961101791      22.418785164232926
   226   4      8.3838969696030041    -0.14341410972931778      12.052328798574262
   227   2      10.176716777248902      2.0206049996477717      14.064806663718381
   228   3      9.9346632016950061      2.1632511361824052      12.158314795501585
   229   3      8.1225434572040864      2.1684751297321014      14.294510029829977
   230   3      9.9434080771198712    0.063551766991728029      14.126847587751222
   231   4      8.2281645293519308     -0.1144588798065983      15.856305946058615
   232   2      10.193911809285089      1.9226280643897873      18.189421835093825
   233   3      10.128841310805425      1.9065151124432589      16.273015847506407
   234   3      8.1014309639936819        2.16967576899741       18.29196490666153
   235   3      9.9432046195341979    0.061847110780056266      18.426956739846378
   236   4      8.2561708673345393    -0.29079437336965308      20.265727700384065
   237   2      10.058116866274974      1.9438066324894492      22.361206534340081
   238   3      10.031915195896689      2.2672269812054076      20.265059510804974
   239   3      8.1342826285181111      2.1795433812608733      22.334456115511419
   240   3      10.153970523450505    0.064358339798014613      22.182044649906167
   241   4      8.0712908472085747      3.7486059075404703      12.105896864829102
   242   1      10.115727808763067      6.0333443579022452      14.146328971934022
   243   3      10.081001199650501      5.9263628388870284      12.107836968905211
   244   3       8.049608654135902      6.0242639702685645      14.307963015907696
   245   3      10.106944174746607      4.0094984584421551      14.464501711346678
   246   4      8.0761168480209591      3.9667704551262526      15.817629998909936
   247   2      10.044377614144297      5.9364847628709239      18.218617499898137
   248   3       10.06677415226223      6.3485830144196251      16.294666910232255
   249   3      8.1295460564872908      6.1660673419353804      18.369904284109509
   250   3      10.192068098636479      4.0506735684061388       18.14823594377712
   251   4      7.9925289999282718      3.7216494706497056      20.386571438836693
   252   1      10.039493499140937      6.0905933623755502      22.272033807322824
   253   3      10.326040911199824      6.0603915123684793      20.201474782638428
   254   3      8.0250340620255614      6.2519282857396741      22.222287003763402
   255   3      10.284085437652031      4.0606844046929362      22.338147739112483
   256   4       8.211919379088684      7.9352064828128128      11.829004276607918
   257   2      10.098869313572017      9.9814161275315811       14.08055218433938
   258   3      10.072211432196111      10.347325291488664      12.200611910786844
   259   3      8.1541388853068177      10.327938887717451       14.20226017363505
   260   3      10.070758350209106       8.120553833874995       14.08384668900306
   261   4      7.9864596290139662      7.7224644854715505      16.078162298419819
   262   2      10.113943318296752      10.041347432272692      18.149289752432349
   263   3      10.126696943401102      10.128870770811947      16.237277595676392
   264   3      8.1214693583619546      10.328714727555338      18.300777153284702
   265   3      10.010948704847666      8.1756157933670295      18.432777857917046
   266   4      7.9167612625009429      7.8495087218796407       20.09479267897375
   267   2      10.071546875665872      10.023387447392112      22.214299387546919
   268   3      10.075749541803882      10.343151493112982      20.311496883303544
   269   3      8.1393986840305033      10.175559905158902      22.467268294528342
   270   3      10.229522944207261      8.1698834675816112      22.233868664898935
   271   4    -0.30507295387716138      12.036726046111925      0.1242462060215874
   272   2      1.8700829537060664      14.132095592625731      2.0571396416522316
   273   3      2.0521899167173783      14.468977941485416     0.02265233134716085
   274   3    0.019391605887730888      14.213196474726157      2.0159467092214083
   275   3      2.1285760470097252      12.259982630649391      1.8426091157005184
   276   4   -0.023838296916870137      11.823749447167211      4.2911141442858591
   277   2      1.9901838012174879      14.134500441800617      6.2208592067311193
   278   3      2.2160741986231463      14.127338804081129      3.9742990245179044
   279   3    0.027192047983891025      14.115851321759203      5.9393120805435551
   280   3      2.2041263573235907      12.241346656953814      6.0468344868102228
   281   4     -0.2375143313926992      11.760171252796294      7.9341083914466264
   282   2      2.0053176169846876      14.085296251888005      10.281874203013921
   283   3      1.9728665402806176      14.367011570122349      8.1094932146523959
   284   3    0.010933892312407959      14.179583491892084      10.272864383437994
   285   3       2.228340737677259      12.206126902725039      10.120381087921491
   286   4     -0.3131860889760531      15.889022504344977   -0.084450560445528303
   287   2      1.9089553696443249      18.140915888923246      2.0049069104100483
   288   3      2.2749389302030285      18.189495882103451     0.05737527686084827
   289   3    0.024896228394237233      18.321623237574254      1.9339542734200019
   290   3      2.0967479533103068      16.244293681681686      2.1164000277824866
   291   4    -0.03434014166912077      16.377016240976147      4.4634950231112915
   292   1      2.0889181471193394      18.200688526887728      6.0712654051342581
   293   3      2.0173521210953034      18.438334359706342       3.945625737133633
   294   3    0.029772995572069364       18.38690352708349      5.9868187039064606
   295   3      1.9264727088692926      16.169473481930819      5.7749271525808341
   296   4    -0.27465843164313708      16.173689556794965      8.1046271977992692
   297   2       2.024651418844218      18.171124380394222      9.9645580442969628
   298   3      2.0214998591156488      18.274255549157179      8.1027607252876415
   299   3    0.089762973990617556      18.524216380936497      10.182164508749826
   300   3      1.8454257737015565      16.282530432149084      10.220425551939577
   301   4    -0.26881638616999681      20.199943927538587    -0.17873603683473771
   302   2      2.0117941034872042      22.161757327163894      1.9660001872038091
   303   3      2.0302709856712595      22.493623995111928    0.068722343027594848
   304   3    0.083254511452281993       22.36457367365611      2.1653659143043686
   305   3      2.1755278999482601      20.280607444417182      1.9536219976985414
   306   4    -0.15330585115739281      19.952815540117946      4.2410478467716937
   307   2       2.039303532853368      22.163788675685907      6.0004215403313088
   308   3      2.1805130905746983      22.329454711973156      4.0564549198355753
   309   3    0.082331358847894359      22.205460083896707      5.9897379583354171
   310   3      2.2348834089255014      20.306815005422713      6.0589713883171523
   311   4    -0.11090140639007803      19.903889901454512      7.8254553935228213
   312   2      1.9909509621446873      22.241947127772281      9.9847255723167212
   313   3      2.0115493980467298      22.432978060021714      8.0667516683971989
   314   3    0.082293640556978409      22.141123322339777      10.283181128843257
   315   3      2.2976052365706341       20.30760611422755      10.131182525004764
   316   4      4.0277170025854261      11.849515664638997      0.1747062077113738
   317   2      5.9798041987910926      14.177165016646947      2.0543692018749664
   318   3      6.3633940909049684       14.20984432065282    0.051442384718189071
   319   3      4.1072893943325024      14.324261651190621      1.8743557943184603
   320   3      6.1715142995942847      12.261839662917703      2.0482521991892422
   321   4      3.8297049805502423      11.943820794407237      4.0984552390877678
   322   1       6.049686850865716      14.145852485758287      6.0307073100160462
   323   3       6.110379609622183      14.284779428944219      4.0033773062169384
   324   3      3.9987633515547247      14.426007174999544       6.139138408043407
   325   3      5.9809753964036094       12.10651002428777      6.3315214384466758
   326   4      4.2753117753345649      12.157202178778308       8.081594748307543
   327   1      6.0466073862687209      14.084211466964156       10.16709160681663
   328   3      6.0945341972855616       14.26033994151723       8.107773518498238
   329   3      3.9653152333355197      14.491438180114576      10.053228316468941
   330   3      5.7835617130504131      12.090724341982835      10.019083327444509
   331   4      3.8923508429249334      16.132825137835049   -0.086136951871902206
   332   2      6.0078546176338143      18.316025056574276      1.9838245163210004
   333   3      6.0385134773059619       18.20252578213541    0.063928880372761829
   334   3      4.1105061369883025      18.185210090119185      2.2067398059447081
   335   3       6.375972251401703      16.222783187422177      2.0328310992645098
   336   4      3.8418205997471802      16.057006027497625      4.3114267396511305
   337   2      6.1035693617788578      18.097211549825328      6.0772891490531133
   338   3      6.3862936211497168      18.211223788660433      4.0257966110171681
   339   3      4.1496684887920736      18.154981303061888      5.7533956333135814
   340   3      6.2892480049932793      16.220626169826009      6.0845418044522974
   341   4      4.2656880525495122      15.858129546675926      8.1625094112630059
   342   1      6.0826713686087803      18.209174035665605      10.065472993313115
   343   3      6.0102683719951795      18.363747128593534      8.0026379316510106
   344   3      3.9973885223214798      18.126348744698081      10.247837865415095
   345   3      6.1859606566845935       16.20428701879791      10.151759029227112
   346   4      4.1455517968953322      20.063982020780433    -0.25705610579685279
   347   1      6.0801449909957848      22.210037780888015      2.0710555862474576
   348   3      6.1111790899007037      22.503416694033735    0.032133713857848821
   349   3      3.9966256465886971      22.535015137085974        2.04150465134382
   350   3      6.0760836216183787      20.199342982660475      2.0622408313351634
   351   4      3.9360496350238261      19.962702423089361      4.1316842120452897
   352   2      6.1841064236313485      22.209343739192285      6.0329267523836396
   353   3      6.0062911843011682      22.463389422641892      4.1224850878144457
   354   3      4.0093572325728397      22.580412332798399        6.07976408868441
   355   3      5.8679511471341597      20.318651079744537      5.9968549975665333
   356   4      4.4165538892654661      20.218917932911491      8.2880762795282781
   357   1      6.1136258918557767      22.278961647879825      10.071250849916392
   358   3       5.860616201848373      22.288366676380324      8.0146536788627838
   359   3      4.0054826899793516      22.586617037475602      10.089108819668022
   360   3      5.8608273713292087      20.263496948394042      10.135049098582474
   361   4      7.8453818404337001      12.002017009217816   -0.020648867960965895
   362   2       10.14886003924976      14.107174678025217      1.8791888646587791
   363   3      10.070538917154517      14.374691950461864    0.027672225926604215
   364   3      8.2204286309469961      14.161179981168878      2.2499206474451698
   365   3      10.313944869390149      12.207998433445221      2.0239551228535042
   366   4      7.9174047536018639      12.076427195082719      3.8932751084173289
   367   2      10.075768502418818      14.330268630484859      6.0185300058377669
   368   3      10.337292322748231      14.072275630294069      4.0967541985828388
   369   3      8.1583550372086595      13.915953529742456       6.093576434255719
   370   3      10.389467064118728      12.135722155533184      6.1666638380569374
   371   4      7.8528631613345157      12.339551863139954      7.8511905096884691
   372   2      10.108444829701309        14.0111285464291      10.090082558862784
   373   3      10.048848756637771      14.217846241417819      8.1321399274315063
   374   3      8.1510740261850323      14.174945410862119       10.21277534123441
   375   3      10.301820953697227       12.16466744161041      10.101098548716944
   376   4      7.8369176465044674       16.20832798148831    -0.17277956949127291
   377   2      10.115975267118117      18.088614899687208      2.0409587274803691
   378   3      10.370356655756146      18.209286506146963    0.077526929748564247
   379   3      8.1921326297411934      18.353541537320531      1.9086076109073928
   380   3       10.10915936602264      16.209182942031969      2.2752714999648029
   381   4      7.8895560965189047      16.050054790155713      3.9520644040554562
   382   1      10.124650044926053      18.189064724153855      6.0314648846777184
   383   3      10.006333516313269      18.487884990612958      3.9772085819535778
   384   3       8.044220506069296      18.579519743802752       6.106290612470703
   385   3      9.9460437593771438      16.171341032275738      5.9732650784516901
   386   4      7.7807872760118055      15.887138870076114      8.2960758509633692
   387   2      10.126882621500709      18.068184880785726      9.9678133563254114
   388   3      10.071119501928623      18.259060053075007      8.1075791476319612
   389   3      8.1596418572600573      18.482171352028548      10.085284072324065
   390   3      9.9867197963191838      16.214697743110076      10.237139645864504
   391   4      8.0711449398703312      20.101582436870935    -0.25433107363158397
   392   2      10.135887852361662      22.236883114193652      1.9361319072555341
   393   3      10.190554896756005       22.50860829073066    0.041193097536028449
   394   3      8.1598100161900984      22.418334064961677      2.0116516062476499
   395   3      10.291931787407359      20.303143849187279      1.9629110044600429
   396   4      8.1987353734988275      19.959544010666704      4.0783237562236643
   397   2       10.24610606562953      22.158619951111739      6.0598821596180512
   398   3      9.9957469752312722      22.237061578316808      4.1126052342330572
   399   3      8.0816649605528816      22.240181979495748      6.1574164829434626
   400   3      10.164835292041381      20.319339032562617      6.2018897411356138
   401   4       8.204260417158654       19.95809312298427      8.0501904001825171
   402   2      10.114352006297766      22.155774345868988      10.211079766770906
   403   3      10.159901318901607      22.535075034628523      8.0601669986908053
   404   3      8.1720213409104563      22.205083243582507      9.9813116127484207
   405   3      10.313000041675064      20.271537095775454       10.01488466471057
   406   4    0.039266141081150549      11.816385160722435      12.098457069308671
   407   1      1.9895904058258713      14.232271602436741      14.146684661675096
   408   3      2.0997427214580759      14.217283846172364      12.129120118774104
   409   3   -0.061759288477580825      14.159494851164519       14.13990196187148
   410   3      2.0457125294042151      12.184313432458078       14.39512763676567
   411   4     0.27648518460213367      11.999467967849778      15.931478691509852
   412   2      2.0705430376263152      14.170560335545083       18.09024479923221
   413   3      1.9677043491763817      14.300923262376124      16.247175286824163
   414   3     0.10825013587042316      14.153546025174199        18.4593646911147
   415   3      2.1449309246578943       12.24151891330232      18.282183271509076
   416   4    -0.14082308747870567      12.144689895733011       19.92559628460582
   417   2      1.9362627912088561      14.068714962223718      22.276916322451793
   418   3      2.2117520219768174      14.198766069233736      20.385705790526476
   419   3    0.067349923967133143      14.342559014039102      22.308898662558271
   420   3      2.0355139181655133      12.196477495223048      22.473305674174647
   421   4    -0.16491359437602163       16.10714647897559      12.043333323350026
   422   2      1.9954048070983026      18.195998502564763      14.040667960638666
   423   3      2.0435200653683245      18.405158752538512      12.173675213991444
   424   3    0.090992489567394641      18.399896404363481      14.294098514416509
   425   3      2.1086532938622566      16.312352378310315      14.233444164716371
   426   4    -0.39647291798631995      16.203803094806325      16.312614341909505
   427   2      1.9473215539595321       18.22495975539611      18.175764486922574
   428   3      2.1813150920388691      18.210608566667688      16.303021826866853
   429   3    0.092737704246372343      18.375710518543961      18.249436941047421
   430   3      2.0553216044346159      16.272728567469567       18.46620661411831
   431   4    -0.36485319893874119      15.945853065061845       20.02858274339545
   432   2       1.985802841369295      18.137562723113724      22.209601005639712
   433   3      2.0473268782493501      18.398072266739032      20.328400386342135
   434   3    0.061041136711154249      18.197163170904684      22.490968945265717
   435   3      2.2407255511760837      16.253924919800539      22.306242686830512
   436   4    -0.20603129538829895      20.258421048357608      11.906875636847984
   437   2      1.9950220014191511      22.237790326512531      14.090889351203563
   438   3      2.1625634109963956      22.230775814115958      12.203986518555292
   439   3    0.093312207010276274      22.231659818815224      14.232673976180987
   440   3      2.1661340144051757      20.307256010593555       14.40831478579822
   441   4    -0.28319962456027231      20.172862228444789      16.109458310612574
   442   2      2.0658945037876371      22.205435392519817       18.13870864884743
   443   3      2.0879808954389483      22.394159805958306      16.278411446539163
   444   3     0.15214784536547338      22.216479441994277      18.370336591641404
   445   3      2.2467923908378737      20.277402889681991      18.278193768212773
   446   4    -0.34449842985657081      20.317091594245802      20.175200156595409
   447   2      2.0059617520867632       22.18129935326467      22.193327709463471
   448   3      2.1573661785003955        22.2349240191596      20.332874266543108
   449   3     0.11512065267710263      22.438687068222425      22.358298310077977
   450   3      1.9791876258089836      20.284494061552774      22.526413190617262
   451   4      4.1426873818742687      11.838943131862703      12.056346390475802
   452   2      5.9595371928800658      14.164340244322119      14.189158171875752
   453   3      6.0578400068207365      14.285035730311211       12.21048809463888
   454   3      4.0714072690818046      14.195978144787118      14.372499830529662
   455   3      6.1948942091244588      12.219796356665382      14.210297366747794
   456   4      3.8647106189907858      12.074043744387467      15.881952975551521
   457   1      6.0874190667754293      14.158270043795962      18.146072170055735
   458   3      6.3550713536760179      14.204336097647115      16.152273629243844
   459   3       4.031094565899318      14.332132264801366      18.333301149566651
   460   3      6.0709626003865713      12.129404755868004      18.413248306341636
   461   4      3.9720389658836979      12.064874553348471      19.901421639500118
   462   2      5.9896967899686091      14.190847748810041      22.249914538700757
   463   3      6.0851058144876111      14.279091269951808      20.340484522134759
   464   3      4.0961458382791509      14.197959409364303      22.494615134246622
   465   3      6.2908763037650584      12.234441639006425      22.332968944518619
   466   4      4.2906666955791737       16.20361852735412      11.808829146379027
   467   1      6.0951531418987424      18.230460897265985      14.141822325649926
   468   3      6.1440332217590923      18.312949773067064      12.136648347509176
   469   3      4.0321234949017448      18.290189394775858      14.329879005950486
   470   3      6.1146673974719805      16.196395940430882      14.265885464093911
   471   4      4.0155736017606349      16.304827342231775      15.802318604864537
   472   2      6.0930993989978219      18.148206010837367      18.177385329850967
   473   3      6.0633038251220093      18.241651057272449       16.28738920316011
   474   3      4.1227842526510941      18.201983888684158      18.467565367457674
   475   3      6.2126229099073624      16.254837691165612      18.373640920514145
   476   4      4.0435857040274188      16.016999616521815      20.003573576868156
   477   1      6.0682340271974633      18.186547042384277      22.280489267848406
   478   3      6.1860411284554928      18.448699455681904      20.266770204502681
   479   3      4.0091495130285981      18.477710869604856       22.28411049618316
   480   3      6.1032235920167288      16.159206226092621      22.445115055224733
   481   4      4.2895566449183864      19.972315734658679      11.883781941702756
   482   2      6.0964671012112213      22.316624530153035      13.992649004719214
   483   3      6.0913039867247871      22.268968280575528      12.133550223866171
   484   3       4.094448015607778      22.300691553828052      14.361571743792949
   485   3      6.0896289629960201      20.329682633888321      14.350513859613722
   486   4      4.1650211484755548      20.133943478785056      15.847773050119986
   487   2      6.0806762145810227      22.252324495028763      18.158846068282752
   488   3      6.1085737011405188      22.396395376032292      16.293851373432052
   489   3      4.1016773812167102      22.454982598295537      18.356180793630823
   490   3      6.0380218023471377      20.313023760916785      18.283773281887754
   491   4      4.2270411328616406      19.944817591924767      20.258482894056051
   492   2      6.1202514394166458      22.302785276076339      22.282680918949957
   493   3       6.029616955903256      22.207144363987513      20.330265577486696
   494   3       4.043504486780698      22.201537228720188      22.543698741156042
   495   3      6.1615447624071225      20.306731217254811      22.496841485814713
   496   4      7.9703772492634073      11.865648916483071       12.24498114043435
   497   2      10.151695729013804      14.140668631728719      14.068058231857277
   498   3      10.276050653616366      14.146472647286636      12.170699656087907
   499   3      8.1872045972737251      14.324639131934365      14.122250586584411
   500   3       10.09243346181605      12.253875247420432      14.342579141739519
   501   4      7.8994659987587506      12.052566585228021      15.959276267599762
   502   2      10.154118893392551      14.094688188181808      18.112710846694707
   503   3      10.037544597760441       14.34678487774509      16.249906013358618
   504   3      8.2152259521864668      14.196262081570588      18.503649964205938
   505   3      10.193931365811711      12.208751472386483      18.239162678406906
   506   4      7.8958245672888063      12.116789638648378      19.991795847054732
   507   2      10.102541836083221       14.10747480223846      22.155668222293425
   508   3       10.27975490441715       14.21230554227988      20.294344281772837
   509   3      8.1684934447824347      14.384341513277104       22.24224360928843
   510   3      10.086494739122793      12.233164624907142      22.505535656197242
   511   4      7.7467356877754172      16.090981380466939      11.941205620108525
   512   2      10.116158684688621      18.223227045941844      14.001563491366593
   513   3      10.063049424764868      18.390538350931624      12.123996481297771
   514   3       8.169244306390091      18.265272345405862      14.353548329655174
   515   3      10.188377661601608      16.244149769320014      14.235060184559801
   516   4      7.9367276410006564      16.114739836346097       15.87622398553804
   517   2      10.148332846362223      18.105041547342491      18.154400077434854
   518   3      10.162490934524296      18.153114474107717      16.293835204236682
   519   3      8.1232326949688503        18.3909871986145      18.333108241147386
   520   3      10.029069398120635      16.241276919369817      18.427451261582224
   521   4      7.9521182076843324      15.965053958392613      20.084714890291529
   522   2      10.143252026966765      18.167776078513157      22.213533989493182
   523   3        10.0118483594396      18.419997841313407      20.313389189563178
   524   3      8.1740801822953859      18.245034300332009      22.506946649674454
   525   3      10.293438949406971      16.243061118211131       22.30339446476907
   526   4      7.7707994311817163      19.970303400781589      11.860110464690287
   527   1      10.127044322006139      22.219765978642155      14.129673514239927
   528   3      10.058613808579441      22.342009452718493       12.10518133785574
   529   3      8.0484240033304779      22.281297430486379      14.320614893702034
   530   3      10.118233349698412      20.194986921891601      14.436290457025601
   531   4      8.1147781727735211      20.220478012708632      15.792669357459665
   532   2      10.152391596765632      22.133290666351126      18.234186327154873
   533   3       10.05661791597324      22.509910432067628      16.314767089952376
   534   3      8.0687151505250228      22.317519883518038      18.396261048725634
   535   3        10.1576004378616      20.254175703407565      18.225255784207913
   536   4      7.9948108265704221      19.982819579395166      20.234575919810464
   537   1      10.129454480660792      22.228297358233707       22.26645522182757
   538   3      10.100452727930765      22.377517509202356      20.226255575768668
   539   3      8.0771336777645786      22.397700803056594      22.382904534700828
   540   3      10.066208135964398      20.218338959766879      22.588369534848834
   541   4      12.180694379964919    -0.27543821688245057    -0.12666046965924482
   542   2      14.170721127712865      2.0704585433842766      1.8924764828574514
   543   3      14.028194359676164      1.9710474089579799  -0.0063904585874549665
   544   3      12.171256671315854      1.9716925357700155      2.2824513817379719
   545   3      14.176574193554735    0.077876054806929107      2.2639550301280189
   546   4      12.164732666470689   -0.018146551849416475       3.691224855658449
   547   1      14.176909646353781      1.9687890821586049      6.0829009250379844
   548   3      14.327400494512768      2.1556479807705689      4.0539614187800552
   549   3      12.114677563050932       2.012363310752717      6.0518829374447902
   550   3      14.409076017587978   -0.041481801177950126      6.0020894976430776
   551   4      12.282643000000231    -0.26559361582529234      8.1202436085664509
   552   2      14.276256398493725      2.0056516097553025      10.057826329211879
   553   3      14.113406463918961      1.9776058238234901      8.1379168213068436
   554   3      12.174414096501492      1.9160095326048832        10.2945652694589
   555   3      14.279457723484056    0.059004244489839416      10.346915912819354
   556   4      11.902421983703668      3.9133554561213608    -0.16824725678358318
   557   1      14.151820142893902      6.0423961863965117      1.9827832868065911
   558   3      14.136594832883596      6.3090619185602828   -0.030876021139817196
   559   3      12.082851440704806      6.3260444421073903      2.0480071577892818
   560   3      13.975910551111497      4.0196512757430014      2.0658277642437368
   561   4      12.293445225604382      3.7699063608302281      3.8247459710370895
   562   2      14.182606453277137      5.9462241499006367      6.0741378532259009
   563   3      14.112530198672918      6.1361982688080747      4.1330266394520514
   564   3      12.141721395474308      6.3238481420921886      6.1328721270987439
   565   3      14.069968327069107      4.0783490393127959      6.2714684152765825
   566   4      12.320740279952727      3.8194967671316955      8.1752345814918392
   567   1      14.162628474667983      6.0608260579395523      10.081972497850188
   568   3      14.099530024913122      6.3869326032410596      8.0534832966351733
   569   3      12.097283488334476      6.3099473062342248      10.068426321641693
   570   3      13.873189171068033      4.0280291584426493      9.9987484805443021
   571   4      12.076153903689383       7.800111938382253   -0.067123837722423585
   572   2      14.059906934725772      10.116677958646735      1.9451712606840359
   573   3      14.222681877268341      10.001566608308631    0.052878684075642404
   574   3      12.172972727271702      10.170151069837308       2.176554755420768
   575   3      14.221663679136855      8.1968548447560874      2.3010975398612854
   576   4      12.181879761313393      7.7941221415188764      3.9112867258275918
   577   2      14.090658933642521      10.104690482004569      5.9816111918575521
   578   3      14.335095721154477      10.297549958990665      4.0961281894297263
   579   3      12.197185223065306      10.102241867800217      6.0022341029376012
   580   3      14.372024181420498      8.1677502964090323       5.990798584703958
   581   4      12.093662510465473      7.8241931123158848      8.1100436866246799
   582   2       14.13981655500884      10.146831721346491      10.017937399566412
   583   3      14.200113190401506      9.9035006487292883      8.1040687248675969
   584   3      12.202638364316133      10.004021724804492      10.356944432917555
   585   3      14.273247467827819       8.138995513723728      10.413433576799182
   586   4      16.270644036910145   -0.048659295851573151    -0.30100197076538382
   587   1      18.204408663026822      2.0243832596863349       2.071986421151276
   588   3      18.337511842572145      2.0957381165223814    0.035043975314987902
   589   3      16.150238237497149      2.1876421880787862      1.9972093879765558
   590   3      18.352050933672086   -0.017786936774041279      2.0895034125458309
   591   4      15.796137751381806    0.059017175675389881      3.9905332118970316
   592   2      18.240760427455591      1.8778078908846703      6.0801318848507737
   593   3      18.143979570364738      2.2785428384816941      4.0986358963104701
   594   3      16.243011352015504      2.2634830042251659      6.1332264114501056
   595   3      18.122857008621295  -0.0054583713718650154      5.9645981714799889
   596   4       16.09813247618348    -0.30436934994829473      7.8956597069415126
   597   1      18.218618280483337      2.0201873482866035       10.12182561942134
   598   3      18.269019632789387      2.0869728731453998      8.0678761039816447
   599   3      16.184097601781517      2.2794272731450791        10.1488124325444
   600   3      18.120220156846315   0.0037811643133443839      10.400365154951922
   601   4      16.445035449800525      3.7095067757280695   -0.083144375261683084
   602   2      18.074734084890498      6.0545505218261093       2.002784605086033
   603   3      18.261883771667474      6.2340216331222322    0.062391385699842747
   604   3      16.205476341006595      6.1519601257723187      2.1452832602454683
   605   3      18.342877143981472       4.150943762354153      1.9707335405043183
   606   4       16.11460952542555      3.6932651365111355      4.0203251418823456
   607   1      18.171100537356292      6.1098936370686756      6.0857182615226613
   608   3      18.424055404303662      6.0716362730580373      4.0204405586126013
   609   3      16.131381172738472      6.0792081131638263      6.2133347067865463
   610   3      18.367390171772158      4.0928621742678866      6.2330405525204844
   611   4      16.313809970356075      3.8271874485584596      7.8494852936057828
   612   2      18.076994684809996      6.0463945325745412      10.051849076327771
   613   3      18.321403444784998      6.2766556399156377      8.1787435209330344
   614   3      16.215881295650981      5.9885598079681799      10.095837500155083
   615   3      18.496260999641922      4.1389722306971377      10.024493051669964
   616   4      16.094442480662675      8.3540348991953977    -0.38419424623844134
   617   2      18.100671200111769      10.163816645963973      1.9107088010565862
   618   3      18.217444471871097      9.9356779101795141    0.051530296387922926
   619   3      16.224063716223451      10.052080837803292      2.0974538001102006
   620   3      18.294130631787464      8.1388557219207343      2.2334420032849325
   621   4      15.968272962641144       7.913429076404852      3.8639099779206951
   622   2      18.145182821701923      10.171918375929131      5.9539728690172433
   623   3      18.332814270146002      10.196258239799493      4.0689219962223326
   624   3      16.232512370626598      10.234945513197401      6.2407192371710511
   625   3      18.295258436468636      8.1787343344665349      6.0765539303646694
   626   4       15.99663623414607        7.90678589975421      7.9015859390960692
   627   2       18.20788939693178        10.0929809757409      10.085980034975213
   628   3      18.299639094237399      9.9774841451372733      8.1846729865964267
   629   3      16.231853173799657      10.191459950812645      10.228811348525436
   630   3      18.200694322599773      8.1021981390013735      10.429605889965176
   631   4      19.825223153751917     0.14591357314952499  -0.0041515293575033795
   632   2      22.183720961161381      1.9772901830599923      2.0870482708719416
   633   3      22.316169508355419      2.2284031776420901    0.053065243066453265
   634   3      20.317980452554732      2.0557687318452347      2.1198305086404536
   635   3      22.444526369469063    0.070385452281687078      1.9721383670794499
   636   4      19.953726241118151    -0.19529585032497429      4.0299628592123788
   637   1      22.225792649040038      2.0071635036177677      6.0494249116544978
   638   3      22.544540008870385      2.0240039702267327      3.9878884910534569
   639   3      20.190226917702716      2.0111325531867683      6.0014466190922855
   640   3      22.610692798402624  -0.0070562225718704373      6.0858371977272263
   641   4      20.108199905989231    -0.27229398260789894      8.1400294599540715
   642   2      22.195272743953726      1.9985113539709185      10.058975739188121
   643   3      22.366687110722363      2.0773012591544977      8.1392387961308472
   644   3      20.304973072117676      1.8877262952012135      10.265175453374168
   645   3      22.575653071110125    0.067856509717581684      10.130578791755621
   646   4      19.957236769965867       3.823871760784471   -0.058113697535554752
   647   2      22.183675382386031       6.035346589373888      2.0561408831984198
   648   3      22.485818119799585      6.1147178250696328    0.072716694777442623
   649   3       20.31327068490771      6.2393970933155236      2.0103157311830522
   650   3      22.332844754662961      4.1188813330664837      2.0956371752719041
   651   4         19.841389379035      4.0009645734589556      4.2016996196097418
   652   2      22.187557327964594      5.9870519096601864      6.1212786458651731
   653   3      22.288627030787687      6.2283605695916062      4.0506367001690258
   654   3      20.309792550597344      6.2384733988267795      6.1299252799995774
   655   3      22.251575648153288      4.0944848071870181      5.9380261528709655
   656   4      19.935890120746638      3.8988368386492915       7.978632461939049
   657   2      22.205266327604551      6.1248896291242909      10.178831071272738
   658   3      22.417056027350132      6.0071358363367739      8.0857571413855407
   659   3      20.300965603650766      6.2475751611587613      10.248893331086155
   660   3      22.200534514726417      4.0444744756340896       10.22283551650743
   661   4      19.995088076646024      8.1272019008861722    -0.18779547777649341
   662   2      22.163629623111195      10.084223659539241      2.1059153981099654
   663   3      22.463825208539291      10.091334086716039    0.022190248455601684
   664   3      20.268244404065442      10.058295943762595      2.0206940321791982
   665   3      22.476232903462666      8.1297832126384417      1.9800529530822544
   666   4       19.91950253730371       7.931965485096395      4.0742073712839879
   667   1      22.228930038130283      10.096946205082567      6.0622569973864042
   668   3      22.409362555104032      10.163000991685559      4.0027472560878081
   669   3      20.211877891234792      10.070493273197091      6.2916563845263029
   670   3      22.508622661093959      8.0461221239476011      6.1413127450306781
   671   4      20.105804402513325      8.1888815821591106       7.791028716174786
   672   1      22.273518495775601      10.088049151304524      10.160697660563722
   673   3      22.421514838974041      10.136395337275053      8.1423768811519075
   674   3      20.195883204020461      10.013553637853608       10.37147043207877
   675   3      22.507546938889764      8.0240932138597394      10.064232309804771
   676   4      12.215297355617722   -0.025195987636341084      11.775126960619598
   677   1      14.137571305073987      2.0048491214190656      14.139781989558466
   678   3      14.222853032953946       2.349062487186417      12.126747133307619
   679   3      12.091029021466696      2.0945959280505284      14.146719053403521
   680   3      14.268494511624723   -0.025044755337021544      14.109080845934047
   681   4      12.169993203844435    -0.36314569986934214      16.105880909460087
   682   2      14.178288682924508      2.0120856235175242      18.092726625684996
   683   3      14.114810950466326      1.8525742599972064      16.227337991917754
   684   3      12.112590645619486      1.9573591971664599      18.371853171141783
   685   3      14.288649192078486      0.1172706691329327      18.444268430550348
   686   4      12.145132198151996    -0.39189484269890601      20.272670630568712
   687   2      14.183108228972152      2.0311445156803654      22.132825649941093
   688   3      14.266422036956779      2.2635167605825388      20.266512635337818
   689   3      12.165740595836427      2.1469074096501726      22.241133229925264
   690   3      14.155621947460965     0.11374212756658944      22.197409665030094
   691   4      12.365975704092355      3.8104628702621133      11.903687223671987
   692   2      14.117738188357519      6.0401374413525781      14.053287786007816
   693   3      14.127046784188293      5.8691316944438707      12.181527315175657
   694   3      12.192090981622075      6.0927872597605255      14.400058537322071
   695   3       14.13028098150177      4.0999292090036725      14.512939841134299
   696   4      12.137807106122136      4.0104565767156188      15.889540249285458
   697   2      14.286274160685483      6.0213503467498724      18.280084730965644
   698   3      14.182087398564818      6.3159036158467785      16.255992289928127
   699   3      12.081879288691706      6.3318007532171228      18.140569107034541
   700   3      13.939862432503428      4.0775712484018545      18.037027593763309
   701   4      11.830015245726914      4.0551227868856659       20.43898787781465
   702   2      14.117060335604652      6.0227211371621596      22.386686599639177
   703   3      13.986114618937114      5.9660721527339069      20.249525307976278
   704   3      12.171074525341687       6.146629308500243      22.363041856438691
   705   3      14.175016242407706      4.0739541894373055      22.468887283981907
   706   4      12.104373058173788      8.0466499630601582      11.768881172034851
   707   1      14.118075402109113      10.060939060783065      14.139013081492985
   708   3      14.301933728973948        10.2757808241823      12.138112306301812
   709   3      12.068159274189194      10.293146005370605       14.17294470569991
   710   3      14.342177421641233      8.0233360582144808       14.07992831702925
   711   4      12.112304475218407      7.7620500395908989       16.18480816315061
   712   1      14.097794643394403      10.046157996588189      18.207397668622033
   713   3      14.201080056732069      10.081511598937682      16.190161840428491
   714   3      12.041453497551027      10.153769861421027      18.360129708574309
   715   3      14.254497382823772      8.0223866163866244      18.378193299328299
   716   4      12.117857024761079      7.7835908439988621      20.176351329699418
   717   1      14.072954742362194       10.06563010528262      22.280667549642303
   718   3      14.218606739837719      10.249365530760175      20.231373468023257
   719   3      12.064555840993476      10.373915624796256      22.281033479246823
   720   3      14.212495375871379      8.0342464079270393      22.112109142932944
   721   4      16.252912999917147    -0.21069570023607537      11.876143753417907
   722   2       18.10043957645237      1.9197985754252518      14.150269895141049
   723   3      18.187920633019999      2.3504431883088088      12.212315840760295
   724   3      16.215858554912206       2.203365073040144      14.285730846812145
   725   3      18.146155307017445    0.041039858057982576      13.979164029425339
   726   4      15.867006895173565    -0.19371372253442917      15.967255277081872
   727   1      18.139484899806419      2.0088449201964091      18.131085032039863
   728   3      18.487248715656133       1.973706543855958      16.119414348686934
   729   3      16.113262190812016       2.267849254392809      18.212587924200651
   730   3      18.267517766346067   -0.040711450843240751      18.296699394481571
   731   4      15.999964757765621    -0.24942236583216729      20.088356516828465
   732   1      18.202223712281601      2.0271455517950812      22.255847359541978
   733   3      18.257701342493238      2.1363853626827662       20.24789077655354
   734   3      16.130159993044199      2.0710750523234864       22.49300483097084
   735   3      18.241509827653736   -0.007201738513152459      22.443515714168733
   736   4      16.151653353131085      3.8261191885027386      12.088879221536315
   737   2      18.264449473613578      6.1504715097101554      14.166392468739996
   738   3      18.222922615376369      5.8572005445360213        12.1487034060222
   739   3      16.189806136172212      5.9061719600928786      14.271711649186972
   740   3      18.309802653818437      4.0421953359848599      14.375062466197008
   741   4      16.103657341040318       4.075158193271939      15.952796575382139
   742   1       18.17408741498717      6.0994689142224159      18.221662211671575
   743   3      18.361815092373273      6.1412308151052901      16.164278877558086
   744   3      16.155558189816595      5.8703211124339854      18.286290372567152
   745   3      18.410729068819837      4.0569087120850673      18.202059985330148
   746   4      16.530335985873172       3.804861344100618      19.959360959606418
   747   2      18.138209947688608      6.0754296998930224      22.155867511712064
   748   3      18.382291186708866      6.0148398357894308      20.295661775384637
   749   3      16.212066428480853      6.1259742665490347      22.253725966020593
   750   3      18.221324709531309      4.1333528124586989      22.503877530138567
   751   4      15.903160354858027      8.2245957132204222      12.140223849338657
   752   1      18.202307631285318      10.080145937376072      14.188381914982365
   753   3       18.20404491251405      10.351021578876496      12.157100719052258
   754   3      16.196889733735787      10.276292308544713      14.220977519285469
   755   3      18.201196708434015      8.0565153229028859      14.034770438174627
   756   4      15.774616664301945      8.2604738415589978      16.088195937943986
   757   2      18.080611904780397       10.15435270224209      18.274038470131437
   758   3      18.460669318234409      10.070245015959705      16.249379922279171
   759   3      16.212829860198262      10.157028909081124      18.162192572479274
   760   3      18.414304447780058      8.1482600120251991      18.218224242659396
   761   4      15.811849072839459      8.3804199235792058      20.343324533350888
   762   1      18.237469143258075      10.129397781198989      22.242194336115986
   763   3       18.33085663985959      10.058898223320453      20.188398147104579
   764   3      16.196905066827306      9.9752411698630272      22.187532858620031
   765   3      18.377704104148044      8.0234251377298182      22.316857094448174
   766   4      19.980799131497218     -0.1591517038187264       11.90074155486117
   767   2      22.182899351703604      2.0911997372850299      14.167259200775895
   768   3        22.5251831150036      1.9983899632214073      12.187352739417452
   769   3      20.296391991506685      1.9653435478377292      14.031333878685784
   770   3      22.463237574665044   -0.038901528322281637      14.222899864681091
   771   4      20.199059125437337     0.38217772584921733      16.467233270239852
   772   1      22.327996860779916      2.0361138310563947       18.20201511620068
   773   3      22.236632787781396      1.8420737570494794      16.144586675148005
   774   3      20.310385387916515      1.8678785759068097      18.334767389868972
   775   3      22.561087711951163    -0.05042393661489851      18.235360693097142
   776   4       19.87062999855263     0.33704456166604263      20.059903405637009
   777   2      22.228500501175912       1.967730951242141       22.25955469613918
   778   3      22.513508481544534      2.0287004340243828       20.36291319117862
   779   3      20.337344498620066      2.1296010240173251      22.298458490027848
   780   3      22.397781917463085    0.084344724436963475       22.43696255045894
   781   4      19.938330955402567      4.0319403186168286       12.09678473443528
   782   1      22.216255598308905      6.0298262094428177      14.158201001835076
   783   3      22.458455104643217      6.0868387975364291      12.097140470836981
   784   3      20.195214853349931      6.0766789963966898      14.053632620054712
   785   3      22.411826464282985      3.9726183605017735      14.218771750178291
   786   4      19.822641902784188      4.0950918173927811      16.296495338625093
   787   2      22.233411168935206      6.0044931585638288      18.156385693792139
   788   3      22.448675854564058      6.0938345080190039      16.275957893040392
   789   3      20.357340200593413      6.1946960750283191      18.237947570169574
   790   3      22.327758240211605      4.1049903330452864      18.399126699251116
   791   4      20.003875800441634      3.7995131470768895      19.876720242188316
   792   2      22.199318121598406      6.0547118654700638       22.21680690517087
   793   3      22.306801882355124       6.170919894365003      20.337458283856336
   794   3      20.308754698995298      6.0577930678012901      22.455765758509582
   795   3      22.474205259278001      4.1196822359167617      22.345160190474704
   796   4      20.049725750042903      8.1139969223609878      12.065473776412519
   797   2      22.232576364318732      9.9911261213591267      14.089269107129763
   798   3      22.395775129455924      10.210732853319065      12.206377641574445
   799   3       20.31710629807144      10.162552319964865      14.129357805250878
   800   3      22.412871044178686      8.1260523805738707      14.200541366221248
   801   4      19.863166009774787      8.0476983663320638      16.318249130791255
   802   2      22.336068525286858      10.083994458099326      18.085472444662926
   803   3      22.331938536864605      10.213912834512231      16.194245903202795
   804   3       20.38832317933965      10.036025475454968      18.294433229307096
   805   3        22.4844225469005      8.1098046146742693      18.323137629944458
   806   4      19.944757327244638      8.1880593990443327      20.083188037354073
   807   2      22.152594750301638      10.150067296525069      22.214938596441801
   808   3      22.340618879690602      10.057817935139937      20.325422810611464
   809   3      20.294116630720204      10.037095161936968      22.384676418402353
   810   3      22.348007310572296      8.0801099259031215      22.471897767050777
   811   4      12.230549932779132       12.11136759871396    -0.40583727867450931
   812   1      14.128640667006815      14.147336913814156      1.9853934544968275
   813   3      14.357255638455092      14.259105049845047   0.0056348360541545028
   814   3       12.11166859786981      14.396301220379407      2.0211003677486103
   815   3      14.374528388377042      12.081710150269123      1.9840584489559125
   816   4      11.853266279207007      12.091672494036782      4.0884908472861499
   817   1      14.104805610326361       14.12641855086617      6.0616779270967189
   818   3      14.202369283922991      14.180409840608796       4.049065368426378
   819   3      12.090641803946721      14.240271820277684      6.3371575014282655
   820   3      14.149918520209026      12.081280522414616      6.3174574235289205
   821   4      12.065085101897321      12.227479351565922      7.8499193679206538
   822   1      14.186625957594178      14.066753391348815      10.131358255252389
   823   3      14.279933936800253      14.321758059137506      8.1146917197477855
   824   3      12.079096048188115      14.411476726931882      10.051509407185655
   825   3      14.058994400719563      12.054750955722866      10.000572106773562
   826   4      12.404016991057723      15.929554300303948    -0.28564872514057965
   827   2      14.211511720517441      18.203961393718256      1.8953076274447498
   828   3      14.107652206239512      18.234673263027673     0.02054476950568471
   829   3      12.174629879426615      18.243598250450663      2.2497361860498208
   830   3      14.231046656921569      16.287616906044079      2.2306332529048873
   831   4       12.30535334209087      15.869003453765954      3.8470323987884676
   832   2      13.998327794005496      18.165314132147952      6.0220445819908281
   833   3      14.286080676168252      18.400941675103777      4.0991621036887702
   834   3      12.156334474314294       18.16168161399554      5.9910685884725705
   835   3      14.336294160040369      16.254174304022893      6.0251629463541594
   836   4      12.450294029737787       15.83353314366771      8.1618681755967106
   837   1      14.167544925240231      18.158417062060142      10.070514812699905
   838   3      14.184925655507771      18.300647365748887      8.0329904343521239
   839   3      12.085707128879212      18.211830081714229      10.187294283009038
   840   3       14.21127756521115       16.16422808767415       10.29386086213565
   841   4      11.980635212034732      20.060879296747675    -0.25488765419509229
   842   1      14.147309595861064      22.282038136759486      1.9703878710404681
   843   3      14.115211062269418      22.560648231220508   -0.046428678664909691
   844   3       12.10781047488021      22.421986818178155      2.1692533093160034
   845   3      14.083024203630846      20.228304760864301      2.1634018597674456
   846   4      12.229059570079595      20.180438698631136      3.7326653760632795
   847   2      14.289447818374573      22.219098473929584       6.015684051823432
   848   3      14.242221220741735      22.226522062843877       4.095378575080904
   849   3      12.138515833842318      22.475281953719144      6.0901754295085508
   850   3       14.01978001888004      20.280365059253654      6.1892318882696049
   851   4      12.453195312733987       20.07390401301641       8.269940862864118
   852   1      14.171329041101874      22.259420618740116      10.079309447755152
   853   3      14.082829663076662      22.503503935047107      8.0680940336639786
   854   3      12.084663806087196      22.600949703659346      10.065997856317521
   855   3      14.028077845497117      20.250927407046213      10.046865154110328
   856   4      15.797644936392661      12.326501798888192    -0.11683476434130126
   857   2      18.170278473665228      14.314294190076541      1.9387503268190631
   858   3      18.062549687249817      14.245775483818852 -0.00019699422552309359
   859   3      16.260712820895471      14.135939197364495      2.2232765329393627
   860   3      18.298254656419832      12.097592612549031       2.064173261438861
   861   4      15.850301490222614      12.401331413349004      3.9161516311835607
   862   1      18.227114113490643      14.127308312917517      6.0617434416566693
   863   3      18.503206954730832      14.137601756334853      4.0082823842721229
   864   3      16.211467525950511      14.129497095724023      6.1255146697454306
   865   3      18.413027615832803      12.095118356528449       6.249746046073386
   866   4      15.995954602051736      12.404255854542795      7.7668919765037625
   867   2      18.115371019144941      14.135133639685545      10.065626980111519
   868   3      18.221312286368015      14.321300105396597      8.1856518240238003
   869   3      16.255058947362361       14.10937714857476      10.270249770976411
   870   3      18.437771093998858      12.158807642947611      10.106546008208209
   871   4        15.8879053451342      15.951094253899855    -0.34690592846408186
   872   1      18.185577362617046      18.194801671892485      1.9849287065984085
   873   3      18.272470081070004      18.436132857739047   -0.071219516072548478
   874   3      16.159758512018652      18.454858558799067      2.0022787603646708
   875   3      18.306705465866418      16.187354866573365      2.1540457868755709
   876   4      15.907909018574728      15.848420523248826      4.0788535998004072
   877   2       18.09741253697177       18.23045352617714      6.0266245564514618
   878   3      18.360537565493964      18.304456599363327      4.0698185407940652
   879   3      16.194925777426146      18.430325025930248      6.0960362655212563
   880   3      18.280030415351266      16.247415927297414      6.0230861314344253
   881   4      16.000475369767315      15.851997152674121      7.8271249547494337
   882   1      18.240174249920443      18.175807768925523      10.102048870045033
   883   3      18.244264238248224      18.284599576495143      8.0604406735806471
   884   3      16.220735219294394      18.349834968459895      10.188900760229957
   885   3      18.192914683613232       16.13052003855147      10.392077786599014
   886   4      16.323443080199183      19.974380336416484   -0.094588608993620149
   887   2      18.054301793601745      22.315051532607839      2.0426456368104602
   888   3      18.217870076886108      22.397512707411845    0.045455273064167086
   889   3      16.192753652658055      22.235610516246243      2.0880541156910057
   890   3      18.392751671336722      20.351074707932291       1.988459783580049
   891   4      15.975065462493031      20.161889351852423      3.7645109018899752
   892   1      18.189279310664702      22.212253456030339      6.0542258080525446
   893   3      18.453012910227354      22.241338688432663      3.9995742985635463
   894   3      16.179681619892271      22.183679373046292      6.2346466168189743
   895   3      18.501930672417057      20.216206777019615        6.08128324676386
   896   4      16.092737770364305      19.798789496999348      8.2971150474331949
   897   2      18.185826917157701      22.187270792173234       10.05209423225549
   898   3      18.272676545921705      22.496861162352783      8.1243230490708847
   899   3      16.241055069694639      22.284923461566226      10.167496435973908
   900   3      18.438393023490836      20.283080625764814      10.061835791907663
   901   4      20.502487643499194      12.398756746211797    0.049482932001675681
   902   1      22.267734055517259      14.159304278415396      2.0693728545154007
   903   3      22.272874321096175      14.223061375519148  -0.0097803557240913781
   904   3      20.193567504635844      14.043145131449625      1.8394524585722734
   905   3      22.248064265845251      12.071955308099325      1.8435767396038534
   906   4      20.034987815726652      12.374915249490185      3.8468960705973796
   907   2      22.188140654619421      14.174548203271417      5.9452146098282643
   908   3      22.073005449618528      14.138827685367842      4.0789984224282261
   909   3      20.309125557776309      14.314771447517938       6.286947966781999
   910   3      22.220104881666106      12.226905048890806      6.2450669506128547
   911   4      20.312788713192834      11.907867756263903      7.7986863005550484
   912   2      22.224486801910292      14.069224528813978      10.097519113442596
   913   3      22.444457136230486      14.305801428661765      8.1870569019920829
   914   3      20.321007804673087      14.416428365735394      10.154491392581642
   915   3      22.186838595364385      12.217832248219114      10.209372715697079
   916   4      20.463201656672201      15.853700128937335   -0.098286761764781003
   917   2      22.157719943739707      18.111805413168511      2.0566174107525592
   918   3      22.279210536311101      18.446827800025655    0.036443338817876855
   919   3      20.283444684050671      18.364767659446947      1.9845259893685414
   920   3       22.25407470765143      16.244210867606103      1.9268204509237532
   921   4      19.866862725631488      16.192758709049553      4.0786642735471625
   922   1      22.212712686669253      18.193719627112138      6.0564331602376091
   923   3      22.384993070760906      18.271268539235667      3.9800334158376098
   924   3      20.229819836825254      18.135059273646853       6.238750960173844
   925   3      22.525576750795874        16.1541866986414       6.144243832498141
   926   4      19.987606709927075      16.215142839108147       7.838562089158513
   927   2      22.159720045562068      18.299308171478859      10.105093550822202
   928   3       22.46813696443013      18.252988044433582      8.1709138907979355
   929   3      20.304236072728791      18.061895205440642      10.147503313343172
   930   3      22.617925650506226      16.299508348388315      10.172987822113825
   931   4      20.030144068748086      20.071440352026073     0.12545766583752344
   932   2      22.234214867251957      22.202294778013581       2.007605315530876
   933   3      22.526987424248503      22.294710061971543    0.093313424466650391
   934   3      20.354271072995143      22.401734249458364      2.0060964148789013
   935   3      22.345915955269138      20.314284149651581      2.0965585298123299
   936   4       19.89015382898981      20.167881531199729      4.0134260391678085
   937   2      22.183767785153723      22.258824524766005      6.1158521758644708
   938   3      22.321730490869246      22.482202607587073       4.057413239521086
   939   3      20.299725174591309      22.492725422604057      6.1390172836399231
   940   3      22.298585215738349      20.326359970795306       6.062884003641047
   941   4      20.025069845543907      19.950911373581832      7.8713327014234915
   942   1      22.253651545954693      22.242340151580471      10.092490464784277
   943   3      22.407320090198343      22.419539882547667      8.0458051126494379
   944   3      20.233797697146802      22.599547797243893      10.055350020471673
   945   3      22.242693951409951       20.21441502637904      10.254459728891996
   946   4      12.192904929973137      11.810847119975932      12.017535876296991
   947   2      14.194184090257291      14.199633309684607      14.041623331809411
   948   3      14.022092735613196       14.06701497834869      12.189154397637687
   949   3      12.145846413227547      14.200882629857022      14.397069634093226
   950   3      14.150724872177184      12.251553595821958      14.424722237753521
   951   4      12.328839074420349      11.797461818852847       15.99328694159364
   952   2      14.163698953895329      14.041501884520281       18.18285240124349
   953   3      14.227795617389573      14.429972286257726      16.252200425698959
   954   3      12.153446814276739      14.408447599036068      18.234284369336809
   955   3      14.069457354309504      12.181146102422153      18.133484280199777
   956   4      12.323851780635943      11.729178374742233      20.187674016097962
   957   1      14.145057197873378      14.145583986350271      22.210994224701846
   958   3      14.142915399590413      14.248109071188875      20.185035041238386
   959   3      12.099636822596025      14.135321567940206      22.501306864166921
   960   3      14.279039506815316      12.133701874150743      22.397759553066074
   961   4      12.469118866910243      16.152726115659544       11.81418325529406
   962   1      14.158597871961579      18.194883888356458      14.150729351651362
   963   3      14.159136897107896      18.412245916554902      12.152311441051504
   964   3       12.08007046698588      18.297612199444899      14.300379757851067
   965   3      14.043611255890914      16.155318268568067      14.132137926234215
   966   4      12.306108907690557      16.218998533699292      15.871638808256275
   967   2      14.240815994840824      18.282087236348733       18.12468996531652
   968   3      14.115003347264146       18.12189038858525      16.246872238823219
   969   3      12.108259194957999      18.220446211942182      18.454376788884357
   970   3      14.192299409517378      16.309478303679064      18.448885254419075
   971   4      12.499721591138593      16.078641764302766      20.234305096768708
   972   1      14.167368974832261      18.206753130366156      22.253793354971602
   973   3      14.205305926837328      18.452890819885312      20.248726236208139
   974   3      12.116297190249609      18.469179822876384      22.229671917628263
   975   3      14.092063551743697      16.203919845757326      22.296897196400913
   976   4      12.448910164867367       19.95487290917114      11.905903211422515
   977   2        14.1124834225427      22.321686582331282      14.010344969960851
   978   3      14.087386116706385      22.178822750438279      12.128256866074727
   979   3      12.154947150764039      22.309633974228937      14.353631664653951
   980   3      14.098815711868713      20.316263499788352      14.403730969456877
   981   4      12.162253758832341      20.195002590549958      15.819401264680053
   982   1      14.119542464842226       22.24817487788993       18.22251822130589
   983   3      14.167748709696566      22.533646468164111      16.211036438866945
   984   3       12.06517198819931       22.50721304772819      18.256505949533878
   985   3      14.039386890041545        20.2237617287104      18.201664528377545
   986   4      12.380832269945884      19.971514496841355      20.192484664415272
   987   2      14.196233726103703      22.159067730108045      22.331938981904518
   988   3      14.190201750371783      22.388135312706122      20.332448566077556
   989   3      12.206783132393493      22.411978583972608      22.294876643441437
   990   3      14.254103688943955      20.292912818504313      22.377320847548802
   991   4      16.154314425129471      11.744278285017705      12.318167473154622
   992   2      18.250116401541252      14.111897145486052      14.168817990636294
   993   3      18.429025332726905       14.12235697357708      12.212238228439897
   994   3      16.202862767175201      14.234441596100897      14.233351531827763
   995   3      18.349190668224111      12.228985878601225      14.354353962555628
   996   4      15.938491707151725       11.74522431396368      15.998530399405333
   997   1      18.165605684189799      14.102432247661888      18.215726000585221
   998   3       18.19377404546189      14.410788215126535      16.162927910083301
   999   3      16.121747825861927      14.344721796203533      18.242258869162463
  1000   3       18.48695872282045      12.078430919700473       18.15863228286247
  1001   4      15.902042163797814      11.814889614138355      20.642697620424137
  1002   2      18.248545708816447      13.991319760734426      22.162280665710391
  1003   3       18.31412912547443      14.215283647467571       20.27402680420591
  1004   3      16.261817403063592      14.356220778048856      22.214935633472333
  1005   3      18.128510664993055      12.147576187783653      22.305250462954302
  1006   4      16.063284870730204       16.35016088661769      11.657793940489928
  1007   2      18.068758616222713      18.208282461383735       14.09453477459124
  1008   3      18.302245677287729      18.395075159468103      12.201959999287208
  1009   3      16.211742865315049      18.415082115558089      14.246983317887523
  1010   3       18.18988485772492      16.277873138535288       14.11822614906346
  1011   4      16.268584805914863      15.867555662936461      16.253123301904044
  1012   2      18.288350368302709      18.147664963493732      18.154687588286659
  1013   3      18.290400404243815      18.306533155561723      16.243118505336266
  1014   3      16.218208227592022      18.403386760551065      18.301930065284843
  1015   3      18.126062078288456      16.293365306773879      18.299906980266531
  1016   4      16.081354451571123      15.837008784483031      20.188053195694142
  1017   2      18.191750902176548       18.09531838611905      22.269972361250918
  1018   3      18.186481115896225      18.495495177402866      20.302428299606127
  1019   3      16.260493151510016      18.327555465116266      22.333001620360506
  1020   3      18.320488353735545      16.247920553609006      22.270682901609213
  1021   4      15.901178912203099      19.961547405538624      11.852413310136443
  1022   1      18.176647304412384      22.292160025186856      14.142334949414368
  1023   3      18.403779634649286      22.193163506757887      12.103930974205745
  1024   3      16.121438900390235      22.206665243640053      14.313499734809831
  1025   3      18.411601623106439      20.213283394134304      14.284003822662715
  1026   4      15.974667012327547      20.368573660714045      15.855097174331791
  1027   2      18.078301054737523      22.298154228001646      18.103711412809055
  1028   3      18.257129503184508      22.245994409847391      16.228710453650955
  1029   3       16.20087152909197      22.312878924440906      18.300690030818668
  1030   3      18.378627156592181       20.33632351518315      18.293499977861991
  1031   4      16.104483028766353      19.965024678623667      20.255520486315493
  1032   2      18.387123285279326      22.269739708479584       22.18875122312555
  1033   3      18.212906604546642      22.322091567129235      20.278321638954637
  1034   3      16.173396088311691      22.509315741850116      22.341036651046373
  1035   3      18.091041511796575      20.361002845247828      22.394358486412262
  1036   4      20.099816017181467       11.82152317991676      12.057195972724701
  1037   2      22.352173794886973      14.072617346420747      14.157648372337983
  1038   3      22.244700258566244      14.423158240684998      12.169094092662085
  1039   3       20.24410097428192      14.387330028541074      14.294383618533356
  1040   3      22.192715394128832      12.199922559768011      14.209125597320648
  1041   4      19.985239494635714      11.901778900237666       16.15543264125909
  1042   1      22.321904122662342      14.114440908298395      18.151561866178334
  1043   3      22.298262060999068      14.397074940659051      16.129322121608329
  1044   3      20.249137436780398       14.27323144725575      18.224854209393648
  1045   3      22.271353913407186         12.076271901542       18.43398497255642
  1046   4      20.318173540345388      12.350295054795932      19.836913060498148
  1047   1      22.273927229963963      14.100699371813707      22.238631020465562
  1048   3      22.211321458849763      14.286753571164468       20.26248124464783
  1049   3       20.18204670696214      14.181195034749116      22.496755190483984
  1050   3      22.356110393463002      12.062163650360471      22.381754684805003
  1051   4      20.009585752232187      16.084930962425418      11.986391833607302
  1052   2      22.168767019006243      18.199449796563485      14.190112207496382
  1053   3      22.464523776387818      18.256711339756041      12.195039661701339
  1054   3      20.294129788687464      18.271391790048241      14.216937262685047
  1055   3      22.443685583753883       16.30029144095835      14.197207480367224
  1056   4      20.271422532767367      15.772186365322263      16.372821142770359
  1057   1      22.255882925233202      18.257452239805279      18.206509410133801
  1058   3      22.439331648557161      18.290995888992281      16.155223774271832
  1059   3       20.19726998639155      18.285671383486942      18.417982113043333
  1060   3      22.427218041344819      16.233699805188337      18.244836314798047
  1061   4      20.485613589323897      15.852863136195582      19.925585267682163
  1062   2      22.193364783468372      18.251960623242073      22.214235448661373
  1063   3      22.386749316889123      18.283612674091188      20.324664537857682
  1064   3      20.253749924859815       18.47080270411756      22.269411611719608
  1065   3       22.22203250953768      16.318301591882737      22.456216718854265
  1066   4      19.870645056049796      20.304222159519135      12.145705158703256
  1067   2      22.178313146647483      22.326869885286463       14.09208012669237
  1068   3      22.321493296076159       22.29073428106831      12.209385040755112
  1069   3       20.31605699659335       22.25005274602249      14.289478676497708
  1070   3      22.376407716366721      20.293748116925499      14.262763257785345
  1071   4      19.973744072588726      20.358124009016514      15.986934540691454
  1072   2      22.168641081559475      22.301653966464976      18.230630734368916
  1073   3      22.474563733914962      22.253391158919758      16.255758674553363
  1074   3      20.280291861517629      22.371820956942948      18.283082958670647
  1075   3       22.34176479678105      20.327637645993775      18.337726413218498
  1076   4      20.141922289692101      20.098589878758098      20.016840557745262
  1077   1      22.243549660280877      22.297183235374632      22.275451178504429
  1078   3      22.489615248191434      22.332591756191974      20.216626820994922
  1079   3      20.232883381951897      22.247279750872647      22.352214343811781
  1080   3      22.551541319138785      20.244766305690653      22.283680486793678
