(written by ASE)

1080 atoms
4 atom types

0.0      24.299999999999997  xlo xhi
0.0      24.299999999999997  ylo yhi
0.0      24.299999999999997  zlo zhi

Atoms # atomic

     1   4    -0.17683255033059234    -0.21673075645965409    -0.10103110583397369
     2   2        1.97932896025746       1.952165973648325      2.0621851701816349
     3   3      2.2313268528983574      2.0863537215081216    0.047992524615327783
     4   3    0.075814844704356552      2.2186187470713388      1.8754825827719113
     5   3      2.0359697876265841    0.084577771217886691      2.1324209912850005
     6   4    -0.21557676275052345    -0.07638963006559181      4.1960502295269997
     7   2      2.0575365387031495      1.9445819734383893      6.2015163069543844
     8   3      1.9800322375204189      2.2767619235691088      3.9930384951538698
     9   3     0.10915110323170898      2.3124181803699049      6.0902422885971026
    10   3      1.8722553304647684    0.067835125940646127      5.9829240959954468
    11   4    -0.28992725415702647   -0.053129346895964276      8.0253471292825544
    12   1      2.0462964698880559      1.9986185269758843      10.083121687157277
    13   3      2.0749065606070141      2.0745506759029464      8.0584765133142771
    14   3   0.0015913295656919354      2.3215825519819933      10.112244410793513
    15   3      1.8920598879521597   -0.059094037068388186      10.363493374237192
    16   4    -0.16454689669718336        3.87467714169069   -0.047149250539964112
    17   2      1.9214286768178288      5.9854140778301268      2.0551751955442619
    18   3      2.0564151381752733      6.3690427110128223     0.04851178973228059
    19   3    0.047496226707616003      6.1216343508513242      2.1112393278946056
    20   3      2.1565495991853956      4.1300393119452412      1.8649203483276509
    21   4    -0.10477288335701128      3.8332807471455168      4.2741558127077797
    22   2      1.9888417064332249      6.0946524061511882      6.1977434315572086
    23   3      2.2464380780925226      6.0692062867446097      3.9658639970763212
    24   3    0.049282457579501331      6.0045433129838264      5.8725963814476696
    25   3      2.2163431259196491      4.1364994050333515      6.0028512671028231
    26   4   -0.090972512553060478      3.7805400930399613      8.1771659612193694
    27   2      2.0225734866605425      5.9436687764661178      10.211309961664929
    28   3      2.0071098254018138      6.1934236184356086      8.0908391528398198
    29   3    0.043615074187705515      5.7921970460671925      10.132138116873154
    30   3      2.3143532459024669      4.0765404987140172      10.142330055333272
    31   4    -0.28652330385154873      8.0768103906252851   -0.031687131063411339
    32   2      2.0223290744480078      10.027211910534406      2.0403583749972625
    33   3      2.1942139248412191      10.181227849409458    0.011845233793379175
    34   3    0.064914771332453478       10.30437523544969       1.954775999283636
    35   3      2.0690486938352826       8.153315793506799      2.1247642558219626
    36   4     -0.1378584278385116      8.1468559080904832      4.4028912698438596
    37   1      2.0288541470482122      10.105674995970634      6.1106103544582844
    38   3       1.985124064646586       10.43308585037467      3.9566230448182012
    39   3    0.010351660200684345      10.302910853896993      6.0273413695333966
    40   3      1.9285567748285881       8.066168350997815      5.7869697311102479
    41   4    -0.38652669370617021      8.2923164711056145      8.0669052058816835
    42   2      1.9871743255882368      9.9866581766688469      9.9902760840074372
    43   3      2.0613969518651629      10.129136739741567      8.1353257989603964
    44   3    0.082749123069669361      10.407169499238504      10.182403890659549
    45   3      1.8328925617834064      8.1110835126750818      10.209623910915976
    46   4      4.1702003465576079    -0.34165266281844009    0.058670141543211041
    47   2      6.0477085759017566      1.9505760545712043      2.0164139531185077
    48   3      6.0777120961231486      2.1504770301781724     0.07189643336736018
    49   3      4.0866893074287303      2.1502828484872798      2.1064228179727293
    50   3      6.1487012135253272    0.083499299773512448      2.0999047164483708
    51   4      4.1331725381434321    -0.30137458596585059      3.9730205115430137
    52   2      6.1376144573038021      2.0064059653737925        6.10207313143626
    53   3      6.1565094578026338      2.2047933502363528      4.0642729197787961
    54   3       4.032204435960729      2.0005462648038379      5.8779314425871467
    55   3      6.1148049802356548    0.079695677516434554      6.1392249441020548
    56   4      4.2336034807339615    -0.26984933183609283      8.0885798258507133
    57   2      6.0908189733039979      1.9440277781822579      10.167302492977177
    58   3      5.9300656082491807      2.1493767475107348      8.0847280813182518
    59   3      4.0999545129761517      1.8317969276803243       10.34685572303413
    60   3      6.3044781657321307    0.051798398920105078      10.041848938125625
    61   4       4.021675492633797      3.7812623956656424    -0.10178944537481703
    62   2      5.9670577227204475      6.0887255364494646      2.0754535482163603
    63   3      6.2354552216215273      6.2450905425113863    0.031581262341658478
    64   3      4.0809763025797308      6.2748827018987425       1.882285880314108
    65   3      6.1053731648596257      4.1656786255031513      1.9763616370398016
    66   4      4.0409087968769217      3.9426403834156729      4.3168352712942877
    67   1      6.0718155686473239      6.0429697545338108      6.0333591080673541
    68   3      6.0916146065916514       6.225184101785322       3.993971181036482
    69   3      3.9959219153331054      6.3375920210077865      6.0495008111967321
    70   3      5.7897627389349742      4.0368076869163838      6.0867196886084054
    71   4      4.4233280987703152      4.1711686433907591      8.0791759407703481
    72   1      6.1033560200632406      5.9990246373642657       10.11526450942878
    73   3      5.9713281843815347      6.1979727887688689      8.0784714521705148
    74   3       3.971736091074936      6.3661997549906655       10.10150539201075
    75   3      5.7391936042528942      4.0177448511263743      10.059510013377292
    76   4      3.9237608133230522      7.9065415957825573   -0.058037919064518578
    77   1      6.0379580200039928      10.132579017549338      2.0419539843746843
    78   3      6.1326929817545102      10.330872014173725   -0.014421445891858471
    79   3      4.0017860737372013      10.337899810092082      2.0679858881081183
    80   3      6.3510380290062924      8.1132831968020103      1.9976452249167995
    81   4      3.8681066989044512      7.9427726495050921      4.3033778701928265
    82   2      5.9554972361280329      10.079678437987376      6.0610028843021366
    83   3      6.3298260361236158      10.185165750760854      4.0869290210520761
    84   3      4.0589922175497684      10.088854848447795      5.8178720063908109
    85   3      6.2298680203746075       8.162191996763223      6.0440425084116969
    86   4      4.3072023295713384      7.8013242129680229      8.1553876297897432
    87   1      6.0994929283969395      10.086680180878414      10.038468368237135
    88   3      5.9186784692326393      10.173773330035573      8.0369367775088634
    89   3      3.9691866252347734      10.015980304546645      10.345448571583114
    90   3      6.1458380103042751      8.0743486320693449      10.255366073396994
    91   4      8.0092644759669795     -0.3470522298433445    0.055221467019123088
    92   1      10.108031690696249      1.9942785024960892       2.043233022010658
    93   3      10.223944224834016      2.0963110843967168  -0.0079255081009337383
    94   3       8.046510972467301      2.2647982889642044      2.0372357386397963
    95   3      10.103901228299971   -0.019551434916431475       2.297108469705087
    96   4      8.2797583176209582    -0.18850421540862347      3.8353892577189517
    97   2      10.246895428095307      1.9212539507372566      6.0552166911433272
    98   3      9.9489890289668867      2.2821081130314633      4.1388877921825111
    99   3      8.0364963568335348      2.2939313143849178      6.1230013821825882
   100   3      9.9240106224992015    0.046714653650707538      5.9680194300060849
   101   4      8.3378902540755622    -0.17185811848609173      8.3238995887093932
   102   1      10.128635879856018      2.0187945212557774      10.090237379441849
   103   3      10.032470464516447       2.091507945421673      8.0142829852220547
   104   3      8.0445803687611122      2.3771703945185929      10.035368713510486
   105   3      9.8524142739897016    0.014017493627373588      10.200739110700367
   106   4      7.9259864449346091      3.7692956196640766    0.033541746750552742
   107   2       10.09112539058361      5.9951818847537224      1.9923015605492858
   108   3      10.208582640006632      6.2461957075714816    0.070729439290659266
   109   3      8.1608171473638595      6.0959699230662698      2.0682029082777702
   110   3      10.286176977858638      4.1099355422410451      2.0100416076603596
   111   4       8.119309421492634      3.7830428066190538      3.9549056645794498
   112   2      10.031727305473593      6.0353724726944256      6.0691552469828691
   113   3      10.233057201629645      6.1303435459279489       4.077670379183493
   114   3        8.15277565262239      6.1331754096664826      6.1130642862393714
   115   3      10.220979435844367      4.1414499795076667      6.1787667233401935
   116   4      8.2971107279724752        3.86744199502985      8.2193496619290709
   117   2      10.101079777220452      5.9917320515340613      10.279064654365135
   118   3      10.219906044740553      6.3061821110903127      8.0415381075110339
   119   3      8.1676411421534372      5.9774387123717725      9.9463696279030156
   120   3      10.309974863130062      4.1044348158913424      9.8928737299825187
   121   4      7.8236814215762536      8.0184191389223276    0.059073831958841215
   122   2      10.065475288357501      10.098798489487567      1.9389854671430806
   123   3      10.279222884554102      10.118335243440889    0.041944592865627621
   124   3      8.2003839622912302      10.326841036861813      1.9946007933323451
   125   3      10.117127755775455      8.2005133973997939      2.1706365137492978
   126   4      7.7502110561017235      8.0722271949393694      3.9856924593447265
   127   2      10.062425173384355      10.113395181580094      5.9567741186792746
   128   3      10.136021142117972      10.349905798278396       4.077394189757765
   129   3      8.1546758676580069      10.285995292448975      6.2249686271994893
   130   3       10.11722831245166      8.1988270360469073      5.9824582865110445
   131   4      7.8239345358540637      7.7059147358950097      8.1526055666591883
   132   2      10.084209384309391      10.023152441493425      9.9846253056177794
   133   3      10.264156232982231      10.048672465698743      8.1268703493053156
   134   3      8.1732808330037745      10.273788745595704       10.13755258739519
   135   3      10.001755128076352      8.1257842115900942      10.267656068319653
   136   4   -0.072385975365146071   -0.040327957733373804      11.841257482147775
   137   2      2.0365804857877885      2.0246485908619234      14.053107029943931
   138   3      1.9559371169710709      2.1008189586783788      12.190658679287743
   139   3    0.068147704363832495      1.9981883321281741      14.409150426927843
   140   3      2.1014224763783727   -0.016535248137697998      14.235071775481595
   141   4    -0.26311055230369407     0.11800992136930875       16.12560186968302
   142   2      2.0107999638335374      1.9293028311508247      18.182444822123404
   143   3      2.1858547496398288      1.9208759829352102      16.319499483167935
   144   3     0.10564424313674746      2.1581461486543252      18.294126041321224
   145   3      2.0317350630142688    0.018955234481334907      18.490687782095236
   146   4    -0.25711596357644123    -0.12925993727331109      20.128930203640994
   147   2      2.0543461081281533      1.8976024956448838      22.275645247701796
   148   3      1.9549014854900626      2.2066653338037221      20.378139208325333
   149   3    0.081894960709305298       2.116446528699067      22.535240742391142
   150   3      2.1580304658887033    0.017749970476289578      22.305638238681443
   151   4    -0.11910653507724926      3.8984564147785488      11.909238911075889
   152   1      2.0897148637906509      6.0049310539096057      14.133686035438544
   153   3      1.9764333072950935      6.0843455095286822      12.113963500043704
   154   3    0.026803155886884332      6.1031735098738062      14.267190256632151
   155   3      2.0598334574449586      3.9609272561116686      14.422321080384583
   156   4    0.006312940847736378      4.2108288804806948      15.776774013728359
   157   2      2.0679958068456044      5.9986241982597708      18.183266743206563
   158   3      1.9552529472039444      6.1733783431612013      16.289295113934223
   159   3    0.064280977406444825      6.0496601392274316      18.476498657205219
   160   3      2.1741112398261544      4.0571815282603962      18.326315570518393
   161   4    -0.12747051385679795      3.8541283210356663       20.03708473836673
   162   2      1.9819561226871591      6.0075401606068493      22.277816910628346
   163   3      2.2130117313029838       6.063777991929328      20.373259481321558
   164   3    0.076745233244702421      6.2240517130957436       22.31159854077309
   165   3      2.0257495820009535      4.1377589973342026      22.527355017305887
   166   4    0.032356802895131501       7.657320258542339      12.348825741064516
   167   2      2.1509757128401463      10.027646388261459      14.154641867800922
   168   3      1.9317075883994939      10.288107952466614      12.203575913357033
   169   3   -0.027024683393778462      10.345211313142467      14.198960437051005
   170   3       1.900142866060341      8.1333163148277876      14.170711488017133
   171   4     0.10430825788829491      7.7977062497717187      15.913963531603292
   172   1       2.025705995318074      10.083285030629801      18.189877341688327
   173   3      1.9686339824498515      10.191838092394031      16.156533437329667
   174   3    -0.01148952293753742       10.24076619030715      18.407108489608891
   175   3      1.9620740872703488       8.051340350393847      18.502786828419467
   176   4    0.047071351010678088      8.1208947900940416      19.930122855888328
   177   2      1.9439574965499937      10.077625972067226      22.215740943513669
   178   3      2.0993327828334691      10.322165678403209      20.351814762447983
   179   3    0.064764925139115234      10.091498573048527      22.364416340473745
   180   3      2.2320836014197161       8.182725258424048      22.286061899583981
   181   4      3.8807145898292079   -0.082516833486720231      11.808473738487626
   182   1      6.0945411297055507      1.9826701201643413      14.145303067115764
   183   3      6.2115125141827905      2.2142825397210988      12.107247005352448
   184   3       4.018095602883287      2.0077034485151981      14.259924227054084
   185   3       6.087020427981499   -0.044252224219680454      14.275688532400151
   186   4      4.1721121584668079    0.065602880685637022      15.843653487052041
   187   2      6.1492203287040317      2.0876680021468204      18.185089979047927
   188   3      5.9414833812878092      1.9136866659016949      16.307389253757453
   189   3      4.0500829315706133      1.9448047867876948      18.569815797706998
   190   3      6.1043937321700676    0.018846953887516893      18.515175547577112
   191   4      4.2827368661841287  0.00073334925934229829      20.134300257202742
   192   1      6.0390935199190201      1.9648581962225613      22.306356396358726
   193   3      6.1289204064440357      2.2304847606836113      20.293371969160454
   194   3      3.9950490390684847       2.279185860514799      22.275826144921371
   195   3      5.9619904108849209   -0.038061591001204577      22.227231831979182
   196   4      4.1700761120923913      3.8574967754790932      11.859347909762629
   197   2      6.0608770628541091      6.0311435018825463      14.064607667226975
   198   3       6.063915320183904      5.9546274014986249      12.158062475314956
   199   3      4.0939755995431835      6.0777164088659941      14.389469202247154
   200   3      6.0376829274051147      4.0562493331852929      14.388122788629946
   201   4      4.1542672988365696      3.9376372772934594      15.872229335253971
   202   1      6.0577959835640609      6.0237783959137525      18.223456448526104
   203   3      6.0788171933948352      6.3222801406477407      16.214836440966504
   204   3      4.0125704451891746      6.3254425043092395       18.20681092440903
   205   3      5.8963783120201407      3.9975981351958763      18.235632790383054
   206   4      4.2204937527816249      3.7714700526577949      20.200321198470579
   207   2      6.1048748835514299      5.9968788034934324      22.250187698724993
   208   3      5.9669646594398831      6.2014697229275786      20.339529367186309
   209   3      4.0831943732923754       6.167575518546105      22.544586991019557
   210   3      6.1249965186261246      4.1159532201740161      22.392981234152487
   211   4       4.293872468637141      8.0709506031957616      11.801562271139479
   212   1      6.1067152583048587      10.072273346344916      14.166385453353664
   213   3      6.1956944138889254      10.171574797319753      12.144039185804363
   214   3      4.0516924626026505      10.201653437302975       14.19090250764088
   215   3      6.2017316380871348      8.0363946371207824       14.08791483144099
   216   4      4.1997367729370758      7.7352528802138298      16.116132780432501
   217   2      6.0352468402895445      10.127560877743099      18.094659579107212
   218   3      6.1030895910046121       10.16786435057646      16.223719555263944
   219   3      4.1157796030430367      10.128215446570243      18.397997570493015
   220   3       6.180369361731791      8.2115552031432912      18.410888780145758
   221   4      3.9773830105572383      7.9914251152533557      19.939622368350435
   222   2      5.9950506250939837       10.11425720861147      22.263668260610316
   223   3      6.2394506270653931      10.216459187027326      20.349694132415181
   224   3      4.1038524128536364      10.352013302792351      22.315481389670207
   225   3      6.0668812145863118      8.2107027940312864      22.411180692059535
   226   4      8.3732174599336009    -0.13742778024845195      12.048374691657175
   227   2      10.163218007185865       2.011540327101113      14.062508226711511
   228   3      9.9289372169645045      2.1619118987719368      12.162799242774081
   229   3      8.1251981234611712      2.1688374781712105       14.32346233386866
   230   3      9.9394257251756652    0.058426137560503327      14.141092486941512
   231   4      8.2043002931624862    -0.10905090899249105      15.855479069451048
   232   2      10.161843588361593      1.9271273500283108      18.201297705085167
   233   3      10.141647583921468      1.9158318629551567       16.29125774948254
   234   3      8.1047850443865581      2.1727323848986826      18.301153321335899
   235   3      9.9504134887886018    0.065971763967820687      18.441533366556328
   236   4      8.2334256986782108     -0.2988080096471506      20.279682684071116
   237   2      10.054457770364751       1.944139104692286      22.374433646250306
   238   3      10.035499583022078      2.2715226907872244      20.279472651438631
   239   3      8.1355848112344749      2.1893318749574693      22.346040020823697
   240   3      10.142811644027732    0.063255885210128912      22.200135604635353
   241   4      8.0563715290499704      3.7870417944979811       12.12131187855797
   242   1      10.090247169355282      6.0520411850025413      14.145324596004592
   243   3      10.104505586203073      5.9141655659230068       12.13025409074733
   244   3      8.0509519841779582       5.967575343980541      14.371447051880628
   245   3      10.113614331063307      4.0100656812123736      14.471171769197335
   246   4      8.0903861816997242      3.9936306951771932      15.834330839841764
   247   2       10.03153343646721        5.95108685972155      18.225114340163003
   248   3      10.102854220672011      6.3224229146254185      16.313808025702453
   249   3      8.1325379092353156      6.1373549595669328      18.394713159777275
   250   3      10.217251995959518      4.0594963517415898      18.172722158388094
   251   4      7.9832886614306799      3.7367392895669127      20.405481582760871
   252   1      10.034047115437335      6.0969489358799072      22.294255255839143
   253   3      10.341841492067054      6.0648685196009371      20.217096673193073
   254   3      8.0253370511512419      6.2422691035200764      22.223466889610066
   255   3      10.298472969191296       4.065511741819253      22.347214877426325
   256   4      7.7216672886782085      8.2407624410661899      11.974270959148035
   257   2      10.093487856126265      9.9872905807379482      14.035137425132866
   258   3      10.055071370823653      10.289114176808686      12.160422675814177
   259   3       8.180181056912982      10.260191138174321      14.314822985302971
   260   3      10.099757398170503      8.1279773099351651      14.175788012655211
   261   4      7.9601187384102348      7.7813947334931513      15.980909940275167
   262   2      10.122238243739805      10.036794969419137      18.140936567820425
   263   3       10.16213807770095      10.133609006808367      16.249715042294103
   264   3      8.1256196454489427      10.325826728072757      18.297683079464104
   265   3      10.027713890701298       8.166753821307978      18.444329343957222
   266   4      7.8970509318183462      7.8611455154407759      20.097050116910005
   267   2       10.07074894237561      10.040370013680297      22.200146392743878
   268   3      10.078331848926254      10.357341045233264      20.303194234874109
   269   3      8.1467388330049371       10.18308552957941      22.466388778272606
   270   3      10.241818607324117      8.1798852576505894      22.204390309824092
   271   4    -0.28740173039193129      12.015493921340608     0.13198893018741981
   272   2      1.8617166017822995      14.130125965684806      2.0545765630574695
   273   3      2.0580967387521478      14.475853850461784   0.0089885959459313977
   274   3   0.0094877905397249482      14.227240678646062      1.9816734370805906
   275   3      2.0982880673667452      12.260175702947706      1.8104600295008888
   276   4   -0.019507763407727828      11.839804564927004      4.3063997605122353
   277   2      2.0053922499308627      14.125595005547556      6.2381989120828534
   278   3      2.1792450525118392       14.13602158368529       3.960940986679049
   279   3    0.028597820548077694      14.128136725905128      5.9561775655138476
   280   3      2.1742444710231745      12.239931148906654       6.004250250400391
   281   4    -0.23142379025502283      11.763239450464535        7.93717708605495
   282   2      2.0098102524095101      14.076962298914228      10.293258327979956
   283   3      1.9850284133155878      14.358570558471447      8.1182607571772625
   284   3   0.0094050051398172976      14.182821830750553      10.253693069122743
   285   3      2.2323732290720453      12.198091951282985      10.128960860687616
   286   4     -0.3163338401674235      15.886691098504697    -0.07889545503636923
   287   2      1.9010117087565785      18.141282093350394       2.006818358780369
   288   3      2.2776720900681786      18.192179267815877     0.05296944243363369
   289   3    0.020136170109258077      18.310158221890312       1.925852373588798
   290   3       2.102414415291503      16.245191483826549       2.097651229105038
   291   4   -0.037635501494653278       16.35881724965013      4.4713263621626895
   292   1      2.0814232257500209      18.200541274477104      6.0765644094374416
   293   3      2.0219512876864365      18.430587916185463        3.94329171807422
   294   3     0.02886915781694338       18.39065790378751      5.9896973010208869
   295   3      1.9222996254767952       16.16870697738954      5.7798627230451185
   296   4    -0.27252398085309465      16.166543587530867      8.0926921402076708
   297   2      2.0268567177701837      18.164331756171517      9.9675119219452277
   298   3      2.0239804420233125      18.280991074192663       8.105510480639607
   299   3    0.091110805653165663      18.531192223706981      10.181059665921394
   300   3      1.8431440219007698      16.280855643719249       10.21356691219707
   301   4    -0.28436403021219753      20.211642523868019    -0.16725121076399646
   302   2      2.0107697360407877      22.160708056807952      1.9701313130274571
   303   3      2.0432575413670171      22.493397771434065    0.066803610184857171
   304   3     0.08934922103944952      22.375761576486177      2.1521753393887786
   305   3      2.1694711317546354      20.278769346105669      1.9511046426344565
   306   4    -0.17312504300263457      19.960366867043156      4.2524147154857213
   307   2      2.0370542605125381      22.168174042222045      6.0047325853163285
   308   3      2.1874410320416353      22.331119702299599      4.0540711955650988
   309   3    0.090800316958715849      22.215280064097499      5.9794318523161243
   310   3      2.2400637531293723      20.310457247749333      6.0539613507873984
   311   4    -0.11283079739247545      19.906704543317364      7.8288354778963054
   312   2      1.9905678400787721      22.243538685386721      9.9887946325815964
   313   3      2.0270675316321562      22.440063918588642      8.0659669456188734
   314   3    0.085582385016719054      22.144357689638355      10.278390440430966
   315   3      2.3007605182646835      20.315069549279819      10.126494851362436
   316   4      4.0024047501931426       11.85476570028036     0.16538192183039874
   317   2      5.9602655648088971      14.196789085417995      2.0416351644896737
   318   3      6.3381823120416865      14.198713798131168    0.056827421861596852
   319   3      4.0919989730648139      14.304417356634501       1.892788015513593
   320   3      6.1999601505069162      12.265294329640188      2.0624374935126926
   321   4      3.8375129622067443      11.948961524404286      4.1693764820169443
   322   1      6.0379730041001594      14.134579061842498      6.0392995610671525
   323   3      6.1642159623674759      14.263300357336544      4.0032760790056994
   324   3      3.9898912793244894      14.423331196843574      6.0911313802601601
   325   3      6.0848683886851127      12.113695819378151      6.1258693748017192
   326   4      4.4420857200221464      12.127560458466709       8.263888172894319
   327   1      6.0626340974217161      14.118990264850263      10.158738282707564
   328   3      6.0251189967356211      14.230341750918823      8.1076727931440722
   329   3      3.9627582197805991      14.480388290205521      10.079586461090431
   330   3      5.8446760213755189      12.130298127838763      10.176175177468501
   331   4      3.8732867465785135      16.148222344548476   -0.093636583094797568
   332   2      6.0012804250324061      18.314579465225968      1.9923942522702573
   333   3      6.0354454530903245      18.186492613149486    0.071635090893853962
   334   3      4.1073334328700604      18.195270169502688      2.2043404470924801
   335   3      6.3474109169795065      16.209208410322681      2.0528464925011987
   336   4      3.8172450194292527      16.069005071229153      4.3118410037151405
   337   2      6.0899070929199013      18.098886988505544      6.0906616492099284
   338   3      6.3928522290548697      18.195678387087902      4.0282644183908944
   339   3      4.1432807664148736      18.156317104128128      5.7497641985520467
   340   3      6.2778063399842683        16.2161236785014      6.0821118308401472
   341   4      4.2721838821646161      15.841318164278427      8.1829033007892402
   342   1      6.0902851395930453      18.201282245026462      10.059043753886817
   343   3      5.9909488391297891      18.368808891333103      8.0039714915189517
   344   3      3.9974411388423339      18.139058635594591      10.242427971678127
   345   3      6.1656282745920308      16.200467765765289      10.162232529020482
   346   4        4.12969511617551      20.054399647518213    -0.25668859145399686
   347   1      6.0813339286925308      22.204944755161023      2.0765036226409177
   348   3      6.1077929391681369      22.499242169824516    0.037502462700363969
   349   3      4.0025548845611647       22.53117593700641      2.0430836244867034
   350   3      6.1023883606145297      20.192049177244435      2.0622184282886611
   351   4      3.9203018492139488      19.967352819149326      4.1369755536485258
   352   2      6.1778769930163531      22.204405061970927      6.0325925281487782
   353   3      6.0171037697206291      22.469416307303604      4.1206384531801019
   354   3      4.0199798275987728      22.578906335033338       6.071962100748868
   355   3      5.8817117314457334      20.312612022058786      5.9863971743195608
   356   4       4.402866183360473       20.21544462647158      8.3092553197915944
   357   1      6.1145462627067202      22.281185135295178      10.071543556558417
   358   3      5.8693998263994809      22.301206649843607      8.0118674919459689
   359   3      4.0139361191707934      22.600463219337968      10.086683959306939
   360   3      5.8640920519155939      20.265526063562429      10.133156459354417
   361   4      7.8221297417145594       12.02094986818194   -0.012407597865042433
   362   2      10.110432358601766      14.106545186101753      1.8857358827140112
   363   3      10.142446574103536      14.359247642924101    0.038629776038432512
   364   3      8.2202036844894799      14.183626903418974      2.2010820854089412
   365   3      10.319445933615452      12.190901562658857      2.0228187177763277
   366   4      7.7594544265851644      12.113202850984386      3.9639018459839805
   367   2      10.105489703362833      14.273295660223246      5.9926372639441494
   368   3      10.282004362828108       14.01320229958926      4.1030013600778092
   369   3      8.1527709465983307      14.014111594478218      6.1819409163456385
   370   3      10.239959394676792      12.118008554954484      6.3613512712421691
   371   4        7.96762328971292      12.193586176417433      7.7761009993950099
   372   2       10.13218676445377      14.028761418414847      10.079705695086396
   373   3      10.065094031704108      14.268531934647207      8.1683588404615861
   374   3      8.1598194603809127      14.184001380843386      10.233354217306506
   375   3      10.287057401440318      12.140312210108435      10.119364609985899
   376   4      7.8325061989748734      16.230067565534856    -0.18764241761701464
   377   2      10.102055479607928      18.088619515708711      2.0368810347878483
   378   3       10.40450514137321      18.195663077091687    0.091738171633603066
   379   3      8.1929238192389118      18.292574621959208      1.8896788697648292
   380   3      10.208667814209234      16.187279794049438      2.2713974293442818
   381   4      7.8683308733373689      16.051497449296271       4.002219952629372
   382   1      10.128467678848359      18.161789205881984      6.0368861047140587
   383   3      9.9840040560341539      18.447141713289234      3.9834754637636203
   384   3      8.0416324214593722      18.551404438602169      6.1195617266553253
   385   3      10.016182918082823      16.132617032176025       5.969932138358188
   386   4      7.8207787254910617      15.794272378429744      8.1905095731624407
   387   2      10.123652783266536      18.061102357033334      9.9706233175801025
   388   3      10.070205128809224      18.237375005441471      8.1076317107851636
   389   3      8.1579370362212114      18.480744186561605      10.083913212089845
   390   3       9.982959001305046      16.207458805863538      10.252051508027622
   391   4       8.053345231402508      20.117546271211822    -0.25821596592628904
   392   2      10.132167243647288      22.225008319162736      1.9473550196256462
   393   3      10.196733791629404      22.490371722105269    0.050879874741469981
   394   3      8.1585878727254091      22.413148072789888      2.0101054312909379
   395   3      10.287591006637756      20.281775042962181      1.9821381811929508
   396   4      8.2038742907324771      19.945609680957212      4.1184959803879035
   397   2      10.242565899615188      22.154863383718478      6.0662403521066537
   398   3      9.9832986923088445       22.24188191819735      4.1146633785678679
   399   3      8.0800155704960535      22.250506770495843      6.1570698814914699
   400   3      10.152752925697383      20.311775940479922      6.1895549481352869
   401   4      8.2058071748787853      19.951547389634971      8.0641044675676987
   402   2      10.113970822008588      22.161683080871086      10.216082702203682
   403   3      10.157158789775922      22.526190226491224      8.0538716296751378
   404   3      8.1678297192426363      22.208295255028311      9.9488570865833736
   405   3      10.299785234577415      20.273734814873617      10.005796368855796
   406   4    0.049045868164907379      11.819546333778808      12.097251723829139
   407   1      1.9998336519164084      14.211415189813783      14.144505754172265
   408   3      2.0636926217697518      14.222047271380882      12.134872119555318
   409   3   -0.056826853450745798      14.140363328685025      14.151587668275974
   410   3      2.0550032953283726      12.156795355208077      14.391673919006076
   411   4     0.28736441446147276      11.958986673284103      15.944310927134241
   412   2      2.0696395069525533      14.162761703948146      18.082585359396898
   413   3      1.9762908972572615      14.285640077816245      16.240636032047519
   414   3     0.10595829261436121      14.153641974704188      18.449911412765037
   415   3      2.1438093364710928       12.23660960759849      18.277813416420269
   416   4    -0.13888660837094782      12.141545623190009      19.920199724912202
   417   2      1.9292868586876954      14.071789774786714      22.273715878075354
   418   3      2.2003732202208659      14.204693719557994       20.37927081061985
   419   3    0.060572584186166609        14.3441559014534      22.308175493814225
   420   3      2.0368964142164208      12.201357007430396      22.466402327482374
   421   4    -0.15433827376771297      16.105239741593209      12.036919861861769
   422   2      1.9983640222960095      18.183795302177394      14.042106453679263
   423   3      2.0401482887402791      18.404122192598017      12.173253344448575
   424   3    0.092839899901569767      18.407622969809331      14.292919486934158
   425   3      2.1019478002426677      16.305278350598801      14.233599764981427
   426   4    -0.39634079628449859      16.204679479443776      16.313123956789841
   427   2       1.946734393749874      18.221064669113716      18.169470202472279
   428   3      2.1758547556098815      18.221340984194473      16.298370321624848
   429   3    0.092240947963939543      18.377420851136485      18.250093567058897
   430   3      2.0539715526986195      16.272463006133961      18.456894519290806
   431   4     -0.3625539246785891      15.944029417002195      20.023629687526469
   432   2      1.9763826518854299      18.142081907192395      22.206381891632635
   433   3      2.0481920215330618      18.402278344751192      20.325048718161671
   434   3    0.056870971380569846      18.198442562542763      22.482675171721183
   435   3      2.2374182457112703      16.258783458699018      22.298793795869351
   436   4    -0.20273007911659563      20.252628593165845      11.908208587988264
   437   2      1.9950646040912217      22.232091895132488      14.092377697541464
   438   3      2.1621436343422644      22.238649453891458      12.202999835356074
   439   3    0.094498272578882381      22.227704518346496      14.236107515963392
   440   3      2.1700543019734773      20.311361711837485      14.403280275860347
   441   4    -0.28147296694359453       20.16598026748677      16.103270813914484
   442   2      2.0623305306703865       22.20270412843707      18.139465486870094
   443   3      2.0958260321217219      22.399283628020665      16.278668537388175
   444   3     0.15076506190135291      22.225060874376855      18.364434142932229
   445   3      2.2441696540667611       20.27962715470273      18.276713720034753
   446   4    -0.34684178742153626      20.314053291831016       20.17562893543727
   447   2      2.0034363468010299      22.182755670860455      22.193846202239779
   448   3      2.1520929223374154      22.234354099975622      20.332620014534857
   449   3        0.11518160914273      22.436322134982081      22.359713669848279
   450   3      1.9858480929537601      20.284913798522521      22.525180017530882
   451   4       4.281686253802989      11.793353505125582      11.937997207747815
   452   2      5.9722606022995599      14.147339096902796       14.19345623941606
   453   3      6.0799121911167786      14.297257322642091      12.218641206910748
   454   3      4.0756723888992692      14.188896225897615      14.372030082150667
   455   3      6.1797015681762844      12.203110687000185      14.201982798911306
   456   4      3.8923771361719028      12.077175407386141      15.860977474456401
   457   1      6.0868445472240706       14.15101751088334      18.145352330888965
   458   3      6.3264422858482785      14.209315663766144      16.155150980698977
   459   3      4.0286553699613146      14.328380913023903      18.335193554560309
   460   3      6.0626860348937175        12.1262218335842      18.424332915344355
   461   4       3.969125503047219      12.056872656445599      19.902400620166194
   462   2      5.9859820449533423       14.19462861885712      22.244210442184464
   463   3      6.0973776244769837      14.281210061827089      20.339113812469225
   464   3      4.0946183866196186      14.203814006327313      22.472170001651957
   465   3       6.291015887082402      12.238291837878762      22.334822978461432
   466   4      4.3340174192437235      16.210106339332299      11.821762454035529
   467   1      6.0969292430930038      18.223068668999606      14.141218990237064
   468   3      6.1293161719602924      18.322780672598981      12.135759661797648
   469   3      4.0294360229423756      18.291489752342521      14.326925734555116
   470   3      6.0929309546520471      16.194327504463033      14.278764227753065
   471   4      4.0423672383201721      16.282237330862426      15.792939943734721
   472   2      6.0879483032470256      18.145357891752163      18.176779700436381
   473   3      6.0528767097028604      18.253085438143131      16.288502035728914
   474   3      4.1196031587092357      18.208645666984406      18.467694340621581
   475   3      6.2078547362444478      16.254428161105842      18.371914963056071
   476   4      4.0314554211088813      16.010663429985158      20.002719618791751
   477   1      6.0647300010653904      18.187745632223962      22.281859159491724
   478   3      6.1860940316697759      18.445327092396372      20.268311946335182
   479   3      4.0090191464506093      18.475448490262515      22.283295422204308
   480   3      6.1090712055106575      16.159533285994602       22.44620703109306
   481   4      4.2966159123286616      19.962285604582128      11.890790116562334
   482   2      6.0967620153657158       22.31330353799931      13.992546675263593
   483   3      6.1085457260145741      22.282583603995246      12.132789489226225
   484   3      4.0956640441613441      22.315694855117869      14.352637298947377
   485   3      6.0849125667337649      20.330746426850844      14.346536348480857
   486   4      4.1654038608788575      20.124316870100735      15.850017642445515
   487   2      6.0763263814396957      22.255302313245885      18.162973799457472
   488   3      6.1014102699472668      22.394778771734959      16.298536089863738
   489   3      4.1034509569036048      22.453712817807119       18.36844099375767
   490   3      6.0487176221854053      20.313830890325317       18.29419595864864
   491   4      4.2181053242573521      19.939723173768201      20.260463373624368
   492   2      6.1102910225568881      22.302874446006971      22.290101792866867
   493   3      6.0503730946612588      22.201062948695309      20.335914993343984
   494   3      4.0481607739129757      22.203848560005433      22.532773637117298
   495   3      6.1694721844477636      20.300108243547314      22.502876685673357
   496   4      7.7683391594204245      11.901648902946075      11.934022740147393
   497   2      10.149924440322453      14.118421194763872      14.049598895438743
   498   3      10.244966440890202      14.164432324144334      12.170722328285962
   499   3      8.1848855027855922      14.329547171111825      14.159301228145852
   500   3      10.096554654283338       12.23948204321489      14.376850194629373
   501   4      7.9599439292509402      12.029821433147319      15.906373880802509
   502   2      10.150684584853391      14.094005211495499      18.108577353189414
   503   3      10.049587864801254      14.352112985447022      16.250872263589745
   504   3      8.2126304648166695      14.202065249483237      18.491265231289571
   505   3      10.190994938110375      12.209903857837389       18.23966156955802
   506   4      7.9003025100801194      12.114145506305499      19.984183310129879
   507   2      10.104066795547897      14.111594660925128      22.152560154509388
   508   3      10.263919921417461      14.221553465947332      20.291869237998487
   509   3      8.1743855870998559      14.383595959597791      22.270678552915808
   510   3       10.09322045374388      12.236695388817004      22.499676445146772
   511   4      7.7804476576429318      16.065163408055131      11.904901637378746
   512   2      10.112224046384405      18.213155775220066      14.001290866538586
   513   3        10.0587404931252      18.389421082143091      12.122519673368267
   514   3      8.1651438166881576      18.265103248353764      14.351289057365557
   515   3      10.185162760786493      16.241148817635281      14.237757444843743
   516   4      7.9385928343021019      16.098545365129215      15.872311270173524
   517   2       10.14446218287423      18.106832567412724      18.152213072537887
   518   3      10.157393622733332      18.157858960673146      16.293916473595328
   519   3      8.1206080225702326      18.385937597563299      18.333883495950129
   520   3      10.034129804099374       16.24313703416075      18.428040975762563
   521   4      7.9533475319169815      15.966925433530431      20.073845715964563
   522   2      10.141786777122457      18.176294137043843      22.209471469618002
   523   3       10.00337894702654      18.406460171076539      20.317254017693791
   524   3       8.176670643948178      18.224427537826944      22.537208544589426
   525   3      10.302672589336817      16.241556333063397      22.328501988269235
   526   4      7.7748903570786139      19.961775279501584      11.863800012189509
   527   1      10.118553090979958      22.216593318916129      14.126798299429908
   528   3      10.022001040922614      22.333895313812992      12.104951166200857
   529   3      8.0459712820462119      22.278596278987763      14.337802999786698
   530   3      10.112509363129938      20.193957390531303      14.435669327192173
   531   4      8.1162554413791757       20.21579227756834      15.792312183866906
   532   2      10.148750072094982      22.132874903475049      18.240175511497387
   533   3      10.064656799977202      22.509053771356044      16.323737865080659
   534   3      8.0712642081332344      22.321621474149488      18.398963509135207
   535   3      10.151070654839897      20.252876574835739      18.240035036681846
   536   4      7.9739237322772931      19.994827901451835      20.216915172740681
   537   1      10.119947167972631      22.218989112370782      22.280229767320176
   538   3      10.097832869323035      22.383243362406887      20.239862716816713
   539   3      8.0762063289597439      22.382050770551999      22.402906863457549
   540   3      10.064366602308658      20.205178578481782      22.597475888180522
   541   4      12.171640472298407    -0.28528401569892164     -0.1010667033123324
   542   2      14.153335496862233       2.071548691080658      1.9032023428563056
   543   3      14.011823749532391      1.9905172757626126  -0.0047363795124338469
   544   3      12.163279708233539      1.9781335316697881        2.29657726060127
   545   3      14.163647886952129    0.072278968482614184      2.2525616220812017
   546   4      12.160241396126336   -0.023656795763655286      3.7002904772022207
   547   1      14.166870585050349      1.9800522264449261      6.0728759635412697
   548   3      14.380973803652925      2.1120195910593083      4.0440637141327178
   549   3      12.113170648822351      2.0098854782414826       5.997140983677026
   550   3       14.41089351346038   -0.039940299570859199      5.9831790742362445
   551   4      12.255914613139373    -0.24585115324388918      8.1182601371416592
   552   2      14.254961254482888      2.0406000227250103      10.007924149867234
   553   3      14.121060876553827      1.8899435919263248      8.1191026316634183
   554   3      12.167739109065959      1.8974593756989275      10.281019638504837
   555   3      14.258540052100845    0.067194443728464948      10.374516837844109
   556   4      11.866674441783353      3.9397960765883298    -0.11965815892572526
   557   1      14.156356485362979      6.0352095641491612      1.9989053562936743
   558   3      14.113017050563329      6.2667521602547094   -0.013141230344103364
   559   3      12.099900304121251      6.3330121906492414      2.0645953293887001
   560   3      13.984211195681574      4.0163049239202619      2.1005574539088738
   561   4      12.197191073688144      3.7917870964924836      3.8211604526619389
   562   2      14.136955294819716      5.9387451123456723      6.0651965842081781
   563   3      14.181697704866563       6.163901478335764      4.1296982393877029
   564   3      12.183663171731538      6.3339695999407528      6.0842752752779621
   565   3      14.117682261025665      4.0681507554421614      6.2518607903366652
   566   4      12.162201265926203      3.8741538857033317      8.2154630085654308
   567   1      14.174429946590514      6.0661803128147378       10.09834987347476
   568   3      14.116681999419185      6.3477975958225121      8.0570939365329632
   569   3      12.080189193435681      6.3654582144650993      10.099635000084589
   570   3      13.849879094400784      4.0198894618028937      9.9912001840252405
   571   4      12.068381226403929      7.7880146073628582   -0.015686602003326052
   572   2      14.080848112460574      10.092959540646275      1.9299844962429558
   573   3      14.236918597628845       10.04564808713433    0.043190904485321015
   574   3      12.190942360721909      10.166789459029216      2.1823595292345503
   575   3      14.250972948368444       8.191305272056228      2.2695023998981303
   576   4      12.154365985914247      7.8022858585876484      3.8930445589926626
   577   2      14.099360790348051      10.094693749540722      5.9770778946589447
   578   3      14.306552478044978      10.281189645304842      4.1030692364129937
   579   3      12.195243127516351       10.13304821347139      6.1141203394919961
   580   3      14.402981678695111      8.1665477930448205       6.022785276940108
   581   4      12.166049666717061      7.7983529512550893       8.115042167260011
   582   2      14.283932802584854      10.104676902569407      10.028467599128547
   583   3      14.178258045775042       9.950742083301046      8.1241328199153475
   584   3      12.123247118206468      9.9886602486198921      10.363863284239022
   585   3      14.212463722795519      8.1625846798958772      10.407204733470762
   586   4      16.262860703256866   -0.052749027648182421    -0.28904157096317212
   587   1      18.203520625100882      2.0212003527123179      2.0701825820908559
   588   3      18.350030975222296      2.0980616712166271    0.033531350625765288
   589   3      16.149004623922668      2.1937132042600456      1.9604545605516439
   590   3      18.356417051831517   -0.018102077717334995      2.0787650277794585
   591   4      15.794445478568971    0.079851383638318063       3.991454738371329
   592   2      18.220633344786926      1.8861366269350335      6.1061278601625073
   593   3      18.124287736318614      2.2843324519623902      4.0956794778598695
   594   3      16.250623377044011        2.24486025827937      6.1685822979387162
   595   3      18.151593100703671  -0.0023941106846563152      5.9304726167966448
   596   4      16.030698613087502    -0.25288396990297524      7.8806186444596094
   597   1      18.205256657385569      2.0158771737602978      10.116130107683309
   598   3      18.375656782825583      1.9988895575278649       8.072640339336747
   599   3      16.167061114555761      2.2131032779595419      10.204065294832031
   600   3      18.122909150561942 -0.00043445228368988923      10.389746854171088
   601   4       16.44056317207983      3.6983527604647257   -0.074066457856350243
   602   2      18.086197934131711      6.0414639596909998      2.0017560721791154
   603   3      18.280392232946689      6.2186846446563369    0.058044482096812178
   604   3      16.215229450389231      6.1388356870351135      2.1284792498326275
   605   3      18.344519074648623      4.1435222156199032      1.9643240141204239
   606   4      16.105614813541624      3.7022539420790541      3.9698444781765305
   607   1      18.187937922356955       6.090011981331843      6.0659295233003672
   608   3      18.415182743689858      6.0851202101675632      4.0147901515045135
   609   3      16.148313119291025      6.0504051654826716      6.2445310331616612
   610   3       18.34166253738244      4.0793130683409089      6.2754998008097411
   611   4      16.270006486144393      3.9838022123481682      7.7441494401412072
   612   2      18.061561299081287         6.0109998410448      10.081051794558466
   613   3      18.298853563614404      6.2595305706168576      8.1801931197205811
   614   3      16.211549449245009      5.9319285846723142      10.126427264081318
   615   3      18.494714112366793      4.1085626419745545      10.019887077366443
   616   4      16.135304052801125      8.3675761656569634    -0.41226360786076793
   617   2      18.109307671607279      10.167235029720226      1.9102532848479894
   618   3      18.209783520119188      9.9586896214533009    0.049864724346215229
   619   3      16.223722921157115      10.097943161193873      2.1128425055893185
   620   3      18.288631638467482      8.1445962968781789      2.2157818094656365
   621   4      15.984010757416373      7.8773680592863053      3.8702060150710795
   622   2      18.174366458588192       10.16053568547799      5.9576239316201898
   623   3      18.342631328747665      10.173674546838306      4.0745958268400404
   624   3      16.231728433658418      10.237754396918646       6.247027458350054
   625   3      18.247471268658689      8.1634782426479102      6.1232594282437409
   626   4      16.095213399730106      7.8715946213216066      7.8387752060566509
   627   2       18.30545013299718      10.006453690280006       10.10697448415263
   628   3      18.263479700906174      10.019691934066438       8.188269078381925
   629   3        16.2157566256639      10.289424957918124      10.213201086944588
   630   3      18.177662077061299      8.0992000632837264      10.349574250685304
   631   4      19.819202027756926     0.14116325358035245   0.0045712360702512148
   632   2        22.1904390785121      1.9724675745333231       2.086322415479323
   633   3      22.300107711295638      2.2328863956682632    0.047304000179233315
   634   3      20.322004668263521      2.0722740347674806      2.1445798280395265
   635   3      22.433651218909507     0.06722190793907537      1.9594429496088086
   636   4      19.931874811410566    -0.16971447159568473      4.0759694732842862
   637   1      22.223648449360539      2.0091234687780797      6.0447239103255797
   638   3      22.555921760454314      2.0217288428731068      3.9820062433448373
   639   3      20.189962824603864      2.0407765730499201      5.9153759750547712
   640   3      22.602546263672679  -0.0075588573863966581       6.081095638035193
   641   4      20.062485383690653    -0.23496705417199548      8.1685822717825172
   642   2      22.193720674569857      2.0035590059450663      10.060423923271305
   643   3      22.356232020346017        2.07278375522991      8.1361568314371908
   644   3      20.309453491184353      1.8695089524079433      10.273331013616561
   645   3      22.590672724893501    0.068519670691976856      10.121335285176594
   646   4      19.962589986037898      3.8226963878361357    -0.06276987261122563
   647   2      22.189377041564104      6.0309750312421455      2.0508943113032503
   648   3      22.475321715284878      6.1175870277893969    0.065941035508920609
   649   3      20.313795777658896      6.2576950611849789      2.0129445207068764
   650   3      22.329583941898267      4.1196833747981003      2.0937170760780512
   651   4      19.879086595140212      3.9173781826035383      4.2064765315189616
   652   2       22.19859390629389      5.9880317402569849      6.1138221687183281
   653   3      22.273547697583883      6.2378463597309937       4.042159629481473
   654   3      20.310062748340712       6.242897662751453      6.1455815730723424
   655   3      22.259341260899323      4.0949613019117486      5.9196807979131449
   656   4      19.935290147699025      3.9115479837456535      8.0132653274341532
   657   2      22.200081578006333      6.1384358057739075      10.174067545490017
   658   3      22.448567578593707      5.9999006030263144      8.0667324138570997
   659   3       20.31451479900074      6.2133628326235923      10.115215865506446
   660   3      22.219898121249784      4.0361418861077878      10.208108883471281
   661   4      20.002536639263784      8.1251993060509751    -0.19009168322921108
   662   2      22.167838873471357      10.087481335768066      2.1072803027621654
   663   3      22.457058117130575      10.098413790531989    0.011579487307108505
   664   3      20.267911367480082      10.059692560645427      2.0130568159104838
   665   3      22.467724104179219      8.1353309090646828      1.9697555069868802
   666   4      19.940329939218959      7.9075375674863322      4.0350781351945946
   667   1      22.219092869581761      10.093340125718832      6.0558024701950606
   668   3         22.391122085027      10.166161900809339      4.0009151091032438
   669   3      20.198262009936101      10.058631721147837       6.299315322647085
   670   3      22.504894312658024      8.0466656640364445      6.1317633314506006
   671   4      20.064635300836514      8.0997642468777649      7.8066547044909891
   672   1      22.286330055956611      10.074831877532061      10.156139324435708
   673   3      22.416690692904734      10.158914021666476      8.1325121758742114
   674   3      20.214901229124695      10.129806442959694      10.251734666406769
   675   3      22.540036859451728      8.0230323269721442      10.034202735062713
   676   4      12.252785089930208   0.0062537345017948526      11.777266194813535
   677   1      14.123211748068945      2.0039993257816762      14.148882476305305
   678   3      14.197440660216856      2.3484960378128412       12.13968934486593
   679   3      12.078900757163629       2.083246538405779      14.180949957568322
   680   3      14.263615095035613   -0.023470636946958105      14.115834198084835
   681   4      12.144406993743079    -0.37593445999228792       16.09187676223522
   682   2      14.124089429856285      1.9670855601278705      18.131784835461016
   683   3      14.174178837830622      1.8878845941489055       16.24131484519917
   684   3       12.11821129160283      1.9608866593005925      18.382617973358474
   685   3      14.312508653047207    0.097840865087697154       18.42609008281255
   686   4      12.096674216776352    -0.40442540371813085      20.309593544272122
   687   2      14.166452788079511       2.026029777261984       22.14822334620656
   688   3       14.29778750692936      2.2477591458826738      20.264160118578143
   689   3      12.161373560344661      2.1200450019269979      22.219747524456334
   690   3      14.167167133107817      0.1099872277445407      22.210267883839549
   691   4      12.353301455137247      3.8196112651780187      11.929580045756088
   692   2      14.092196676378208       6.022854273582003      14.082193544336869
   693   3      14.018497612063815      5.8454414784992643      12.193945811481141
   694   3       12.17503663637639       6.097913679169654      14.410477210757298
   695   3      14.130468901116695      4.0928424902759559      14.507535514719756
   696   4      12.071840644201661      4.0106951248054781       15.90376730471205
   697   2      14.226699919361096      6.0155204172969965      18.310500395820334
   698   3        14.2324439947124      6.2929745559263219      16.218306514698185
   699   3      12.121442512899021      6.3340140711418087      18.147679225613341
   700   3      13.964444573427624      4.0784621775580616       17.99669549785018
   701   4      11.805951480163637       4.056713166364494      20.466697781969224
   702   2        14.1243197679793      6.0231702166317387      22.415851388805937
   703   3      14.029608921916086      6.0071181040733999      20.246018839778579
   704   3      12.182826860904886      6.1822667407916425       22.31610050138497
   705   3      14.161894208861348      4.0763365392948661       22.42902686079605
   706   4      12.345380330622771      8.0234940815952651      11.849558461113348
   707   1      14.108900526160886      10.048839011659066       14.14476987616845
   708   3      14.206328205108225      10.331219685542964      12.143487365354449
   709   3      12.064709414969672      10.275377028080264       14.20644085424739
   710   3      14.334928488873222      8.0161995078157879      14.055781476762647
   711   4      12.061405883396795      7.7880862629998111      16.158993445410342
   712   1      14.087167513314009      10.062583089175611      18.204144997043322
   713   3      14.239870763738461      10.078017864277825       16.18431201671067
   714   3      12.049229800189826      10.161821802581557      18.365792828290431
   715   3      14.342674673654139      8.0398255954816609      18.280202490234899
   716   4      12.044039952329255      7.7833342532854006      20.273729408185059
   717   1      14.078566736273327       10.06829735535247      22.277237279966904
   718   3      14.227124330473961      10.237140212476113      20.226846497985626
   719   3       12.07305153096357      10.386420204352961      22.258243384884508
   720   3      14.249429230865918       8.034480379315541      22.140170873645886
   721   4      16.205525522235995    -0.14094256961878868      11.825627200306045
   722   2       18.09950825183471      1.9015701437323782      14.146072407157774
   723   3      18.196614061834349      2.3232238148457096       12.21607830924637
   724   3      16.227434143313918      2.2262727856892517      14.278120483051179
   725   3      18.139198164907643    0.035327115997896688      14.030014681890719
   726   4      15.854867286519282    -0.20815148467727854      15.982357500537299
   727   1      18.116879547062734      2.0093325881946007      18.147483961460608
   728   3      18.480054610855667      2.0289720026324365      16.117228782822657
   729   3       16.09839076290254      2.3219546723248627      18.191472967296473
   730   3      18.274562446264753   -0.036344714547259654      18.270611826483918
   731   4      16.009387896658097    -0.27906489534924406      20.135406394462851
   732   1      18.194908104173386      2.0239740903190677      22.258981910963076
   733   3      18.244264831070012      2.1286128555455126      20.247018864925604
   734   3      16.123770776594426      2.0727073439246038      22.505694200994835
   735   3      18.234241454563644    -0.00675742381789493      22.445162138134133
   736   4      16.094784912413164      3.7848293186684128      12.122748228241365
   737   2      18.190147323245238      6.0370844557575269      14.275330923632074
   738   3      18.385434235037813      5.9381573551086388      12.108562263703732
   739   3      16.217297012940659      5.9469691819534223      14.097535634950797
   740   3      18.420040467871406      4.0707072839931939      14.282289195292286
   741   4      15.937044499032602      3.9377646503380479      16.162518026742376
   742   1      18.143872759436501          6.093557745839      18.242496901948503
   743   3      18.298623862892459      6.1673478640534842      16.175653783891178
   744   3      16.125929044846416      5.8394315945472997      18.273345950435512
   745   3      18.420062847173632      4.0615634567723955      18.203706361369612
   746   4      16.482903086221445      3.8048784553465071      19.977093017773015
   747   2       18.13955263325543      6.0706362895203911      22.164311418061139
   748   3      18.383703162240916      6.0289929000538454      20.299684190251948
   749   3      16.215111550202032      6.1058858911095362      22.269904656993088
   750   3      18.240200439717345      4.1286337716887731      22.485822138747732
   751   4      16.173733525653862      8.2641451459687438       12.50271725002729
   752   1      18.234855844828722      10.077754925266003      14.183599418807514
   753   3      18.196862613964711      10.366024540384473      12.125224672774316
   754   3      16.206038482560956      10.227966859607131      14.097226089425535
   755   3      18.173910917869797      8.0358725593264211      13.944759753638136
   756   4      15.733952162866986      8.1992208228222996        16.2831776444783
   757   2      18.091411490417567      10.159274611409629      18.269657699824648
   758   3      18.442980815872236      10.075201139319962      16.239710713004456
   759   3      16.221185160555326      10.181577527408912      18.172713851663222
   760   3      18.390003420545934      8.1449583499822484      18.211834757187596
   761   4      15.806225674061281      8.3775762479671947       20.33755835742253
   762   1      18.245027152764902      10.139100026228466      22.233909966906282
   763   3      18.344426729052906      10.059331294619868      20.183693209927718
   764   3       16.20582637021413      9.9932080473114464      22.182006117547601
   765   3      18.347368398070756      8.0271250251733068      22.337041248113888
   766   4      19.980861568022501    -0.17472812830173937      11.896790930120318
   767   2      22.183556049121645      2.0891756220997313      14.167586215699187
   768   3      22.531537873054603      1.9910309744313939      12.186856352487919
   769   3      20.297155198403129      1.9458180267031322      14.041853666666485
   770   3      22.477220557039121   -0.038129297002414277      14.228050660148231
   771   4      20.175644790237843     0.36479297444012199      16.465858632373312
   772   1      22.322634054540654      2.0354776220704083      18.203116838935987
   773   3      22.227752579156782      1.8472596089819096      16.145658153790912
   774   3      20.297198923235037      1.8963083160674616      18.311419230303638
   775   3      22.550374640461506    -0.04633043556392253      18.237046663057203
   776   4      19.863062955080572     0.33783830871066806       20.05279817668573
   777   2      22.224358088320393      1.9637908901901493       22.26060456388679
   778   3      22.511678201396418      2.0287284975140176      20.359870029281179
   779   3      20.333301767388544      2.1230411337066561      22.282933536358897
   780   3      22.399802384058294    0.082108121227323208      22.431777563955801
   781   4      19.933637145397025      4.0008803910776223      12.113634203649454
   782   1       22.22436267974205      6.0230834691545665       14.18485627346139
   783   3      22.375166299438316       6.111371460856585      12.099554883782433
   784   3      20.202433738423437      6.2128883889092101       14.09481196210494
   785   3       22.38030001164643      3.9723768851648851      14.223150752027742
   786   4      19.888524406114133      3.9867487511198192      16.400340056243095
   787   2       22.23363080270823      6.0066301593334739      18.151525124199797
   788   3      22.456116160662521      6.0890847481426258      16.277282027565665
   789   3      20.351112091935374      6.2138159603119938      18.201340737161019
   790   3      22.303865158684602      4.1057077291187305      18.395545633911858
   791   4      19.976096163424675      3.8042190764299399      19.917206935782666
   792   2      22.200967057845485      6.0595911739210822      22.211362516653757
   793   3        22.2966490268828      6.1740059483000636      20.329862135239168
   794   3      20.308021529478616      6.0777308950193003      22.448832223967575
   795   3      22.465002750779693      4.1214973098149361      22.335669598136008
   796   4      20.081942928594696      7.8155905889702773      12.374611111569401
   797   2      22.242658354185892      9.9931593915050918      14.079401973774592
   798   3       22.36106511555889        10.2543213493244      12.195634982455649
   799   3      20.312640290333778      10.152430861648064      14.137623865795716
   800   3      22.400473427998659      8.1268576861278952      14.176839073481892
   801   4      19.883512568084097      8.0417374955320877       16.33509817200612
   802   2      22.334621850529498      10.080432110676702      18.080733655210135
   803   3       22.32586430792368      10.209226758507503       16.18885205884721
   804   3      20.383166925161817      10.011073912877814      18.272095877230822
   805   3      22.490009450494799      8.1093102637262628      18.319619085539177
   806   4      19.937699670707953      8.1826673553230016      20.078248161324471
   807   2      22.148847157471565      10.153851213774619      22.208584708341466
   808   3      22.330022195699506       10.05804360000106      20.316007432618949
   809   3      20.290477978104089      10.024723025829671      22.383511458625673
   810   3       22.35332808338395        8.08297987569693      22.463438472386006
   811   4      12.263351162735715      12.141771540532533    -0.42814365086706752
   812   1      14.171274305615034      14.187722870324606      1.9826818780441684
   813   3      14.352839776080842      14.250109025838146   0.0025114075566793135
   814   3      12.134857914951365      14.253302187461731      2.1716837031377163
   815   3      14.305280665586592      12.091790569783022      2.0469627268757575
   816   4      12.210942223570985      12.384968034992996      3.7755757472097278
   817   1      14.133915496734879      14.114228154136937      6.0697203101558488
   818   3      14.219140847677586      14.101750929180559      4.0628355667411045
   819   3      12.098439969405637      14.158797310762289      6.3183697123450662
   820   3      14.179052725029237      12.072971071882947      6.3266829373046205
   821   4      12.233018181720064       12.22711438498693       7.840307832618393
   822   1      14.187409254462439      14.061148168158196       10.12622260458442
   823   3      14.226768208916887       14.32487466002225      8.1155811352737839
   824   3      12.073542180987609      14.408042062753124      10.085427971141247
   825   3      13.922088606267385      12.042278993070607      10.054032980980724
   826   4      12.387961300413926      15.966728533660337    -0.33700671999601872
   827   2      14.222343198873489      18.208579329249385       1.900003976830188
   828   3      14.082470440198316      18.215829134724256    0.028398522004058829
   829   3       12.18099310682071      18.218705586416597      2.3013147288314126
   830   3       14.19895258139424      16.278876672426158      2.2610127377381359
   831   4      12.273149258192088      16.005340610432413      3.7992526092946344
   832   2      14.007491264429607      18.156742423291764      6.0316235082248948
   833   3      14.301033051986527      18.409665979556763      4.1083365045986957
   834   3      12.160786684119241      18.166714010431811      5.9773867551204747
   835   3      14.327540905988842      16.244453391868976      6.0097171531548188
   836   4      12.430940423853345      15.822473761210349      8.1454297536706797
   837   1      14.167040199395137      18.153355054072595      10.074940927626431
   838   3      14.173083249227835      18.282532178401652      8.0367890687865362
   839   3      12.080018571804116      18.215616746220444      10.180528031737305
   840   3      14.211128042367141      16.161447712933761      10.305270245890528
   841   4      11.992989394755993      20.049816345620499    -0.24679907042520752
   842   1      14.146525304693478      22.277822147698107       1.977286852225222
   843   3      14.099886118427467      22.549544313022889   -0.040638937640768466
   844   3      12.103400798539274      22.406465056840453      2.1760010968154444
   845   3      14.074090967813362      20.215141320358086      2.1534346395825326
   846   4        12.2379060182472      20.174710032081236      3.7443634904695418
   847   2      14.285201551075902      22.213657012216196       6.013535660865637
   848   3      14.231596841485089       22.20227494137939      4.0943605330127895
   849   3        12.1333786032686      22.471370433911151      6.0826739516803192
   850   3      14.021836760580022      20.279548701467458      6.2149579156517971
   851   4      12.433527476782942      20.055478745388697       8.273494950471747
   852   1      14.156764339048561      22.266626367009497      10.074008567222171
   853   3      14.075350677203078      22.543840122126173      8.0647072755051799
   854   3      12.071761826267497      22.608687746811885      10.069658085427852
   855   3      14.023112045123039      20.255252291971452      10.029453465314392
   856   4      15.811805084976623      12.337799692763937    -0.14954475133917236
   857   2      18.181802458042299      14.325316835654347      1.9349957691562631
   858   3       18.08020110292204      14.243729706796303  -0.0010294485358564387
   859   3      16.266030078449234      14.126993027036205      2.2169782149403097
   860   3       18.30314630617217      12.099745337182739      2.0828224665194672
   861   4      15.914224002377853      12.379820157234876      3.8831994674988959
   862   1       18.24177284798002      14.133474583319162      6.0663299773394561
   863   3      18.493399909148653      14.146069246732536      4.0119931665069553
   864   3      16.223564125795221      14.135622040931578       6.139186443310674
   865   3      18.367188339535222      12.094764842434101      6.2649175131016541
   866   4      16.119579094144633      12.324446910196841      7.7104346662535441
   867   2      18.124657014155897      14.107763042611857      10.057793592456459
   868   3      18.232987677734172       14.35593993852099      8.1785874912325927
   869   3      16.249238372634359      14.138506463446101      10.253259369085788
   870   3       18.40709411246835      12.194064031725791       10.10541693561842
   871   4      15.884565351225946      15.956937658912681    -0.35698956437523077
   872   1      18.188088018212515      18.197923741430134      1.9890949582692905
   873   3      18.274140194468846      18.442166670080919   -0.071579054205613654
   874   3      16.159218596461379      18.438412752756083      2.0004510392963315
   875   3       18.30537429392551      16.192548268714638      2.1529039033778905
   876   4      15.919947393203866      15.825898034293804       4.116482160227017
   877   2      18.093799154887865      18.231733260996524      6.0382580018664589
   878   3      18.343087397951408      18.317971711074982      4.0728941340825138
   879   3      16.188566158997286      18.433569684182348      6.1046848049618205
   880   3      18.269611861324677      16.253627105825778      6.0132829462957158
   881   4       15.99419222486118      15.817962442795412       7.866465780173745
   882   1      18.231199864723095      18.185945785057495      10.097540033837701
   883   3      18.248298968288008      18.289884951526517      8.0612746349736355
   884   3      16.213101594335267      18.361204352304945      10.186253353736067
   885   3      18.190724376279064      16.154335600674514      10.387750845921223
   886   4      16.343100956492563      19.987963358837916   -0.094161128614053846
   887   2      18.052631017857141      22.315715024897564        2.05212446041052
   888   3      18.219001108257313      22.394063993900236     0.04090203304110554
   889   3      16.190303146826768       22.23112216706696      2.0748974971963783
   890   3      18.376303948380478      20.350189208821501      1.9789463016792221
   891   4      15.989503171302164      20.159709715170109      3.7798600814719014
   892   1      18.178263461534513      22.219957896811337      6.0650811779101748
   893   3      18.443709832407276       22.23588489413963      3.9994837536242041
   894   3      16.170942511977621      22.186609862498635      6.2322962324854254
   895   3      18.491358647366734      20.223930596015464      6.0862891003997142
   896   4      16.068051828032488      19.815408663325702      8.3039649199817305
   897   2         18.162088521767      22.197445165305112      10.051437026676799
   898   3      18.279811700552564      22.493303266959852      8.1251214602700603
   899   3      16.225558562943842      22.291287749175318      10.164541422838576
   900   3       18.43385329578776      20.289791965971641      10.057048458724891
   901   4      20.520208448750346      12.403214020587725    0.042972930612864599
   902   1      22.265696192948184      14.164279896400595      2.0668057894951035
   903   3      22.247193537511389      14.233727687761268   -0.016784914249513231
   904   3      20.193638873927856      14.034038012711417      1.8626407508868041
   905   3      22.245555825555876      12.077226274112906       1.837475763771381
   906   4      20.051330314270274      12.397766935935206      3.8376217376615758
   907   2      22.184086948527781      14.171622769281408      5.9511515111170938
   908   3      22.083625327694026      14.143941119787883      4.0787190223293743
   909   3      20.306288730876496      14.340421382642969       6.266234893770708
   910   3      22.213593658746266       12.23112742886933       6.240899434789994
   911   4      20.336354241897606      11.841718862758643      7.8591355171077977
   912   2      22.226906887071607      14.080150034895235      10.098090140688722
   913   3      22.428001491739121      14.320641990943335       8.183872626906437
   914   3      20.317229120755091       14.43711907517263      10.160391414741378
   915   3      22.184947691601266      12.230332845528679      10.194515548343674
   916   4       20.46622413950902      15.863139239018265    -0.11458681857954195
   917   2      22.154022332432131      18.113959363586396      2.0596063262620223
   918   3      22.272959526705005      18.446331900019938    0.032552360498823665
   919   3      20.280848548007107      18.377899917279237      1.9842883655746084
   920   3      22.243548669283779      16.247465245317407      1.9234540052992166
   921   4      19.870044198028513      16.200813240521143      4.1040353473563806
   922   1      22.208521055900849       18.19529200043393      6.0593995081769751
   923   3      22.379051178924048      18.276035693197578      3.9794521986380209
   924   3      20.222443230101916      18.145606034589594      6.2226352484497447
   925   3      22.529376565131127      16.161062869177307      6.1406036212928861
   926   4      19.978036441898663      16.208292512837581      7.8557398658110369
   927   2      22.162818034404772      18.304068828962233      10.099675167448334
   928   3      22.465308964102334      18.260482680527808      8.1688032295293223
   929   3      20.305113403919368      18.070440170785108      10.149114511215386
   930   3      22.619584532613619      16.308104784751123      10.175752658320187
   931   4      20.031381080332206      20.075494375107283     0.13910735119362119
   932   2      22.221843410915611      22.203746226248036      2.0189989054503639
   933   3      22.531940272489354      22.291287984932747    0.095213151040975622
   934   3      20.347243349486575      22.378959970984567      1.9919911523375291
   935   3      22.363160964455588      20.313946553556608      2.0885049568033649
   936   4      19.884286261248928      20.165288555749004      4.0381297434416386
   937   2        22.1758256432135      22.266250616654077      6.1265597626399169
   938   3      22.335271458667837      22.477953245480577      4.0507972272590456
   939   3      20.298688308347206      22.483001421486151      6.1255964855578897
   940   3      22.310929061500225      20.332150446833577      6.0484601621122849
   941   4      20.007260012275161      19.971289863747113      7.8822445168109292
   942   1      22.250820065616541      22.245957559448748      10.087309640178637
   943   3      22.428689501761944      22.405064544909802      8.0436558448740136
   944   3      20.233168953105597      22.605823603763664        10.0593927096249
   945   3        22.2467134644989      20.219031412095404      10.253908153229446
   946   4      12.384617869793615      11.865049295025832      11.977742013465448
   947   2      14.216639734533272      14.199578579699816      14.055624440283976
   948   3       14.01887401921322       14.05047455650652      12.196517513153232
   949   3      12.135772325669794      14.197159764063262      14.395203089426955
   950   3       14.14796644680831      12.250083416207652      14.432216873338774
   951   4      12.292165766491914      11.811207434369489      15.967905671834663
   952   2       14.16718397035009      14.038732577646096      18.170759023933417
   953   3       14.21711176553408      14.437193051311343      16.242406031211569
   954   3      12.156436434161293      14.404038876859447      18.242506296744519
   955   3      14.092886368809067      12.181953430944752      18.118539053721832
   956   4      12.320400674815785      11.728512469225816      20.182319595160912
   957   1      14.152130329438432      14.154402026318081       22.19757556033441
   958   3      14.161748887397737      14.255385863326946       20.17234245825593
   959   3      12.110216329207587      14.140095482868139      22.466932204577056
   960   3      14.289365136712659        12.1423663861934      22.381101503925706
   961   4      12.500122342846096      16.172868790152251      11.846368287612611
   962   1      14.153208770793192      18.196272381861483      14.149324937546169
   963   3      14.139706829447373       18.42441643696581      12.150935698230644
   964   3      12.074331626251329      18.300372831970876      14.297851519839456
   965   3      14.021603649795669      16.155536875016033      14.112416424376399
   966   4      12.291258162152467      16.202486305203603      15.862636390192064
   967   2      14.237582865234677      18.277178865571699      18.119177049285369
   968   3      14.121178654724293      18.133159871814406      16.242127371665855
   969   3      12.106215998578437      18.222705864157586      18.456764208629867
   970   3      14.190818830957745      16.311805158115995      18.438772285086987
   971   4      12.494953157862096      16.069366641238854      20.209982278019588
   972   1      14.170452953009532      18.208704481505585      22.252409615000346
   973   3      14.207370599657287      18.452235870782722      20.249120690844897
   974   3      12.117115629771243      18.456063340524643      22.236681728439823
   975   3      14.091620102685514      16.207613293900184      22.302483365757521
   976   4      12.439872289184123       19.96239290942373      11.904435064856012
   977   2      14.113358305748621      22.321066922205659      14.008020919789333
   978   3       14.08327630877778      22.172595225631063      12.128415508260074
   979   3      12.147897607498905      22.308347639778468      14.352092426955545
   980   3      14.087596397485479      20.317254031814524      14.402623281261793
   981   4      12.152962133721992      20.196195110715795      15.812716507317919
   982   1      14.111905059535847      22.246198842267379      18.230086169197861
   983   3      14.155679301099154      22.526864690522846      16.215832612385221
   984   3      12.060756069341089      22.504779101844711      18.274211718382404
   985   3      14.037052876038457      20.223674396902226      18.212755430142533
   986   4      12.390734115429703      19.971133721674612      20.182624973492111
   987   2      14.187663437611807      22.152497939009848      22.339694773723146
   988   3      14.197326327817777      22.385350755182692      20.341387323730505
   989   3      12.199251733400967      22.418177527741989      22.292818640572452
   990   3      14.241904055955134      20.287009986819495      22.389755395065272
   991   4      16.201389347093283      11.769980688013488      12.277981364749822
   992   2      18.274400140111101      14.113983030148763      14.160581699245887
   993   3      18.397039430485222      14.156121030334344      12.208980017099055
   994   3      16.198185209993735      14.239333980232562      14.236158462124854
   995   3      18.335578302557135      12.226637840791744      14.332764505688075
   996   4      15.942732346405354      11.703530889832825      15.977893930262367
   997   1      18.170107177042965      14.098845552597531      18.205268492397675
   998   3      18.192642261212654      14.407214509362207      16.158253680687981
   999   3      16.125053811497853      14.350040404161897      18.222656951205238
  1000   3      18.501932575109556      12.079652304802368       18.15412479468997
  1001   4      15.905402463973774       11.81231447988303      20.618507180481853
  1002   2      18.251274500577239      13.998305564096626      22.153473913163964
  1003   3      18.288807617855586      14.226196979931458      20.264731791228041
  1004   3      16.261145654394415      14.355439846524733      22.229780420172716
  1005   3      18.127998142797903      12.155170017496742      22.298287027431115
  1006   4      16.100193115656975      16.323146277022353        11.6404035749628
  1007   2      18.066112094570041      18.215397817815198      14.090901170893437
  1008   3      18.303271370845131      18.397698659394344      12.198653727472262
  1009   3      16.208472412151927      18.430904139474372      14.236511514910305
  1010   3      18.173919510259967      16.285772943708295      14.135251395394581
  1011   4      16.292418027614818      15.870953180264877      16.247751171661523
  1012   2      18.286838048921414      18.154796587951282      18.151987292046016
  1013   3      18.283297552159119      18.324182136454823       16.24261229601926
  1014   3      16.215668550896076      18.404593806380767       18.30292898788964
  1015   3      18.121994256612862       16.29824734477636      18.285508408259485
  1016   4      16.097705063795868      15.832798619811014      20.166950931441036
  1017   2       18.18890753049007       18.09789078639659      22.269367479479637
  1018   3       18.18016027660914      18.487809476967374      20.302460856359289
  1019   3      16.257092248480518      18.325774034226907      22.345283254989948
  1020   3      18.311132254950969      16.249543085582836      22.275998729252798
  1021   4      15.895175830230842      19.959869787321384      11.858828941232517
  1022   1      18.163164158712434      22.285674963109944      14.135582279820886
  1023   3       18.40878364984404       22.19060619663809       12.10197088416572
  1024   3      16.111346601831482      22.196302690336527      14.325504633727297
  1025   3      18.421052429728086      20.216284206817939      14.272864218932337
  1026   4      15.954809901849719      20.363087580334724      15.865206033179273
  1027   2      18.074679600424002      22.293479742716382      18.105244373560996
  1028   3       18.25569991299497       22.22957979269248      16.230966248119749
  1029   3      16.199415678728279      22.310266405254396      18.299640007347353
  1030   3       18.37411443987483       20.33814133279617      18.313175273476251
  1031   4      16.102040629736209      19.963515330161432      20.248086180457449
  1032   2      18.389027562049758      22.271919766983331      22.195833309175566
  1033   3      18.198515805533077      22.349002303345372      20.280863446758246
  1034   3      16.165727682184837      22.507382140777764      22.347864233974764
  1035   3      18.083307149079385      20.362545876069557      22.383117168411061
  1036   4      20.152919056982391      11.800373516113995      12.059497779362625
  1037   2      22.363838717550497      14.073980789851326      14.156155832105355
  1038   3      22.255709228019366      14.416290108918259      12.168562954908731
  1039   3       20.23900544081765      14.385984107091687      14.291092422274133
  1040   3       22.16207979400496      12.206437668152999      14.212063307655308
  1041   4      19.993849693209267      11.892758330308466       16.13991238477697
  1042   1      22.321882025835688      14.114105929025381      18.144726422649537
  1043   3      22.288692119119556      14.407547051931216      16.126913913873079
  1044   3       20.24832545761657      14.279614500648169      18.226010544596761
  1045   3      22.257510078687208      12.073923591168896      18.426214544628564
  1046   4      20.329032992817943      12.362265498433739      19.837948899560136
  1047   1      22.274076212082019      14.103629177977426      22.231377373865559
  1048   3      22.210978306274075      14.286412379698321      20.254487116431839
  1049   3      20.180883787973723      14.193919588371992      22.468664993996228
  1050   3      22.337167704267433      12.066283185690532      22.366788732464808
  1051   4      19.991310110792206      16.115792705553527      11.952939276645351
  1052   2      22.168045560082458      18.196872782402014      14.184496045841277
  1053   3      22.467903692888758      18.264608331947223      12.195364019454976
  1054   3      20.294565239911638      18.265433290280122       14.22140027033471
  1055   3      22.453124234973576      16.299784570854417      14.193825951547881
  1056   4      20.273725604917161      15.779170434979177      16.374349200880108
  1057   1      22.255877734160201      18.260641986251144      18.203224150111939
  1058   3      22.442887550862928       18.28804109269678      16.152767213688769
  1059   3      20.195516866786779      18.287761800475835      18.417678521019941
  1060   3      22.423699139748599      16.236735614712337      18.244736302051837
  1061   4      20.490759056724567      15.860201476923063      19.922495120267126
  1062   2      22.190279440039088       18.25602359672019      22.214338575987128
  1063   3      22.383013023143572      18.292438705316471       20.32234719365302
  1064   3      20.249818541061739      18.472978125773725      22.262747080863114
  1065   3      22.215900093228065      16.321740895203018      22.446273920937706
  1066   4        19.8693451726513      20.314110283956676      12.128701155224924
  1067   2      22.178353695865283        22.3278973832732      14.091404188563276
  1068   3      22.326386761430417      22.298062554686304      12.208879431310985
  1069   3      20.316644005873158      22.263098639483939      14.293926124991593
  1070   3      22.369342401060681       20.29723161754206      14.267092933210497
  1071   4      19.976200425034744      20.361127163615926      15.975780015179142
  1072   2      22.166219144947981      22.301528937570783      18.229330393293623
  1073   3      22.474421221092278      22.260544787463886      16.256919379936114
  1074   3      20.277950199196855      22.375244136799559      18.285319403388833
  1075   3      22.338773188406886      20.330153323946313      18.336886108104945
  1076   4      20.146965367067331      20.094425295514689       20.02276647769169
  1077   1      22.244037051589885      22.297511044869069      22.277764524481103
  1078   3      22.491553742463807      22.334003837358349      20.216131684968982
  1079   3      20.233801408199767      22.249574005938818      22.338863850307455
  1080   3        22.5489068244888      20.248369491431827      22.282555527660978
