(written by ASE)

1080 atoms
4 atom types

0.0      24.299999999999997  xlo xhi
0.0      24.299999999999997  ylo yhi
0.0      24.299999999999997  zlo zhi

Atoms # atomic

     1   4    -0.19985550073798133    -0.18599626922861984    -0.14794676446773516
     2   2      2.0110985545208995      1.9251254109866276      2.0398896074513369
     3   3      2.2878450389696452      2.0553348458926957    0.083456518826914711
     4   3    0.095097761786282389      2.1850943773293383      1.8828831314289993
     5   3      2.1122918193147617    0.048524394179071471      2.1777785949952495
     6   4     -0.2263228047550418   -0.036618357273687695      4.1959423996633491
     7   2      2.0392667422421584       1.942254119203072      6.2030903803353663
     8   3      1.9330502788236814       2.265427055937514      4.0140270869823294
     9   3     0.09145694924368071      2.2873654525455875       6.109401099116206
    10   3      1.8832626569260154     0.06109417202823008      5.9478539806825532
    11   4    -0.29854454526226004    -0.08067625908477824      8.0038430172771982
    12   1      2.0516032118317313      1.9713296436774537      10.088988843075862
    13   3      2.0988367555115128      2.0293783641699679      8.0629408542549559
    14   3 -0.00078813660217486275      2.2717960247787059      10.108314224610904
    15   3      1.8991170041684851   -0.074281925994866979       10.36707963176244
    16   4    -0.15235536395009458      3.8916605673899451   -0.057292619480766437
    17   2      1.9756929815663795      5.9620694758579083      2.0261591197625166
    18   3      2.0880281144871162      6.3331607224668369    0.057332414909531601
    19   3     0.07913358267061131      6.1119589233761502      2.1029233536369127
    20   3      2.1691588116840053      4.1059772870316325      1.9295274876496107
    21   4   -0.063148323971637221      3.7820491280386759      4.2289524851818685
    22   2       2.025153376212351      6.0530698886427254       6.168924432937235
    23   3      2.1519363993744922       6.113697505092726       3.997274492670484
    24   3    0.050904901739846388      6.0511790350520975      5.9370619594581209
    25   3      2.1897604618869657      4.1148247753943172       6.032933127229084
    26   4    -0.10210491828794478      3.7418538877243468      8.2064680784652992
    27   2      2.0437300407494212      5.8987025370216424      10.227843573541156
    28   3      2.0418282827101928       6.233424886581008      8.0824523421032826
    29   3    0.063694358851730498      5.9498777797175073      9.9797360305751308
    30   3       2.236622701970989      4.0470704828441999      10.100024587430937
    31   4     -0.2435804349519641      8.0564237151051419   -0.057183640161295436
    32   2      2.0281518815996775      10.030780445479717      2.0154567121894704
    33   3      2.1733230965657864      10.197629475361349    0.010493479028180335
    34   3    0.074954699380676823      10.350615136399748       1.993065030790508
    35   3      2.0141705102241789      8.1622077513612243      2.1566494803866605
    36   4    0.015528724651071833      7.9236153263440086      4.2343167656394431
    37   1      1.9977083502999946      10.091987588307592      6.1173990646350864
    38   3      1.9842778003449657       10.43405384869024      3.9711903302204958
    39   3   -0.014424646542196086      10.409858554521067      6.0497670783506736
    40   3      1.9262259024211945      8.0774727259212185      5.8132342936093169
    41   4    -0.16404482546837823      7.8728831021784416      8.2828806356285103
    42   2      1.9732455230168293      9.9817138599092825      10.105885218835272
    43   3      2.0263710394420809      10.269417929216297       8.175827605818407
    44   3    0.057035218779037923        10.4224996744392      10.131861844837845
    45   3      1.8475308196598319      8.1190494960834041      10.155173623694942
    46   4      4.1469955152265685    -0.10901164746979586     -0.2170164200492381
    47   2      6.0537725388130417      1.9572268448856924      1.9730269419203452
    48   3      5.8711476968819403      2.0241875191522722      0.0802380543835233
    49   3      4.0723767747655124       2.132332149349021      2.2706231173361782
    50   3      6.1323281918019212    0.081697844387859792      2.1937936209484072
    51   4      4.0639403493834418    -0.15763264817106934      4.1189572040865405
    52   2      6.1807550486830145      2.0247408590052696      6.0967773804959302
    53   3      6.1471400539963517       2.275558341305898      4.0874545413239787
    54   3      4.0153613911298391      1.9676549567633146      5.8380655937892323
    55   3      6.1092860432063532    0.071812064626795291      6.0256971053961035
    56   4      4.1816011379291407    -0.25429728024928105      8.1177843768462683
    57   2      6.1098233190704834      1.9044123190674345      10.150223095709432
    58   3      5.8979193228758549      2.0538502884963399      8.0909678867265669
    59   3      4.1020056680046233      1.8209274549156209      10.352162878668683
    60   3      6.2953704373031805    0.022476725120331883      10.125055295867105
    61   4      4.1059760236107934      3.8116788502015342    -0.14201457890414831
    62   2      5.9929802853697867      6.0677609261975363      2.1306059101320236
    63   3      6.0377991783790712      6.3355948542573346  -0.0048350118100598163
    64   3      4.0523665835423843      6.3132386910068918      1.9638787452746396
    65   3      5.9716067078408148      4.1313587255553958      1.9214518674603493
    66   4      4.0836877542182872      3.8347814790130164      4.2407722753775259
    67   1      6.0497239649716033       6.023834871779556      6.0672198257450649
    68   3      6.1150488850370701      6.1274672162898591      4.0292951104702919
    69   3      3.9967543289657357      6.3290303927656035      6.0433694690102282
    70   3      5.7895694739749199      4.0063225626001753      6.1604087163656134
    71   4      4.4081411263520005      4.1110626787782563      8.1065602300855986
    72   1      6.0966155803815738      5.9783501862302231      10.121599368648909
    73   3      5.9320800990562024      6.2136942075276531      8.0966636931136122
    74   3      3.9633733391357162      6.3491309488342047      10.116291895717339
    75   3      5.7553260033908265      3.9954704278707531      10.032722767911221
    76   4      4.0426871962469688      7.8465559233657904    -0.03866328342403956
    77   1      6.0303606028103856        10.0981237564328      2.0281549261078409
    78   3      6.0789409532705516      10.335384394907354    -0.03417200114940798
    79   3       3.995161620553159      10.301935347644136      2.0640668428479199
    80   3      6.3066910125207007      8.0850268024595024       2.062359448290906
    81   4       3.845095369392054      7.9610193148861716      4.3002642000283453
    82   2      5.9238404393087025      10.112031371672902      6.0940307164456735
    83   3      6.3012588387966462      10.140820877453097      4.0924243309923547
    84   3      4.0315903631133496      10.114445024543373      5.8902178554302065
    85   3       6.206498151384074      8.1654629429395431      6.0257089666272448
    86   4      4.2494762557087684      7.7679560208441378      8.1557667866242927
    87   1      6.0656870600080168      10.083574318159052      10.064424518550295
    88   3      5.9697069468512405      10.179038844270055      8.0498619038821033
    89   3      3.9697978859654146      10.179012667996288      10.218006141487919
    90   3      6.1535880539405561      8.0782033178586357       10.26274340294073
    91   4      8.2263686363853079    -0.27479585854216276  -0.0023694610947475846
    92   1      10.070005412805807      2.0024583685972588      2.0421235422666015
    93   3       10.12201087274685      1.9867901872972409 -0.00055671473433720436
    94   3      7.9972917940654433      2.3115211041262427      2.0478722056788365
    95   3      10.049104843881011     0.01997204754288032      2.2976023590822834
    96   4      8.3746631610803846    -0.15968533468698862      3.9601500621143888
    97   2      10.294453449785337      1.9289933742488439       6.088624868737079
    98   3      9.9660674571063108       2.302190983436752      4.1415233014411159
    99   3      8.0548065113615408      2.2639447422379875      6.1282553670398672
   100   3        9.92778845952623    0.057912982197526934      5.9370536358473638
   101   4      8.4587023029019957    -0.17232097188675244      8.2604318293505834
   102   1       10.14113688569779      2.0159735623574853      10.108263607136886
   103   3      10.033464510749742      2.0263228968657989      8.0372372474197711
   104   3      8.0492849254789149      2.3463644241577764      10.062575138700032
   105   3      9.8801911458952318   0.0011273715406997444      10.220781557643168
   106   4      8.2585324096786579      4.1009027888331371     0.34340456412717646
   107   1      10.017329317827345      6.1114553672611143      2.0702145016122011
   108   3      10.228247934336657      6.1588005549837526  8.1157147235503516e-05
   109   3      8.0190898401109028      5.9853065530488427      1.8259122526352918
   110   3      10.188490174493456      4.0627547832132205      1.9409467366795448
   111   4       8.148105198116923      3.8235876858761926      3.9699424260152756
   112   2      9.9795288480460087      6.0139370436270365      6.0848833287364021
   113   3      10.207344754215834      6.0020058435038264      4.1181202721597812
   114   3      8.1140678727803941      6.0686051842872706      6.1610776339753688
   115   3      10.250928059985526      4.1034446985287962      6.2139346645300781
   116   4       8.308665563023057      3.9107503137927924      8.3120268102390842
   117   2      10.075018431339604      6.0656463257757771      10.296287522628898
   118   3      10.260784485589369      6.2515322764827985      8.0454526377484381
   119   3      8.1442469562785718      5.9621763281696092      9.9317211897572815
   120   3      10.274189922111518      4.1211082462924962       9.874784684352246
   121   4      7.9467745177343554      7.7981294368175567     0.14655961252541869
   122   2      10.003024454938767      10.109790251895314      1.9714625236311691
   123   3      10.258903480536775      10.134579784947421    0.052136876486010578
   124   3      8.1478407322365296      10.265999572751335      1.9722716353361192
   125   3      10.140863430216745      8.1884644904607722      2.1119522928705545
   126   4      7.6886911774996678      8.1188016570305059       4.041393281004126
   127   2      9.9936541414482196      10.025443726807847      5.9879787244214553
   128   3      10.076865221075836      10.251549444100835      4.0735300250713635
   129   3      8.1344796769339478      10.218968284958203      6.1791599601930853
   130   3      10.087903872885084      8.1236785269275398      5.9480429904724526
   131   4      7.7516145061180204      7.7445161928638164      8.1965860089969862
   132   2      10.108909346732348      10.135113051471819      9.9404837146441807
   133   3      10.276675299774169      10.014217601640807      8.0589173081879224
   134   3       8.166285757414272      10.246836419746055      10.134263902993764
   135   3      9.9833763258717561      8.1121023229587905      10.254293863535747
   136   4    -0.06265957667308876   -0.054232156813436579      11.855075099114023
   137   2      2.0428889636651624      2.0199290381287809       14.04999096324638
   138   3      1.9178877773174223       2.098854730457254      12.180899666781617
   139   3    0.071575613991412559      1.9900647392862723       14.38671779742335
   140   3      2.1131505025025765   -0.023783923320292947      14.217060170050081
   141   4    -0.26915375374433564      0.1054868510899906      16.133213690317099
   142   2      2.0066519073954345       1.941691615346528      18.145259183260187
   143   3      2.1908686811352696      1.9174322675032487      16.283998549496765
   144   3     0.10215565647252133      2.1709389515287798      18.256617028056684
   145   3      2.0238768035365764    0.031298137735396359      18.469836903770862
   146   4    -0.23019009074851202     -0.1285704155540647       20.11026746560351
   147   2      2.0468002268334731       1.942378559860733      22.231219060129114
   148   3      1.9296344690651739      2.1763744675724115      20.355041107268686
   149   3    0.094505115084061397      2.0780040401042652      22.575538183778555
   150   3      2.2127606011524352    0.039609162221652186      22.356125881601049
   151   4   -0.082585678523146758      3.7998541437611895      11.950209492407355
   152   1      2.0967180713835223      6.0021952030094754      14.134829135352568
   153   3       1.951423017235516      6.0824334538887115      12.107538406128411
   154   3    0.039889466693230055       6.116852623463731      14.279228345587939
   155   3      2.0487192021114762      3.9606709484540787      14.402045082978175
   156   4    0.003835173926200326      4.2082953180139624      15.772701918406527
   157   2      2.0703711745876978      6.0119513924690899      18.159445489897731
   158   3      1.9889463225144763      6.1882850101006301      16.269156369987069
   159   3     0.06484819635734583      6.0525326723411474      18.428963968619605
   160   3      2.1661873268647471      4.0612556657172849      18.308435349686999
   161   4    -0.13565866180182298      3.8925501490503569      19.991372829370984
   162   2      2.0029952585847193      5.9972946599314865      22.253742053134591
   163   3      2.1612802198160375      6.0455594875281191      20.357054909860977
   164   3    0.093529243699282158      6.2301021374907792       22.35200243332952
   165   3      1.9996081641274253      4.1137439586113294      22.523959157630902
   166   4    0.012662997607012878      7.6711288298118561      12.403123028129746
   167   2      2.1382562051684695      10.029621655061749      14.206120438171006
   168   3      1.9540868346156903       10.33992943901759      12.149147055032836
   169   3   0.0069168655860379928      10.374121226584487       14.15981557673849
   170   3      1.9269932557594716      8.1430194552272006      14.102807874743506
   171   4    0.054223876062405925      7.7908087347454922      15.927675230858476
   172   1      2.0243753220885807      10.082858790325959      18.191529707496507
   173   3      1.9663423276014478      10.148135348440931      16.147784453470269
   174   3   -0.010922634610729436      10.226914229151035      18.433107615104902
   175   3      1.9714863508997404      8.0499095808255596      18.498529104771258
   176   4    0.050890322975134163      8.1273577941136033      19.925513964453845
   177   2      1.9523940940304385      10.058066816743672      22.220323705941912
   178   3      2.1113219994137782      10.329211073564984      20.351493362783717
   179   3    0.069296185333993413      10.072518202322838      22.343144744476426
   180   3       2.214299027173487      8.1702043901234429      22.274426680709151
   181   4      3.8987346159202234    -0.10215537062542293      11.808852550911597
   182   1      6.1005759838975067       1.970602826950332       14.14271315201858
   183   3      6.1754985460384653      2.2451657051297249      12.106205656886603
   184   3      4.0204838776926737      2.0243113690826449       14.21688737382242
   185   3      6.0724255784957917   -0.053161951280033141       14.25032120715453
   186   4      4.1816645268644796    0.045354324237936845      15.840245927139911
   187   2      6.1649569671664706      2.0685337713129468      18.156109236016679
   188   3      5.9258402885835579      1.9349034609114035      16.272861260257482
   189   3      4.0293741301421218      1.9609127899808436      18.532459833950973
   190   3       6.073478699890356    0.035305346540343285      18.460249929900062
   191   4      4.2605005117142047    0.025899259013428353       20.08109720035122
   192   1      6.0566076411162184      1.9875293901024105      22.304427132766254
   193   3      6.0902100806333088       2.225223459493225      20.263789127747611
   194   3      3.9845453092724248      2.2638621987156711      22.279705372421695
   195   3       5.834423927139472   -0.028626335652287043      22.302099423708825
   196   4      4.2597392599517008      3.7934982469545804      11.911225027793993
   197   2      6.0839130757958486      6.0266414930768155      14.071450911341003
   198   3      5.9763867663844694      5.9738121738113525       12.15368052742196
   199   3      4.0969040467314217       6.106130638968752      14.364206465970938
   200   3      6.0216613170297686      4.0647731607876194      14.367752597687261
   201   4      4.1654199362158542      3.9318457116501575      15.877344168271662
   202   1      6.0537572704484512      6.0187994918952938       18.19997209326241
   203   3       6.070759533528765      6.3471798835566826       16.19355588783479
   204   3      4.0164803576823846      6.3089365372560673      18.221208153701074
   205   3       5.867023698483826      3.9954725474881303      18.208001190379804
   206   4       4.261709895029556      3.8034232933531236      20.124231465981435
   207   2       6.107552537766975      5.9598960398492817      22.247842541082427
   208   3      6.0121232904656106      6.1513072664285922      20.328401527388646
   209   3      4.0564623024280664      6.1510243127154807      22.474357677065427
   210   3      6.0714420003932164      4.0935890554505132      22.400505583094503
   211   4      4.3724924450291534      7.9617978292140865       11.88693217882382
   212   1      6.1137652820047448      10.087955413652788      14.156136076986567
   213   3      6.1617358788170415      10.236246405203277      12.131669799744987
   214   3      4.0448310475829494      10.237633959494469      14.137000859679025
   215   3      6.1779095950797842      8.0512567211090449      14.050657882062314
   216   4      4.1910474171243566      7.7413783299605727      16.092179286447887
   217   2      6.0297953479761954      10.139779160882116      18.089644130031143
   218   3      6.0952449278320016      10.113696730338377      16.220637325271209
   219   3      4.1120992221163561      10.131207883103521      18.400032701141182
   220   3      6.1533303988332992      8.2111549207426116      18.443644929500959
   221   4       4.003371760466802       7.992922286526368      19.929482926097069
   222   2      5.9983750397520499      10.078047125098418      22.270542692360291
   223   3      6.2252610854942336      10.268535317323105      20.342523685003723
   224   3      4.0979644067499894      10.377821712694013      22.299831293158725
   225   3      6.0157192896833722      8.1975818417847375      22.294213788421878
   226   4      8.3900030723047667    -0.18577778002405365      12.036292761968973
   227   2      10.191824796735625      1.9972591926707475      14.089705287484696
   228   3      9.9727581602328694      2.1654818608311679       12.17662127826056
   229   3      8.1208909154553108      2.2193847144378158      14.254121957772506
   230   3      9.9285254082809455    0.054381783426150333      14.146938278944962
   231   4      8.2521474186214512    -0.14514981799441801       15.89216548051011
   232   2      10.194136081506898      1.9435896294362836      18.204108576993864
   233   3      10.082630956059356      1.9188384410784707      16.266981589714703
   234   3      8.0914710323915262       2.193257331322251      18.266973830799213
   235   3      9.9552019470332986    0.075736955583030022      18.420857490748837
   236   4      8.3136249610213451    -0.23024246263991446      20.341262921947035
   237   2      9.9984569306460536      2.0237418262077433       22.42114089865315
   238   3      10.034492902135202      2.2851266499742811      20.218382610300122
   239   3      8.1011803978638461      2.0812054745196953      22.223537170623189
   240   3      10.145778504842079     0.10644022879138353      22.120984235438613
   241   4      8.0983136965949214      3.7340877386913034      12.179181888761519
   242   1      10.106234669676267      6.0461672056165554      14.142535852670914
   243   3      10.101316658654003      5.9163838929841814      12.137392341819785
   244   3      8.0597107215625297      5.9903304815363452      14.348731840605803
   245   3      10.132580793423832      4.0152343318504382       14.47088311168673
   246   4      8.1300530665271307      3.9632427601393201      15.832940521547672
   247   2      9.9908604607987623      5.9727865389500199       18.20418584356965
   248   3       10.13412276139241      6.3491434614210149      16.312409036144047
   249   3      8.1110416121119933      6.1637715754680764      18.340617783193977
   250   3       10.19210103200181      4.0829615033533617      18.128073892862428
   251   4      7.9887617926390302      3.7075896271104152      20.395269454041649
   252   1      10.019025670816404      6.0838569463389875      22.280826843427675
   253   3      10.285845507574075      6.0634612082351032      20.207669841670086
   254   3       8.010965323645225      6.2431832809654972      22.329735280669755
   255   3        10.2117142062562      4.0358591030058104      22.294868332896623
   256   4      7.7857020040941993      8.3543176068840399        11.9373318420048
   257   2      10.085994248934723      10.021567569992841      14.019825266715092
   258   3      10.069445936601598      10.239062169914639      12.148038214435696
   259   3      8.1802485833387149      10.218281049498257      14.327767642215973
   260   3      10.155023025480546      8.1406007783356742      14.212641369070576
   261   4      7.9499742934245203      7.8339910753216575      15.941637218897196
   262   2      10.129910629824844      10.046546616675959      18.141998111347426
   263   3       10.18187840948119      10.105011506426862      16.261839559890337
   264   3      8.1282854350791496      10.274318926191061      18.320392311457397
   265   3      10.064561800109711      8.1635647970939225      18.482747411981059
   266   4      7.8549913604224404      7.8932654258999975      20.078212902130726
   267   2      10.060872913529979      10.055317778770426      22.224616952928322
   268   3      10.081764864214696      10.351778387857422       20.32480170999888
   269   3      8.1284946597300323      10.191302221715166      22.464858411803799
   270   3      10.250396005747788      8.1831144068944237      22.179440122705905
   271   4    -0.33888157686229214      12.079203925421606     0.10281492952854787
   272   2      1.8949179364413415      14.142735526102229      2.0469700443201373
   273   3      2.0485122690569657      14.470339591896535   0.0066965327044997648
   274   3    0.037961314800946062      14.238795653034435      2.0219985949407664
   275   3      2.1329281568283434       12.27066497498094      1.8545392263478639
   276   4    0.069359226893003625      11.892167071194029      4.2191031499086797
   277   2      2.0291924934675389      14.165032751974435      6.2372443420418877
   278   3      2.2181266948701017      14.139234076031592      3.9612176514012711
   279   3    0.013844659453538856      14.140760038651644      5.9333218163309907
   280   3      2.1456130916768048      12.251424656307718      6.0232017071162218
   281   4    0.035038860987886465      11.813119766354525      8.0952138220820729
   282   2      2.0465819079300189      14.157650742796166      10.323072902130047
   283   3      1.9009876675291346      14.340430800664238       8.101169950862829
   284   3   -0.017424349694576333      14.170050189435782      10.217057846789201
   285   3      2.1477097206412314      12.249094669997824      10.050217128988299
   286   4    -0.30544203867233771      15.887904576610206   -0.085761862748436293
   287   2      1.9199323382184634      18.160789826416195      2.0019749292037168
   288   3      2.2977916850298161      18.225989256799352    0.044812528938395199
   289   3     0.03847349140068556      18.323486502979424      1.9085722952905559
   290   3      2.1532077601203139      16.269464220570772       2.088469758439778
   291   4   -0.065731162298379178      16.330741167045964      4.4450134950190563
   292   1      2.0795575812047713      18.193929315156108      6.0713510471538159
   293   3      2.0266766605008155      18.447669397078766      3.9384345361715889
   294   3    0.024046199188920765      18.407544014932434      6.0080576407478548
   295   3      1.9141100929005639      16.172945232121315        5.77145989377484
   296   4    -0.27181044160970913      16.181510829024258      8.0445746643819707
   297   2      2.0216465884151602      18.162539965980525      9.9628149023801953
   298   3      2.0179940140493815      18.266976150637237      8.1041765875291372
   299   3    0.070629905818465011      18.527555426907465      10.155250275329106
   300   3      1.8195543145281932      16.269428428160634      10.203864636537848
   301   4    -0.28131006839778683      20.225106550403869    -0.18840543954789712
   302   2      1.9740126392158712      22.189614110629709      1.9630208742884716
   303   3      2.0887686022552541      22.485050423317162    0.081525374426280328
   304   3    0.091867355424397529      22.364151402404953      2.1242137847716269
   305   3      2.1780180577831523      20.308738245740329      1.9459712271056855
   306   4    -0.14445391981805772      19.952720088823192      4.2481208676312852
   307   2      2.0254118612496201      22.152329525030829      5.9915353489350007
   308   3      2.1797002990205696      22.318235429180561      4.0556594860006472
   309   3    0.081689826378185657      22.215925053766199      6.0275145533888388
   310   3      2.2142055443328954       20.30463528361053      6.1031451135867902
   311   4    -0.10716709474397636      19.907605627349472      7.8143464229810702
   312   2      1.9800605461604561      22.234228363332619      9.9824966489912335
   313   3      2.0462107371455143      22.461532543171039      8.0650166576380364
   314   3    0.071687221737457993      22.140993750222599      10.243477795297903
   315   3      2.2693074799811677      20.302543592841801      10.109747439633278
   316   4      4.0209303788607826      11.839853970411319     0.13409534847570834
   317   2      5.9951019526093532       14.09991443674541      2.0428954573992471
   318   3      6.3528661631615639      14.200262605230574    0.071491986406410621
   319   3      4.1207130595919814      14.320275085920755      1.8605744671373192
   320   3      6.1565939635457063      12.210115292866107      2.0834254450979013
   321   4      3.8144216811144602       11.95505854401453       4.166728770891317
   322   1      6.0280570320370197      14.130905475341082      6.0380062341186767
   323   3      6.1019954076400627      14.261060354697781       3.992831762270304
   324   3      3.9896662942706449      14.422514756349859      6.1114874524941989
   325   3      6.1233623535304993      12.106478987492485      6.0315718715399678
   326   4      4.0492722184221863      11.929796431375786      8.3956907880390368
   327   1      6.0096104482195569      14.147403080140041       10.13943988506969
   328   3      6.1439184751637859      14.260254866934288      8.0715809354742269
   329   3      3.9597302212170176      14.390988064005468      9.9951509369890896
   330   3      6.0064479655095653      12.139579530965154      10.070202605056773
   331   4      3.9038730269419601      16.089903521688601   -0.095839927037671746
   332   2      6.0680610707900788      18.127656311944165      2.0110653611496887
   333   3       6.058526630644999      18.341983977616284     0.10928432894397078
   334   3      4.1521558882668277      18.312980267592085       2.183869493442617
   335   3      6.2480649169541529      16.251035856600126      2.0715885469013964
   336   4      3.8641983431927107       16.05269023463298      4.3140750056922039
   337   2      6.0880505657427468       18.11146226972075      6.0908923101972299
   338   3      6.2826798959999257       18.45193645515339       4.045363108791098
   339   3      4.1369579524845035      18.172707833293224      5.7747156323442148
   340   3        6.21673703988077      16.244476727493556      5.9865612294080988
   341   4      4.3919420571343828      15.877362444869263      8.2068397710059298
   342   1      6.1427982849011187      18.218108791981763      10.017680072181395
   343   3       5.938130654752718       18.31368486739736      7.9950332716698478
   344   3      3.9863756272410011      18.153512754715823      10.223814060359562
   345   3       6.113163731939939      16.210374456601905      10.199144878526372
   346   4      4.1036746798651667       20.01919364681741    -0.22892948603678268
   347   2      6.0331421659730387       22.19419130450569      2.0422090783429581
   348   3      6.1131870423737213      22.500493942574487    0.099581737120955915
   349   3      4.1046473493735753      22.443328370245457      2.0980235768289193
   350   3      6.1219581615120449      20.328035095366186      2.0528113404099706
   351   4      3.9620594996297549      19.926715863118904      4.1317338005957458
   352   2       6.170483462390207      22.240747841403142      6.0892948077392441
   353   3      6.0700848497089277      22.389425652395214      4.0718297132534635
   354   3      4.0140559743680502      22.600412037675561      6.0644019546435235
   355   3      5.8867342834538814      20.340633337213724      6.0827952942416221
   356   4      4.4016205325124824      20.172843550973205      8.2865831156387948
   357   1      6.1260853280702987      22.278845314238232      10.072359766427615
   358   3      5.8907048078542452      22.365938455334078       8.023529253940989
   359   3      4.0112281466884188      22.573954168113453      10.094132624339931
   360   3      5.8776456899987517      20.264483981988878       10.11516779771088
   361   4       7.847423670475342       12.00185720978233   -0.065668473997571142
   362   2      10.107978816849727      14.120022539830588      1.9276437356210534
   363   3      10.094927993642836      14.328283661845102    0.068447545021602857
   364   3       8.175415652363343      14.201089580232502      2.2320704858099032
   365   3      10.260940997976256      12.183474743648352       2.083759858660474
   366   4       7.725676229040678      12.055608617172359      4.0862157647213495
   367   2      10.082374479238108      14.004299541005256      6.0842327546009543
   368   3      10.262974125122536      14.184606829694046      4.1038935683308173
   369   3      8.1433907231851776       14.19506798834008      5.9689829557463918
   370   3       10.25717730937593      12.121698137377846      6.1657584542686443
   371   4      7.5880971975234255      12.253760303676646      8.2022001589569307
   372   1      10.143089931051009      14.089538243443441      10.105984575579837
   373   3      10.089227237370384      14.358718804993453      8.0262860853067117
   374   3      8.1099401470848687      14.172552571064879       10.15576164198843
   375   3      10.387042898542267       12.05517601139138          10.03004549824
   376   4      7.9769070756611855      16.183751002597791    -0.31923179268775248
   377   2      10.152083427332013      18.082082393799869      1.9723077235754476
   378   3      10.231301352775814      18.189553265641081    0.081458770988147008
   379   3       8.158328874716064      18.423896423421198      2.0420438884135628
   380   3      10.093958177570018      16.219759997077787      2.2284995419053821
   381   4      8.0130309000726232      15.857387454913573       4.149819293707087
   382   2      10.237709516411622      18.152934740913899      5.9760573149373819
   383   3       9.996698995136839      18.455241102570731      4.0666524284495322
   384   3      8.0781656709863796      18.539555253153452      6.1158584075660176
   385   3      9.9969396545966482      16.272921861130886      5.9618307284422976
   386   4      8.0022597266262974      15.721754349482158       8.247898005526503
   387   2      10.106109540015435      18.107597457724175      9.9991130051855244
   388   3      10.137488980447456      18.171148514921061      8.0936044673920211
   389   3      8.1897229136259568      18.421886698102806      10.118120434995356
   390   3      10.037347871439776      16.244705601868237      10.268344210859032
   391   4       8.104419998183058       20.03480533994766    -0.26116899930892229
   392   2      10.150004025791302      22.173693086261984       2.055067400091851
   393   3      10.102301377614028      22.568160686404738    0.068411191400951213
   394   3      8.0835374954775379      22.426118362376339      1.9981667396350984
   395   3      10.203030059175905      20.274250448404661      1.9652969465677554
   396   4      8.1520458184624527       20.02727034934561      4.0318556804303523
   397   1      10.155210706757055      22.252073652987605      6.0362700019311815
   398   3      9.9955513619570464      22.260847779792858      4.0093226092160004
   399   3      8.0544943424117843      22.188720600431669      6.1756787747850783
   400   3      10.173548299493087      20.224538190250072      6.3559106676256736
   401   4      8.3516552317790165      20.232773181172774      7.8794358034237515
   402   2      10.139620299915194      22.139162522125684      10.195868179741726
   403   3      10.164929117408532       22.49149033232402      8.1405601301060706
   404   3      8.1743342222459852      22.161022966941751      10.027605126166824
   405   3      10.355884643507958      20.233418675430933       10.01861038699851
   406   4    0.051376008624152758      11.849777748309583      12.153174364614761
   407   1      1.9970910449927886      14.230253646045531      14.153036802418724
   408   3      2.0424771114527194      14.171746080705233      12.152497213191159
   409   3   -0.069087368175318783      14.127055691973833      14.144936035991666
   410   3      2.0638610738750574      12.164614949784871      14.392190092535373
   411   4     0.27558398865045836      11.998501408013974      15.927005393030271
   412   2      2.0763806551158095      14.152010371406648      18.088449305250247
   413   3      1.9645499949167498      14.284518725029013      16.244352126923523
   414   3     0.10684545857382671      14.147179685630501      18.462685172146756
   415   3      2.1363392062927233      12.229256844783823       18.27599484401685
   416   4    -0.12914848644616292       12.13490334619164      19.927072805123167
   417   2      1.9363938046176705      14.068567887774007      22.261566582849291
   418   3      2.2266693662000074      14.199523129024648      20.370672582349318
   419   3    0.069862753885784307      14.347264423271117      22.273866621526405
   420   3      2.0305324987925597      12.203957217615732      22.451554303126404
   421   4    -0.20663401912777349      16.179516591116268      12.075524005873275
   422   2      1.9963853758534063      18.185515590657229      14.039788850642568
   423   3      2.0201455091035592      18.384615304086765      12.167235103699621
   424   3    0.095713387030725683      18.387533659655698      14.311655293912537
   425   3      2.0990349899279339      16.303943305895842      14.242832531066778
   426   4     -0.3973931735728356      16.217982003313377      16.315969796676757
   427   2      1.9543473550002581      18.210812916023841      18.177308971782221
   428   3      2.1919979250503818      18.217222954554749      16.304038206241689
   429   3    0.097286318107478648      18.367988700517142      18.235036209546511
   430   3      2.0512982226201903      16.268348218209169      18.458440920506888
   431   4    -0.36844040627222585      15.935006497526418      20.036083983817186
   432   2      1.9846972962536809      18.135252845058119      22.212744133622266
   433   3      2.0555950127322791       18.40391010790335      20.327253956035513
   434   3    0.069975842267514618      18.217323386446076      22.484431812401251
   435   3      2.2480829043752837      16.257320448097087      22.301959213657558
   436   4    -0.21713783260131181      20.241218526653928      11.906125584581655
   437   2      1.9955119205287264      22.224630912402876      14.092747937183423
   438   3      2.1386359085174251      22.223102978258176      12.198676853249896
   439   3    0.097880559621762175      22.230096741944404      14.252333018602604
   440   3      2.1650216773850901      20.300121454181511      14.401829889226772
   441   4    -0.27565453817554147      20.157463026001729      16.124111468480073
   442   2      2.0785030255949497      22.200404575626191      18.138027595028479
   443   3      2.1111003471249941      22.396035085823087      16.274660406741788
   444   3     0.15657031747441774      22.238765060022605      18.345540910354757
   445   3      2.2398143233451235      20.281077453242251      18.279072212062008
   446   4     -0.3453040425837291      20.299377661771381      20.195515861401592
   447   2       2.020919846696335      22.190433986128767       22.20016436125303
   448   3      2.1433167247787623      22.268610721559263      20.336330030923449
   449   3     0.13133826323354308      22.463303743098312       22.37908580730268
   450   3      1.9804176894664456      20.297308719310085      22.503338865480984
   451   4      4.3156869277964107      11.783214958067775      12.036525608920149
   452   2      5.9750195936438502      14.177560799661347      14.171950916587766
   453   3      6.1043154315626564      14.162160503078763      12.207003824255965
   454   3      4.0781750774211414      14.170463687658728      14.382986554393876
   455   3      6.1407668532763342      12.201230995516486       14.27636355357205
   456   4      3.9456004705379626      12.140635008486766      15.840021163216171
   457   1      6.0964014783968752      14.158124917329019      18.145841910150498
   458   3       6.347115541664861      14.233811017483969      16.149453642004218
   459   3      4.0340053843041757      14.339548899890833      18.306208248417875
   460   3      6.0951702136956829      12.127402010289831      18.364508105108609
   461   4      3.9533405817216365      12.014433014965784      19.934382620283909
   462   2      5.9948494096838942      14.192843085659815      22.244399909245683
   463   3      6.0859052613331022      14.279692239853793      20.340401497319338
   464   3      4.0969809090271863      14.197955500364829      22.498894505602191
   465   3      6.3012353220329613      12.253908577375988      22.342625331235066
   466   4      4.4902830397280447      16.434660554926246      11.904702509119522
   467   1      6.1156396732950107      18.233205330084203      14.147942643498359
   468   3      6.0406913035400711      18.349996871335804      12.131817701944472
   469   3      4.0308389022895401      18.277581749250093      14.325984166805732
   470   3       6.072826565419466      16.188538124657271      14.227016926719186
   471   4      4.0258311205629651      16.299409638342826      15.809661201287291
   472   2       6.108437825469994      18.150349166967899      18.179942082151911
   473   3      6.0503198273939685      18.236402628208911      16.287771038870531
   474   3       4.124535053675495      18.206782106664694       18.47216350851005
   475   3      6.2162055804770517      16.258442680626111      18.378778722959485
   476   4      4.0569741970571043      16.008612499720527       19.98864617330938
   477   1      6.0774867216572526       18.19257080631693       22.29077610490549
   478   3      6.1834979808142414      18.460281774113191      20.268003796520379
   479   3      4.0228085856879456      18.492793878528484      22.282651426400768
   480   3       6.094366272039978      16.166109300600855      22.475400599564562
   481   4      4.2952166974777155       20.02805783157828      11.863004183754922
   482   2      6.1044996333284178      22.306742755805246      14.002090954536916
   483   3      6.1093082119228415      22.229500401354539      12.138353975956651
   484   3      4.0940366008223004      22.298104829914969      14.342527472045218
   485   3      6.0919757917534767      20.323009787345782      14.361920786326337
   486   4      4.1721395878314507      20.118702309698755      15.853714273317244
   487   2      6.1018564331612133      22.254031146418804      18.148651985619765
   488   3      6.0840131766424461      22.400000369233762      16.283453314203971
   489   3      4.1014549865991814      22.460114200207851       18.36763943757968
   490   3      6.0336173998683273       20.32463387898018      18.281823882715013
   491   4      4.2117668325058109      19.925479626284282      20.257363870388239
   492   2      6.1142954094522288       22.29912566899344      22.235737914000719
   493   3      6.0531947021515675      22.257057005768292      20.329235798029814
   494   3      4.0662197910594262      22.207490484827971      22.527589160472601
   495   3      6.2073367244413049       20.34661842912751       22.48195531079606
   496   4       7.784255805894019      12.065367630156896      11.808010540761529
   497   2      10.164379991356906       14.09899175170408      14.030548664713512
   498   3      10.267666503336448      14.138206925457377      12.181531563950323
   499   3        8.19321765588065      14.288476690796104      14.161890216094815
   500   3      10.109192932751485      12.206582631242799      14.383501641909596
   501   4      7.9358008782263338      12.075344020548792      15.893444059299645
   502   2      10.162905560716437      14.088850031007851      18.112721585107305
   503   3      10.041870924387391      14.338913809357351      16.260415312656679
   504   3      8.2204453784585532      14.202828997813283      18.500303184679943
   505   3      10.183378796185862      12.197264181553427      18.253569786716344
   506   4      7.8989398377510636      12.106171062492978      19.988660023714068
   507   2      10.138123976185909      14.141693148699609       22.16093145351287
   508   3      10.264255109591836      14.223539288482343      20.300086371073217
   509   3       8.167812766612407      14.395395714536008      22.285367693747659
   510   3       10.07152013190918      12.248319494809291      22.509881377038173
   511   4      7.9504313443639942      15.874930449544006      11.776976155417206
   512   2      10.115782259653603      18.199631412274307      14.013750807547515
   513   3      10.110464675574374      18.392250223402758      12.131944820852192
   514   3      8.1719246931291885       18.25975767828945      14.341849787595843
   515   3       10.19123135593671       16.22110872203114      14.234676015322098
   516   4      7.9693298662298799      16.077958304981756      15.874346356353284
   517   2      10.168569060544765      18.100897152608923      18.153129819597652
   518   3      10.166882934260837      18.153811656074108      16.287543964895807
   519   3      8.1217152276341906      18.388749300100031      18.320262853038763
   520   3      10.025315683085575      16.236413337776742        18.4105967733027
   521   4      7.9872641146171395       15.97188738916903      20.070112377711368
   522   2      10.200236385317195      18.244890235752994      22.198578845606228
   523   3      9.9956623014387986      18.358699800369788      20.294719095717333
   524   3      8.1542025415741559      18.192577455973506      22.510588563341276
   525   3      10.251635916519756      16.236296237862085      22.372856730031099
   526   4      7.7565715331922922      19.993298641818743       11.83900880400857
   527   1      10.130785689322993      22.210466722662375      14.134783075689906
   528   3      10.045936378385559      22.316681347790592      12.115541759796505
   529   3      8.0505111650457462      22.266414895581008      14.343854344325775
   530   3      10.123867505089011      20.184263640187186      14.437127621926475
   531   4      8.1366912533875606      20.206125957201181      15.797579015411303
   532   2      10.157884162688992      22.137540306789955      18.250696188324802
   533   3      10.051736478189721      22.511032452547546      16.324671086772618
   534   3      8.0643210653748501      22.328257936176737      18.369425564154763
   535   3      10.153588018228783      20.254987412742778      18.241498439240136
   536   4      8.0213937874360148      19.958111234918555      20.259207562150795
   537   1      10.137227701041729      22.195622080787466      22.298929062803122
   538   3      10.079725346136419      22.393050054486846      20.241410358806313
   539   3       8.058679043217758      22.495232361273896      22.394116208272052
   540   3      9.9826817709374147      20.191879032934754      22.468984209370252
   541   4      12.059358137227667    -0.29849004463162698   -0.057671877585096919
   542   2      14.060059847433681        2.07106696442662      2.0096047523857083
   543   3      14.210618697934093      1.9037194057176328   -0.021772028027155513
   544   3      12.150005561959956      1.9567303521637065      2.2116550059717119
   545   3      14.289534820945736    0.068682704033484199      2.1658372068036185
   546   4      12.031765246072448   -0.045908225593031315      3.7213839193217662
   547   1      14.150253030357955      2.0055146212533685      6.0327283981559692
   548   3      14.426547835528844      2.1127447033706832      3.9822912018146073
   549   3      12.140339752347604      1.9254421889271176      6.0024211826801368
   550   3      14.473034456353082   -0.023368487218333827      5.9035746079028284
   551   4      12.161361663225989    -0.33838740995061661      8.0820761915281665
   552   2       14.21174349129072      2.0283055718313285      9.9859587421770346
   553   3      14.239965082359257      1.8189854423737564      8.1039301712591989
   554   3      12.179476619372622      1.8936862579025173      10.263109346836991
   555   3      14.255055853398966     0.05435504882691479        10.4522510060398
   556   4      11.748505136641018      4.3141994180287062     0.19246697477576308
   557   1      14.159891758446596      6.0795301719412613       2.008555059411389
   558   3      14.131556077958102      6.2390923154868139   -0.032937971279837365
   559   3       12.12941719225674       6.176157239934839      2.0618032037792786
   560   3       14.12548335561875      4.0272784193881712      1.8307023360788917
   561   4       11.79554320381718      4.1001371691474766      3.7056133493739938
   562   2      14.102049246946775      5.9235766365680957      6.0174543808588217
   563   3      14.269279799302872      6.0910121210711026       4.109124415250629
   564   3      12.178427431147869      6.2919549513509239      6.0430960059145766
   565   3      14.118981914633469      4.0613100506017474      6.2860812685502001
   566   4      12.069379420742219      4.0001511109209407      8.2680646466347092
   567   1      14.145558127710329      6.0420886613755798      10.097796577621132
   568   3       14.08920204412652      6.3561957412868297      8.0481065213797311
   569   3      12.077871193410251      6.3193488723468922      10.089539772404883
   570   3      13.870269531019028      4.0021673527211501      9.9636479122105328
   571   4      11.858305844312959      7.7558784521184254     0.18760406404707858
   572   2      14.047698031019614      10.078360166242659      1.9654728285071335
   573   3      14.251900828049262      10.013877051437134    0.069608659503841139
   574   3      12.164070031264298      10.143997764350797      2.1933336304240925
   575   3      14.262166424164693      8.1710748715069297      2.2812461366874257
   576   4      11.999582137401113      7.7451311098014131      3.8297316585536918
   577   2      13.995394646616178      10.115097868841977      6.0116300486531422
   578   3      14.328172119934443      10.244040410883548      4.1096266054759001
   579   3      12.142163877376491      10.043072580640048      6.0101116607234291
   580   3      14.439445121623169      8.1525302403605124       5.994377411466397
   581   4      12.141280873656376      7.7967540211702202      8.1437413901209794
   582   2      14.318810663785854       10.05725809167671      10.048755933751169
   583   3      14.156312308402351      9.9340204585300782      8.0962016383185667
   584   3      12.119948773660612       9.937414104838167      10.321950767446031
   585   3      14.206809603686649      8.1341767273287129       10.36031225394507
   586   4      15.950968476114504    -0.12786288812708604     0.15544602311748287
   587   1       18.20778701901363      2.0444761221975778      2.0123798374052111
   588   3      18.503795165548432      2.0195860342472032    -0.05051156400948504
   589   3      16.184160866591803      2.2202125372796271        1.91987508803886
   590   3      18.380240210079513  -0.0032597033963780247      2.0641648070534226
   591   4      15.908631762611535     0.12211245053331644      3.9704213699896611
   592   2      18.238757845924471      1.9235581495740814      6.1678284307809514
   593   3      18.152185076216384      2.2723457863759897       4.064642840571441
   594   3      16.260350586834647       2.281602280593769      6.0975116748218241
   595   3      18.108538151215278     0.02444307062019014      5.8824704055323078
   596   4      15.935087176853768    -0.19953272566940694      7.8443043418405392
   597   1      18.182637082089983      2.0079438193716967      10.119072434030254
   598   3      18.367385949264865      1.9799231299288125      8.0872292719321912
   599   3      16.144674328495633      2.1543012954150211      10.278440257619174
   600   3       18.12827083634625   -0.032207919185657415      10.371743661357378
   601   4      15.973421400079074      3.9345712659588874     0.22421121300549759
   602   2      18.098414060675385       6.068272603276891      2.0225450002025456
   603   3       18.37072159573701      6.1994222172106737     0.03737742592168964
   604   3      16.228702205415694      6.0567875871009793      2.0126495007909799
   605   3      18.399239360878028      4.1444549264120925      1.8958081867455558
   606   4      16.194664225027001      3.7007722239562155      3.9907623921076749
   607   1      18.191541403609669      6.0735595786007144      6.0751059649807573
   608   3       18.38537746749801      6.0221464623554599      4.0021008323152589
   609   3      16.147245990456362      6.0030022279673618      6.2975649674278635
   610   3       18.41268836706853      4.0469217105366484      6.2171559592732075
   611   4      16.153460267334552      3.9953730224073047       7.752098213290731
   612   2      18.005761701922889      6.0410532536599844      10.129390420439156
   613   3      18.393083705357839      6.1362500099765382      8.1655927800699182
   614   3       16.16512753012276      5.9401163810946818      10.022135093352132
   615   3      18.489574819472768       4.093007002896881      10.039547456429078
   616   4      16.106695638407036      8.4006123687656107    -0.33633929021308429
   617   2       18.10307635947396      10.159203902350773      1.9732242959827411
   618   3      18.224987696099451      9.8692168633022792    0.088339899732562524
   619   3      16.227521726107629      10.113270461604571      2.1074396012564027
   620   3      18.296301091390273      8.1046782849501149      2.2155849207171743
   621   4      15.911132095785389      7.9360117525346023      3.9647611716505384
   622   2      18.085508894757865      10.125094013403897      6.0799503675306719
   623   3      18.403152229570392      10.174122653214738      4.0732584098026656
   624   3      16.226599735861072      10.236933534066463      6.1924808735560077
   625   3      18.279932470401828       8.152411293665434      6.0266503755046203
   626   4      15.956420291229225      7.8133559535927501      7.8913321373247793
   627   1       18.16781377446982      10.108158940186197      10.058816826397891
   628   3      18.463182046189431      10.054061240297042      8.0381744103354311
   629   3      16.178888296718771      10.308857559382673      10.163559425187906
   630   3       18.29419640080657      8.0108411204368739       10.20037911444772
   631   4      19.916152892505924   0.0038912989356691585     0.11125404699921899
   632   2      22.206987373322253       1.977472503331027      2.0650549467857182
   633   3       22.31062599450161      2.2296571403208514    0.044659819005173435
   634   3      20.337189083618846      2.0652620576252336      2.1366310095177594
   635   3       22.41687267630105    0.062774696437756891      1.9622297760857168
   636   4      19.920119192828889    0.015135293381236484      4.1445472572893989
   637   1      22.216261193757596      2.0034524250771932      6.0561123143088453
   638   3      22.570149983824322      2.0224412402516232      3.9792833380948225
   639   3      20.198510166014454      1.9144612569916812      5.8330965805445532
   640   3      22.605150322864233   -0.011229252914153389       6.056087525066653
   641   4      20.097369267425144    -0.28354457980171005      8.2416118595721262
   642   2      22.192250521051012      1.9670058735703719       10.05925501365641
   643   3      22.355133234586056      2.0210112408299596      8.1393840820436729
   644   3      20.311343413389359      1.8873664695814911      10.305477457171717
   645   3      22.566212618499897    0.049605965422528528      10.147339162569008
   646   4      19.976649713158753      3.9533148011799253    0.029561865919389488
   647   2      22.213513024400584      6.0348821089444327      2.0506722822353307
   648   3      22.491035950576585      6.1183807222615911    0.073605704232253322
   649   3      20.346464296438171      6.2078963007667562       2.015727718748626
   650   3      22.357253650419349      4.1120319035760113      2.0840593016488951
   651   4        19.8729618661005      3.9175015090728733      4.1851352591782396
   652   2      22.193475023363689      5.9469512869202914      6.0966171289765132
   653   3      22.365787881016079      6.2198053663633397      4.0537991576050922
   654   3      20.336904982774666      6.2511733378870789      6.0887216978939751
   655   3      22.242750445571165      4.0807827891252479      5.9739123443562709
   656   4       19.88294882436891      4.0853396163258315      8.0993489869939399
   657   2      22.202123222934368      6.0964373423857099      10.240876963479307
   658   3      22.440085174806999       6.087152750650934      8.0351915080223151
   659   3      20.326895804215958      6.1469951275865355      10.119518254007687
   660   3      22.279089488268617      4.0457798334785169       10.12515222190731
   661   4      20.002045958041876      8.1525534774756423    -0.15261638697826635
   662   2      22.199252605473333      10.080473477960298      2.0968557694251859
   663   3      22.486266830394289      10.074349454436577     0.03317206230482013
   664   3      20.313078879293744      10.010459268539352      1.9998459415691399
   665   3      22.525509250267927       8.131068433953736      2.0163204891459432
   666   4       19.89064021695301      7.9625069229117313      4.1565181923317898
   667   2      22.266570557708089      10.031595297178688      6.1664582198689839
   668   3      22.437475388841655      10.212053548613918      4.0318208382496445
   669   3      20.361581561207934      10.035082283470697       6.043665982410289
   670   3      22.554756578096654      8.1316163783148099      6.0533505281817002
   671   4      19.885737243927096      8.0587137832036202      8.1796936050112414
   672   1      22.300089018488851      10.062910884202935       10.14251725260889
   673   3      22.395109033721084      10.176196370941192       8.069196409329713
   674   3       20.27447752659954      10.071533575453552       10.24123861475198
   675   3        22.5179159082059      8.0084885445049334      10.030742580977105
   676   4      12.220521137960269  0.00027348513531019297      11.781149599016821
   677   1      14.140769094213898      2.0150434439224738      14.186235533492519
   678   3      14.189874025497391      2.3426592773172943      12.151114268581569
   679   3      12.094180754002117      2.0577109792399089      14.189596822210568
   680   3      14.312750478256167   -0.031681493948998288      14.017499340740775
   681   4      12.154994293591784    -0.35523185535964319      16.126276090060383
   682   2      14.169371420447908      1.9867926781952572      18.133317047277107
   683   3      14.155917786644343      1.7618343327850092       16.25882678039973
   684   3      12.120301167338297      1.9835189287917954      18.339648668497063
   685   3      14.307114752853252     0.11276088702410503      18.512699272273196
   686   4      12.055976112608286    -0.34365856917223764      20.371852563434789
   687   2      14.041969818471967      2.0686156203446635      22.213140644458829
   688   3      14.290689972227858      2.3266132083817843       20.29902194585236
   689   3      12.146545892167289      2.0869466223399784      22.179573978697395
   690   3      14.226478395915805     0.13935898785380005      22.077355521260834
   691   4      12.369813544345046      3.8212671989166491      11.982318420197632
   692   2      14.190203663724624      5.9946858270249219      14.053568432475524
   693   3      14.001094087887454      5.8374680084860273      12.169893449570713
   694   3      12.202460097642378        6.09999764869261      14.415750819534951
   695   3      14.090726851091841      4.0813404138711444      14.482478723731496
   696   4      12.116798990406771      4.0815946870104218      15.898180136552256
   697   2      14.109529878141277      6.0860530942401967      18.287338748783309
   698   3      14.279730169106882      6.2568214807463098      16.224881333685971
   699   3      12.148039453749714      6.2796510063941451      18.210270920162589
   700   3      14.011441157380887      4.0746437089901342      17.976653376213676
   701   4      11.781076935618206      4.0968239811129834      20.455772031837888
   702   2      14.075426281427045      6.0629877194762392      22.395761323039167
   703   3      14.205687807471906      5.8897959306271135      20.236644426722123
   704   3      12.182150285526829      6.0845614560592907      22.184675660284146
   705   3      14.279026298239348      4.0686414160325732      22.472851256177293
   706   4      12.339024569523259      8.0251687175275741      11.854703797380495
   707   1      14.113242180788856        10.0662134304721      14.116087788257191
   708   3      14.188969650607616      10.355731934374093      12.099597038638137
   709   3      12.073718427540236      10.258999208433783      14.217410780242275
   710   3      14.287872370688664       8.026659642920686      14.052769025890967
   711   4      12.019242988175145      7.8671975332486896      15.940915822254455
   712   1      14.094181940261734      10.065527375938782       18.21362017646344
   713   3      14.258203310527414      10.073781965983837      16.185935648781921
   714   3      12.055994298391113      10.157156266926229      18.401109207961717
   715   3      14.391050691984601      8.0300811242179133       18.30774418030235
   716   4      11.912231809269754      7.8636557007167971       20.30887036920338
   717   1      14.065213709868441      10.051499287538444      22.302855628082472
   718   3      14.233766670822245      10.229574641259482      20.247677278107879
   719   3       12.06453227956643      10.394000476734551      22.264721718084619
   720   3      14.239923830194476      8.0106920361712746      22.099649872812883
   721   4      16.072782102458223    0.013096834191326279      11.926232358408271
   722   2      18.082038689007323      1.9219215365051927      14.166485711706759
   723   3      18.216133255633952      2.2919050898399531      12.206454792032122
   724   3      16.213177611119562      2.1400842148253583      14.198390298659842
   725   3      18.201034778586298    0.039317442474797029      14.025447336352972
   726   4      15.873880456838156    -0.17962255161924962      16.000531902741134
   727   1      18.116931610424775       2.048298745428895       18.20596288653098
   728   3      18.460547084003498      2.0036154840861036      16.135517986097913
   729   3      16.109435411768864      2.3524334633407609        18.2207195676643
   730   3      18.277114455115342   -0.014089282801662708       18.33136060784102
   731   4      15.958866454871067    -0.21546328518135574      20.214428634621004
   732   2      18.090053973900332      2.0249260971315937      22.287311464649836
   733   3      18.295460621202011      2.1695259276085719      20.327199068184584
   734   3      16.221255157625116       2.100801041069857      22.376023137213966
   735   3      18.338465059567113     0.10615146494576065      22.227598157985952
   736   4      16.107118953347655      3.7522487504933411      12.146092523853806
   737   2      18.341552468752699      6.0788869874238198      14.211697215897681
   738   3      18.251077570706862       5.882931213185465      12.109180576826491
   739   3      16.190318859747261       5.965459606781355      14.101641296655435
   740   3      18.373968175715341       4.040575606364242      14.280122229356168
   741   4      16.069426255039765      4.2038207666689109      16.329786087344946
   742   1      18.139056242670659      6.0899797443837924      18.244950372112203
   743   3      18.266485314634146      6.1227362641155141       16.16028440746404
   744   3      16.129420229711382      5.7491551187933272       18.21747158524607
   745   3      18.454088886763866      4.0651327571245268      18.164389099986831
   746   4      16.173474380583261      4.0513975557353978      19.978799928065673
   747   2      18.132866859132211      6.0686589532527169      22.203452356465547
   748   3      18.369137362948941       5.989544435482494      20.317641145020087
   749   3      16.241700095511266      6.0737172178302501      22.289115622663296
   750   3      18.339467058231278      4.0771565277341235      22.464765959730997
   751   4      16.240377136800397      8.2582780526144131      12.544719343039201
   752   1      18.247460877633909      10.080239561350632      14.197827674587147
   753   3      18.259285626309545       10.21714735938202      12.140624580628417
   754   3      16.202330423604483      10.201930347585941      14.077952813665338
   755   3       18.13347682745448      8.0332418264635468      14.014150132079852
   756   4      15.753469043315167      8.2019259480458704      16.241882027234698
   757   2      18.090220389020345       10.16879950297219      18.297341001597818
   758   3      18.411368328306711      10.079762367810618      16.250899737484602
   759   3      16.224164570315509      10.184882699952178      18.201367309429077
   760   3      18.372515020773417      8.1430211533005892      18.230388894148852
   761   4      15.838357459658804      8.3816726798571199      20.356843018124049
   762   1      18.249690196676255      10.122154255530367      22.268442711097546
   763   3      18.362924211768739      10.065618642842434      20.205242330101395
   764   3      16.207557228782417      9.9650929420252776      22.209589128230764
   765   3      18.394782317782234      8.0029599422831836      22.289491372907516
   766   4      19.968619713421909    -0.18490054515473639      11.952224705833517
   767   2       22.18239349581799      2.0855169714030755      14.184936241820267
   768   3      22.547962851236665      2.0208092205910746      12.178510830322102
   769   3      20.306924944498967        1.95768496637921      14.033557264647746
   770   3      22.468547419763745     -0.0428057092549003      14.197876690054528
   771   4      20.117517016227907     0.34440412874300375      16.468696310349991
   772   1      22.319277635029149      2.0370941999840149      18.196364750340642
   773   3      22.242702756612477      1.8361222843395091      16.141938327777392
   774   3      20.298647186621565       1.883094670899397       18.32655043346184
   775   3      22.558143254555297   -0.042091293425348994      18.250854357956285
   776   4      19.998183600789719     0.24600604063090964      20.007469825805018
   777   2      22.223200824622118       1.989360937054357      22.246548573115785
   778   3      22.551467261760639      2.0391993587313078      20.356037626892952
   779   3      20.346813363545554      2.1586311323860334      22.216062121912813
   780   3      22.392739259904236    0.099479191304345377      22.424405983263394
   781   4      19.907503871575067      3.9494720830617811      12.064343856840493
   782   1      22.224472056176015      6.0351238405330729      14.162829884839963
   783   3      22.464634796786147      6.0462783942924245      12.109712121948192
   784   3      20.217440041616673      6.1237637198645931       14.13883669321671
   785   3      22.417647109837198      3.9698746053253813      14.227739458113668
   786   4        19.8692981165864      4.0031784891781559      16.352071815754499
   787   2      22.227918919106433       6.023759290743949      18.138428234847357
   788   3      22.449982729965289      6.1017051972522847      16.265773421571595
   789   3      20.345868152503868      6.2104142071402695      18.227802573831124
   790   3       22.30472109186962      4.1137471819469011      18.385967051078179
   791   4      19.994567189565643      3.9033746785028796      19.879749825274331
   792   2      22.222324438036811      6.0669676411483282      22.204569657233609
   793   3      22.347265526150906      6.1578136830054264      20.320460520131604
   794   3       20.34613026058512      6.0372962213168311       22.41119585873852
   795   3      22.520843344185828       4.116109913964114      22.344446732639948
   796   4      19.922069420529322       8.376340023051867      11.905331284335116
   797   2      22.226669388654642      9.9991558719569795      14.073772795443492
   798   3      22.390778899555997      10.214816403436116      12.193474025765484
   799   3      20.326173545479708      10.118882691304005      14.216239502050524
   800   3      22.475040859512124      8.1387149234612313      14.209079546654863
   801   4      19.843956229509931      8.0764318577571714      16.341603158310711
   802   2      22.331882933699315      10.087365402425544      18.081786368416505
   803   3      22.388809342575314      10.208628642434698      16.192163942412439
   804   3      20.377961839492205      10.004188915385493      18.216599020278942
   805   3      22.491402120139462      8.1055980590901644      18.312029443424738
   806   4      19.917890690130555      8.1601805536511041      20.112314169680626
   807   2      22.157321769226108      10.155524816935742      22.214043539178011
   808   3      22.294197774762608      10.051200905192751      20.318497813959329
   809   3      20.302105854297917      10.033298296678796      22.427466589742746
   810   3      22.366340091326617      8.0765994072635685      22.460453255059328
   811   4       12.24630354989695       12.12784529518111    -0.40198095956780844
   812   1      14.156611439275522      14.182312191082557      1.9986597902663288
   813   3      14.353148810154154      14.252066869474993    0.014806206911226652
   814   3       12.09930383460334      14.234130156496748        2.16481646295945
   815   3      14.241927602442265      12.069264302901987      2.0478713499065528
   816   4      12.180959693281723      12.341378761043901      3.7748026040938392
   817   1      14.092998799558835      14.119312858772432      6.0618725387371439
   818   3      14.145249533815583      14.066417557227792      4.0486043780561101
   819   3      12.085581290752231      14.366078091462905      6.1271840313058572
   820   3      14.171481828174233      12.060516902257369      6.2804294118422135
   821   4      12.203864784959126      12.346127481245913      8.3127336655713684
   822   1      14.182839643729405      14.099103987078522      10.113238690377278
   823   3      14.256457573851723      14.258955769212674      8.0892682300906724
   824   3      12.157739843592774      14.374877039745014      9.9667071083425132
   825   3      13.849355606671786      12.048103057373453      9.9764881669318282
   826   4       12.43639189375947      16.006102265263248    -0.30674343494694545
   827   2      14.276468293710133      18.148054100487251       2.005127106843223
   828   3      14.003869716375812      18.194025685633076    0.060599536809082588
   829   3      12.098479427850656      18.251989637119458      2.2211700595888235
   830   3      14.218822239291075      16.250833024878606      2.1996477257988394
   831   4      12.348563608030785      15.838393796973376      4.0900245060091285
   832   1      14.161560216367873      18.205312225520697      6.0164230584016041
   833   3      14.245633539593261      18.525206436741581      3.9951871790053697
   834   3      12.113339897317459      18.274263128913979      6.0137764415747368
   835   3      14.367120905082439      16.200921344420468      5.9287493400758535
   836   4      12.211542702925181      15.787225980862299      8.0762450853090222
   837   2      14.211803334785738      18.252284424582236      9.9570572567923215
   838   3       14.18963097710642      18.083720745530727      8.0856973677403783
   839   3      12.143186475622851      18.112735212569586      10.269267432691546
   840   3      14.261138518730181       16.25344109251704      10.347194296852791
   841   4      12.372456240618876      20.010749154570565    -0.02836313570162206
   842   1       14.14686818987107      22.250679570051762      1.9813452474819653
   843   3      14.117639834267036      22.638589912435716   -0.046472076171773326
   844   3      12.087309483209188      22.509122770477074      2.0292300463939368
   845   3      13.911880021848624      20.234163359557797      1.8747301060135058
   846   4      12.455790545038754      20.115541987134474      3.8090044798456804
   847   2      14.137026656919174      22.286207559352253      5.9200266104501571
   848   3      14.174565444400997      22.165088721516053      4.0272533513707875
   849   3      12.192619255527429      22.390759777121488      6.1736434004952221
   850   3       14.09313473510997      20.311185701207563       6.300236043183558
   851   4      12.152758850327732      20.263569984747541      7.7460799542252534
   852   1      14.133364174555677      22.245698030706549      10.071945980327627
   853   3      14.136259993178459       22.60693631131273      8.0687049837935785
   854   3      12.100559127221215      22.587892002584216      10.118947484705989
   855   3      14.001897609870745      20.203210113217789      10.039406432740339
   856   4      15.801896913493216      12.338512395539871   -0.090075647205706308
   857   2      18.172295898317817      14.326157101062185       1.996271199730612
   858   3      18.045493616897264      14.255945997618353    0.008096148203813781
   859   3      16.270277778890993      14.031648933150221      2.2035121988437925
   860   3       18.42073080582912      12.066120251868682      2.0006108149092117
   861   4      15.860315458945186      12.384843342888788      3.9712659034529603
   862   1      18.237701638241198      14.107916559085078      6.0709397754679966
   863   3      18.539960794983703      14.062096311185467      3.9920616312820942
   864   3      16.222634178382336      14.074583824660836      6.0656810183800118
   865   3      18.512825290067529      12.073127325545761      6.1312793518368434
   866   4      15.937072336303705      12.446564085429653      7.7801743754281771
   867   2      18.075165946661674      14.167433322518082       10.05695728638462
   868   3       18.30757308637785      14.342623387451688      8.1661246600423709
   869   3      16.216151658677752      14.111480336559515      10.235047788497093
   870   3      18.499836426474815      12.253485997157959      10.063296656744233
   871   4      15.918569488499726      15.921059382994821    -0.31502823265937141
   872   1      18.224778356229201      18.182091752903887      2.0251273279249817
   873   3      18.306129951801637       18.37916286499199   -0.069418429109950497
   874   3      16.177475659912957      18.457448738842086      1.9426119985516352
   875   3      18.277590563663086       16.18234147116646      2.1820419746220954
   876   4      15.923255278492805      15.857053718092232      4.2638738209367606
   877   2      18.209913961514118      18.119343463719467      6.1265345345957103
   878   3      18.161206102658156      18.528172354439892      4.0607554603692453
   879   3      16.248376036685244      18.498154232971505        6.06262415812754
   880   3       18.17638465452076      16.213702743603839      5.8891438216560346
   881   4      15.825420118355161      15.957731127697389      7.7364056047242444
   882   1      18.194631556121141      18.204372778035673      10.086840818953963
   883   3      18.371262495320753       18.19493001509883      8.0585272304138815
   884   3      16.151669188774584      18.301859101886457      10.284554784773311
   885   3      18.149279041298556      16.166299710610829      10.411787863209724
   886   4      16.362045306895769      20.030397972257305    0.095094053763755321
   887   2      18.086669329198617      22.305527802191506      2.1117549839203775
   888   3      18.255682850631917      22.550315834042106    -0.02802158293511969
   889   3       16.20984904831565      22.329395664726214      1.9037226450312048
   890   3       18.28699425790855      20.388317668583834      1.7555567283318931
   891   4      16.245787938691365      19.936991520725119      4.0580392861061316
   892   1      18.166816742433863      22.275867685779957      6.0548690517167723
   893   3      18.326981190350178      22.193704870039245      3.9929730588044547
   894   3      16.147273889035301      22.133828454995278      6.2603594003509251
   895   3      18.409332143573796      20.258338404457781       6.218522200853787
   896   4      16.088048939947118      20.263540486457845      7.7196004483098042
   897   2      18.070161466723224      22.261422839768802      10.113538275177968
   898   3      18.362977460439847      22.395154004657535      8.1478630513766266
   899   3      16.183519944603511      22.195794974903723      10.163937169154918
   900   3      18.481055947893498      20.296916873168936      10.042235690996055
   901   4      20.402354931386007      12.345221664397735     0.17382783505861521
   902   1      22.263502216497752      14.151473965520605      2.0672165200231101
   903   3      22.340342354747779      14.247267854406021   -0.011746905968549957
   904   3      20.203873456441602      14.144379706919908       1.729018074828911
   905   3      22.231943418192369      12.074665332719466      1.8201122528465841
   906   4      19.952241226559639      12.157903089032711      4.1095277731770272
   907   2      22.227286923016209      14.121321842521537      5.9545613741547889
   908   3      22.095113161994753      14.220891206106675       4.082581723161149
   909   3      20.318241111497411      14.424738359958949      6.2108202497209453
   910   3      22.209284382865807      12.195431196985369      6.1317134219985503
   911   4      20.060077657171608      11.825071098095997      8.1973431632423068
   912   2      22.281000878808442      14.076726960201452      10.110408965465023
   913   3      22.358414867854236      14.374621282608423      8.1647042420801696
   914   3      20.330708919151053      14.522891431276324      10.111516016372644
   915   3      22.154202765101285       12.23145924877001       10.13496089968508
   916   4       20.45107769173973      15.817032607830523   -0.039525921656432067
   917   2       22.16292971856728      18.129876727730441      2.0514467835136547
   918   3      22.262830435150946      18.449830267675765    0.027406957421326181
   919   3      20.285260580883445      18.430815653908564      2.0400455338837227
   920   3      22.242516691613012      16.262617437901294      1.9300082371843019
   921   4      20.035993067427281      15.999447308334853      4.1667712354497919
   922   1      22.202333177769344      18.199907074641896      6.0531728235049931
   923   3      22.424543944845045      18.294470871245323      3.9649940486472133
   924   3      20.199426543060987      18.187618858852932      5.8752505202769791
   925   3       22.53598132204354      16.173115269785598      6.1110316775430995
   926   4      20.108150700695951       15.98040944039381      8.0290563965987758
   927   2      22.153347927265351      18.296011503405673      10.066020785733603
   928   3      22.394153486807696      18.262446972545703      8.1467218957502912
   929   3      20.298104541118164      18.060330084569689      10.235731195650342
   930   3      22.606840022868482      16.323567143663851        10.1761710498991
   931   4      20.061980659714262      20.066048749313786     0.13102813934975605
   932   2       22.20483530197054      22.203364491911636      2.0247657979123064
   933   3      22.506897303691716      22.312441783184799    0.092619618851546584
   934   3      20.321711283849638      22.358220785824745      1.9505292163059555
   935   3      22.375356573291072      20.322469955473565      2.0696517067507738
   936   4      19.974149612644965      20.015377685053213      4.2288443931406432
   937   2      22.151023569136306      22.267168676118249      6.0973242118220927
   938   3      22.361487636234717      22.469505505041521      4.0334798885563243
   939   3      20.281920220460961      22.512771998772713      6.0665020967592689
   940   3      22.283084284051476       20.34026758942883      6.0150778849470576
   941   4      19.867250569612164      20.215831299112537      8.0566868659096471
   942   1      22.257675915466073      22.245769564488263      10.100549673679991
   943   3       22.34689939774346      22.429272710654825      8.0332505254413196
   944   3       20.24560551355496      22.564639014282918      10.119882655413447
   945   3      22.210981162653315       20.21729417219996      10.265713200117563
   946   4       12.33936467831384      11.908051993788405      11.926432705645519
   947   2      14.225113252841664      14.194159342502758      14.034365947433635
   948   3      14.038034174101933      14.041098482149383      12.175736986876867
   949   3      12.148987548398752      14.179148697765449      14.395010813947893
   950   3       14.15368503310863      12.240853796031056      14.421289472305933
   951   4      12.308264722299606      11.829188858761452      15.946240341182671
   952   2      14.174010305312674      14.036645149764501      18.187281688654686
   953   3      14.231524520219798      14.423587297517303      16.251157081427223
   954   3      12.159053335812986      14.397125919271156      18.241925808279294
   955   3      14.097942862248761      12.180729258670084      18.127453575088676
   956   4      12.332586365412533      11.731580468129845      20.196886981943575
   957   1      14.156934512316608       14.14583178960954      22.215533629730999
   958   3      14.156291670468596      14.247690121595875      20.186963040754907
   959   3      12.109641760089247      14.132373354294208      22.494150704404479
   960   3      14.283611589616797      12.130193012257008      22.411605661407016
   961   4      12.257416568157197      15.965291954625105      11.730292610984947
   962   1      14.155054415726156      18.185292230493275      14.145021203299136
   963   3      14.172301188419281      18.509798747755269      12.140666735048569
   964   3      12.087291568832123      18.303513348360788      14.283582024542495
   965   3      14.057030376732378      16.141186179711752      14.131006887390472
   966   4      12.319964017589006      16.184395877607276      15.868628240215882
   967   2      14.264369249194624      18.281065834649745      18.125858899564907
   968   3      14.110356539846368       18.11475284533924       16.25490761791367
   969   3      12.109567719172807      18.213864557199113      18.455330122022012
   970   3      14.193113172986443      16.319703216420287      18.460019455919653
   971   4      12.534773419604209      16.102870058579388      20.243953855558992
   972   1       14.19924843539615      18.209934067659336      22.281175496075047
   973   3       14.20248142894483      18.478755520681148      20.266389693912622
   974   3      12.122935981314944      18.379763820843653      22.268664001551784
   975   3       14.09238441242317      16.201473842481668      22.298122792310132
   976   4      12.366413351822894      19.997121114355465       11.98222874849893
   977   2      14.114546988573645      22.317252895993438      14.034358474457981
   978   3      14.125942397055271       22.05803325641612      12.151082652336166
   979   3      12.160792981454986      22.308461958058015      14.349358728865512
   980   3      14.115419444875783      20.308933134810822       14.43519882915532
   981   4      12.183463314571229      20.167853817392302      15.836145917302035
   982   1      14.114684037036861      22.265435029061798      18.230414054545196
   983   3      14.137323655806869      22.598846377201625      16.212957634555352
   984   3      12.058682840840589      22.502848355583232      18.271119043451169
   985   3      13.984543661231372      20.224572528339529      18.209311642973407
   986   4      12.442737460242414       20.02868145650346      20.146718753669592
   987   2      14.210227556824449      22.191383879792486      22.306261137304098
   988   3      14.193377005753394      22.299406170027623      20.332858046790115
   989   3       12.21145776315849       22.48177865884773       22.31068516270718
   990   3      14.175837335608108      20.317420865978203      22.482611488688406
   991   4      16.293269441785608      11.702088115435663      12.238140502376911
   992   2       18.28490084965172      14.106432006784251      14.158395467528265
   993   3      18.376537163464672      14.140451619111547      12.186687107985907
   994   3      16.205708839401698      14.238590301912311      14.209499853482518
   995   3      18.317569165555579      12.221526651097465      14.330119532792729
   996   4      15.941192286329809       11.70412078305109      15.973230005677024
   997   1      18.170957872586886      14.097558322869837      18.223518492362832
   998   3      18.194016529904431       14.41068050768194      16.151759956751793
   999   3      16.130186151531309         14.346972075974       18.23982456300158
  1000   3      18.501673068449254      12.081600280546988      18.158147525524178
  1001   4      15.903781067783049      11.809078371893508      20.661914969353109
  1002   2      18.260756367955796      13.977335737113323      22.204575997259159
  1003   3      18.313041463043948      14.187071974151575      20.297006187812705
  1004   3      16.257518138391855      14.339327274599666      22.228660968475772
  1005   3        18.1286000325617       12.13459493106939      22.354597192529681
  1006   4      16.131004269940039      16.278550012319741       11.79779823232178
  1007   2      18.088483439219473      18.224855893183719      14.093385767800358
  1008   3      18.255344115591878      18.452356941718726      12.204461988396039
  1009   3      16.207797299433835      18.417052469018337      14.218761621742454
  1010   3      18.163570182163888      16.280847946685608      14.088131883121672
  1011   4      16.287683805094385       15.86467031583085      16.243341232164987
  1012   2      18.301251211162619      18.145390949299731      18.171015966415954
  1013   3      18.279344957955981       18.24854724534265       16.26276492729178
  1014   3      16.218859467398772      18.422524997291244      18.315469992743449
  1015   3      18.121333831607394      16.289852444443504      18.335064297451051
  1016   4      16.131714325170972      15.807768506254144      20.202789006559108
  1017   2      18.173862743922193       18.08329084470671      22.306850253414442
  1018   3      18.180290174148983      18.535843230325305      20.309017067003243
  1019   3      16.262689315249833      18.346190701105723      22.315508504713137
  1020   3      18.293934318487985      16.238446020824497      22.232823171628191
  1021   4      15.964199081657075      20.071732295485599      12.003865528668832
  1022   1      18.177102014059848      22.301030141551827      14.164014678198102
  1023   3      18.386449979949059      22.133152413844183      12.110192523705615
  1024   3      16.127893841968088      22.185843979408354       14.35288188617603
  1025   3      18.325424454555929      20.217080942308954      14.390355170200726
  1026   4      16.051906151198928      20.345202874794118      15.850870640293007
  1027   2      18.048795445573472      22.316258371669807      18.166100904511595
  1028   3      18.319260180078047      22.297198916704815      16.275093683734163
  1029   3       16.18394607845309      22.308745764911254      18.252425459539129
  1030   3      18.399831809790648      20.342556583915613      18.265532607796985
  1031   4      16.142082466124265      19.950397572040494      20.300604308809913
  1032   2      18.347140792572617      22.253320139013812        22.2539787965285
  1033   3      18.206692191479974      22.301369657065369       20.28164222579807
  1034   3      16.180114075395021      22.512843350552203      22.335333098017863
  1035   3      18.140460263557205      20.365989361539519       22.41466671526717
  1036   4      20.051658679815258      11.776010131262058      11.887767965178961
  1037   2      22.345585508810498       14.06886482670477      14.157560004451003
  1038   3      22.233009324706767      14.417504936304599      12.156202804303609
  1039   3      20.237889840230537      14.391520519703196       14.27431491707191
  1040   3      22.186647056561746      12.198691321198513      14.219383010576591
  1041   4      19.984338693306437      11.886955932237436      16.156920847757288
  1042   1      22.322175648677824      14.114229476270822        18.1516055172074
  1043   3      22.278961188561588      14.402697261455536      16.122118220322985
  1044   3      20.244814497618822      14.283975413110596      18.228595593702046
  1045   3      22.256524063443447      12.072148425173138        18.4234050817882
  1046   4      20.339394868901167      12.386561872512759      19.868710113009172
  1047   1      22.261916178914898      14.094336484906231      22.253818812193913
  1048   3      22.188004348899739      14.267068687689491      20.265897784866528
  1049   3      20.184892280300655       14.17815371925929      22.513087260589437
  1050   3      22.376627920878871      12.056122633301472       22.37179672592772
  1051   4      20.030574347106729      16.103745815464322      11.960182523719356
  1052   2      22.151299931691302      18.215577115465159      14.193176174820747
  1053   3      22.493125318761429      18.261293923954319       12.20376575386938
  1054   3      20.277594374094409      18.275285651527831       14.19908198786942
  1055   3      22.454086003372311      16.304624575648344      14.178875641681172
  1056   4      20.277600762338157      15.786976756113191      16.398978852444131
  1057   1      22.253820742885431      18.259397958501115      18.215845940588494
  1058   3      22.433800361476226      18.272187537190153      16.155937887808108
  1059   3      20.201355258985082      18.269311922935266      18.436378612589529
  1060   3      22.419013178778503      16.231030485770688      18.249098106273056
  1061   4      20.476794473290973      15.856253805003639      19.946923127434641
  1062   2      22.180033312570224      18.242024962332881      22.213547902004713
  1063   3      22.412899913211781      18.307790751934501      20.323702760188699
  1064   3      20.251724509407659      18.473535728949052      22.230316501045113
  1065   3      22.246939007352204      16.323032147770466      22.415203887742294
  1066   4      19.933347199367809       20.32581803580317      11.992039041001274
  1067   2      22.183219774469155      22.319490354748957      14.099012110050094
  1068   3      22.354757133094381      22.268851131886823      12.217331057762769
  1069   3      20.318506516566838       22.23224841486693      14.269817083446503
  1070   3      22.395374276416931      20.284955535918456      14.271972247122518
  1071   4      19.940393466632035      20.414268277800616      16.028224149036699
  1072   2      22.189705345604533      22.290345703163474      18.231751646950208
  1073   3       22.46711885169972      22.274985776267176       16.24990383565606
  1074   3      20.303544514825798      22.405482228841748      18.312163964351498
  1075   3      22.359047732180702        20.3295866629574      18.312312492581377
  1076   4      20.103951784010775      20.107308869060503      20.062938516992666
  1077   1      22.231140269903445      22.301249148927532      22.273347422861242
  1078   3      22.507297741832346      22.330979554349675      20.218508925213847
  1079   3        20.2132274986594      22.292347790435009      22.306858796383228
  1080   3      22.550533279237591      20.256064142213841      22.281332396274902
