(written by ASE)

1080 atoms
4 atom types

0.0      24.299999999999997  xlo xhi
0.0      24.299999999999997  ylo yhi
0.0      24.299999999999997  zlo zhi

Atoms # atomic

     1   4    -0.19927793142964478    -0.18855450762122677    -0.14454525968431947
     2   2      2.0098842466196505      1.9257536016659853      2.0436217733998414
     3   3      2.2793836954211977      2.0613443221769319    0.085021388967508923
     4   3     0.09217754015321597      2.1902544662412242      1.8842550808393315
     5   3      2.1025241740988059    0.049175635410598675      2.1738893838700282
     6   4    -0.22399570702755042   -0.043343227335497364      4.2003491511271669
     7   2      2.0378373175396201      1.9421136035284137      6.2042580318365674
     8   3      1.9292528284788428      2.2680729479985966      4.0162410437362279
     9   3    0.087442210661918554       2.291138615488328      6.1133797368907894
    10   3      1.8760736409049155    0.061933998345881834      5.9541506061973859
    11   4    -0.29699932124458206   -0.079230126025470166      8.0033589739839179
    12   1      2.0503885056105315      1.9724702977417659      10.089603475958844
    13   3      2.0920340816341918      2.0328598214779312      8.0638441984249347
    14   3   -0.001070941625545669      2.2737015653729786      10.106692917992177
    15   3      1.9018066904929887   -0.073640853679984616      10.368197202605991
    16   4    -0.14842327392928603      3.8848017644565052   -0.054608255661831438
    17   2      1.9701344379945924      5.9637752242704281       2.027468335775906
    18   3      2.0925486178845225      6.3324359018594878    0.059437952735762418
    19   3    0.073000184991613273       6.115613518334305       2.097690848300362
    20   3      2.1638041972956978      4.1085442266328558      1.9328336923134852
    21   4   -0.064021403419913817      3.7847022014841682      4.2363072932222066
    22   2      2.0219254723527991      6.0597621477586268      6.1723680455140553
    23   3        2.14613697643534      6.1146546393849928      3.9973360588167828
    24   3    0.046789476123323522      6.0563750206001821      5.9404808233834956
    25   3       2.182066717658504      4.1201513416360918      6.0341909965407527
    26   4    -0.10045873070618971      3.7444649823168876       8.203716471091834
    27   2      2.0389800022375861      5.9028814326039889      10.224950525224488
    28   3      2.0459467713794384       6.240342991695476         8.0844253899915
    29   3    0.061793223989365972      5.9558199980876418      9.9723608324631456
    30   3      2.2307434521436993      4.0512733910745968      10.100442236455423
    31   4    -0.24936138719263318      8.0531189817140483   -0.052399776456139781
    32   2      2.0238628601131188      10.031007811475567      2.0146477473316229
    33   3      2.1685539850856839        10.2032331564785    0.011951010480095255
    34   3    0.071904815945128264      10.355724629274009       1.998522292349882
    35   3      2.0120771490031655      8.1630158127635326      2.1559217563037847
    36   4   0.0060026163901515505      7.9280026286189509      4.2392787586889664
    37   1      1.9949139262468558      10.096260668200436      6.1197416651716621
    38   3      1.9823388491221325       10.43613829908969      3.9695122594916232
    39   3     -0.0223549114026198       10.41046642834382      6.0423192717079859
    40   3      1.9261331954970684      8.0805147734478204       5.810429886772531
    41   4     -0.1696082188600822      7.8885942149946047      8.2896261005573351
    42   2      1.9811703241492704      9.9885727214635942      10.100675297375018
    43   3      2.0024491419520181       10.25257027936941      8.1736116864322437
    44   3    0.055498766758956312      10.424063625926886      10.135440476279955
    45   3      1.8491575521633934      8.1228482390350987      10.161684906966064
    46   4      4.1609306685302752    -0.12633433272549041    -0.19973634832754644
    47   2      6.0490845374015283      1.9553474664037591      1.9760244866440722
    48   3      5.8725323687897539       2.025336405077732    0.081843818517911032
    49   3      4.0698748506172437      2.1410107101823574      2.2658839942359901
    50   3      6.1313572329236097    0.084357174806667684      2.1914162018772476
    51   4      4.0830394959977756    -0.18214905364812353      4.1224339837688602
    52   2      6.1742437712763873      2.0213123213922013      6.0880428435165532
    53   3      6.1474323207877539      2.2769584435190264      4.0892229829125295
    54   3      4.0117851664602409      1.9817968744305585       5.848911760212876
    55   3      6.0846140212214674    0.077835920878331438      6.0364193758960667
    56   4      4.1878663756300023    -0.25065923703436782      8.1055626876594147
    57   2      6.1080717905768935      1.9160579997728242       10.14309445188567
    58   3      5.8982151626844264      2.0678057560979148      8.0918305272036779
    59   3      4.0969916304342435        1.83987585629961        10.3595132184864
    60   3      6.2601947272863541    0.028664229415366782      10.122973509802003
    61   4      4.1030253529022689      3.8092820582646398    -0.13771552433249454
    62   2      5.9922799035779706      6.0723065611731499      2.1293467792225527
    63   3      6.0309851669164436      6.3440871601200621   -0.002805449803816357
    64   3      4.0514947691613088      6.3155427025415625      1.9727114083330817
    65   3      5.9776545977172528      4.1357935108805703      1.9151780484494905
    66   4      4.0751285505322468      3.8446868186279124      4.2486543527574572
    67   1      6.0522690779002524      6.0274240568754323      6.0660564501105112
    68   3      6.1270872618574375       6.126314000601206      4.0280162396167425
    69   3      3.9950098436575496      6.3270796964607099      6.0381170083139413
    70   3      5.7937310047832824      4.0129275595162399      6.1609695885776912
    71   4      4.4127104217193942      4.1191291424852929      8.1006512169364644
    72   1      6.0990816933672853       5.985740291653646      10.122628456186584
    73   3       5.933799349469548       6.219454333264407      8.0969027645348408
    74   3       3.962466867320388      6.3520562411757604      10.122247077905067
    75   3      5.7558233989455845      4.0044903488377415      10.038002473832764
    76   4      4.0410563215542661      7.8448067948860025   -0.039082910881036749
    77   1       6.030770078723461      10.095803460011538      2.0248218109812082
    78   3      6.0832428909824428       10.33359500264028   -0.031861912891516547
    79   3      3.9940571973612595      10.302035448170912      2.0649691334232347
    80   3      6.3125410688332897      8.0875532165030872      2.0713652379377003
    81   4      3.8383827395858336       7.956346710641732      4.2955168089367994
    82   2      5.9177931041894167      10.101217941131701      6.0800111940913109
    83   3      6.3021811406903154      10.153968046331928       4.090621921786175
    84   3      4.0300577601810108       10.12067215661982      5.8831329992442747
    85   3      6.1986357326734067       8.165710514253254      6.0156228809829466
    86   4       4.254580853212274      7.7761451439512275      8.1656845511592469
    87   1      6.0874725534463217      10.087961846708588      10.062770095865536
    88   3      5.9792642620092957      10.183833752703595      8.0414015339184708
    89   3      3.9736079816472993      10.171284348916334      10.210682733530096
    90   3      6.1434189002797917      8.0872951415514258      10.271589663371884
    91   4      8.2211983514518128    -0.27941250167946358   0.0068673802957080771
    92   1      10.067082930029953      1.9968314136434602      2.0447235646645683
    93   3      10.126513167399603      1.9930272628345782 -0.00036340291951661983
    94   3       7.995349491195979      2.3170375876287386      2.0467183266858102
    95   3      10.046279357552297    0.012134222793183009      2.3006130025921263
    96   4      8.3746188391602043    -0.17869548465835799      3.9788657784721222
    97   2      10.292298247067304      1.9290876332667299      6.0816816558432967
    98   3      9.9608301649681898      2.2994673331643747      4.1435612192244511
    99   3      8.0514890127364129      2.2653412485352811      6.1444851927082853
   100   3      9.9420388329776177    0.061536064830461243      5.9449089077259565
   101   4      8.4482763337350875    -0.22398839050404726      8.2613067854219633
   102   1      10.132176059839956      2.0238118849538367      10.104714002267913
   103   3      10.036499811236778      2.0636111511064987      8.0350659465360419
   104   3       8.047582510513827      2.3401499672922634      10.055618814335144
   105   3      9.9384536118712923    0.022326184026570575      10.232704306005697
   106   4      8.2327224283002813      4.0880766792295562     0.34414473798413903
   107   1      10.021012022224587      6.1108967064595321      2.0656976444689925
   108   3      10.237961631928389      6.1603740452350655   -0.001027991857168736
   109   3      8.0215593952812867       5.987683244358581      1.8187980079105359
   110   3      10.188906591474213       4.063408430792852      1.9430324576893561
   111   4      8.1538823384340109      3.8294961423324034      3.9625672139853703
   112   2      9.9903102136212318      6.0162382050809331      6.0908512273472848
   113   3      10.203578045554604      6.0203336813182533      4.1221805919432164
   114   3      8.1210496122180231      6.0912235945033908      6.1629357130327937
   115   3      10.236677392859386      4.1130851466017901      6.2137523126836598
   116   4      8.3074373966921229      3.8747482372514117       8.264717223957474
   117   2         10.081210632148      6.0276335955968934      10.276135222645291
   118   3      10.247676735981814      6.2811075165449646      8.0539063236465243
   119   3      8.1498699418519696      6.0077171311685706       9.936956212224656
   120   3      10.274443616877409       4.122595348271676      9.8943983046791981
   121   4      7.9589450513016615      7.7861656909704937     0.13953502076958468
   122   2      10.015224403959673      10.109930268569853      1.9610199596607854
   123   3      10.249985691803449      10.130517348622444    0.046169704696617797
   124   3      8.1578957949192397      10.286040169486835      1.9851687067665904
   125   3      10.134920095423135      8.1928070135897535      2.1175429671037946
   126   4      7.7006628410700824      8.1103199537418185      4.0384724085613684
   127   2       10.00340255999164      10.036336706734453      5.9737366212366396
   128   3      10.087922627521454      10.273807066841352      4.0746990593273065
   129   3      8.1415009841169237      10.212145093470619      6.1879885572602173
   130   3      10.108219724827482      8.1422976872420385      5.9714876132039674
   131   4       7.764539420520177      7.7359563822624011      8.1939035687452311
   132   2      10.107539415065212      10.085019358548495      9.9380926206179669
   133   3      10.287502582287226      10.087205277264541      8.0721209920145593
   134   3      8.1753094370575194      10.315164733915395      10.103065391872189
   135   3      9.9932112342696655       8.160873489187253      10.223859339263752
   136   4   -0.059848247499754988   -0.056643607603343901       11.85990421401957
   137   2      2.0437009229022234      2.0183370052838998      14.051114016706236
   138   3      1.9132090476979537      2.1040548901555285      12.183079814692487
   139   3    0.073345042714942008      1.9960552669811615      14.394753839498145
   140   3      2.1089785983079108   -0.021518302738157771      14.219624998346397
   141   4    -0.26824214455781825     0.10735244662073751       16.13179414514142
   142   2      2.0065768818052701      1.9380573802258347      18.150646415768346
   143   3      2.2005771849968889      1.9249263212659693      16.288611239522066
   144   3     0.10247212443566761      2.1733883213613763      18.256004611664142
   145   3      2.0238230699032904    0.030498166477499141      18.469455525705055
   146   4    -0.23116915922879258    -0.13197366057036336      20.113367353472658
   147   2      2.0485478786162528      1.9391956363320011      22.234925992178749
   148   3      1.9264222231752983      2.1765329414852879      20.357454731814951
   149   3    0.091059849148379071      2.0818780381472606       22.57863099842783
   150   3      2.2067319912114702    0.038584666592259766      22.357182262608095
   151   4   -0.079102230363607154      3.8055915249718901      11.952679285992097
   152   1      2.0983926483282405      6.0064317594769765      14.132194859965271
   153   3       1.943994112452021      6.0868054598248191      12.106128849754013
   154   3    0.042171478690113944      6.1082693130020882      14.287542100084877
   155   3      2.0631522051486941      3.9623677855637536      14.402918620340429
   156   4   0.0063012360391196372       4.219217976895254      15.769922916829467
   157   2      2.0716634468621482      6.0102806832553002      18.161429666497284
   158   3      2.0095597722109262      6.1968600551149304      16.267580662511318
   159   3    0.064933928086910217      6.0504952086204868      18.418912426157178
   160   3      2.1694533850076785      4.0620921870407916      18.308067902575853
   161   4    -0.13633582456237955       3.892982169959486      19.990672606585868
   162   2      2.0003192445152296      5.9967405248006687       22.25521127204631
   163   3      2.1458463446023903      6.0463554134319191      20.357714557849945
   164   3    0.088860472255232151      6.2288359856683542      22.366434880242071
   165   3      1.9971461117912213      4.1149792634950604      22.524318956559107
   166   4      0.0288555790552892      7.6903854663793263      12.406492994462672
   167   2      2.1675500166382311      10.048957675204282      14.204536082128829
   168   3      1.9427242525290402      10.328233710945035      12.152726928542869
   169   3  -0.0079814333744036708      10.399555636303317      14.154493955821964
   170   3      1.8842940093352469      8.1545956114390226      14.103003280005906
   171   4    0.088856357875317524      7.8118587328748168      15.918312424227363
   172   1      2.0242077732092274      10.084632111704883      18.184256740789362
   173   3      1.9203999386497075      10.122918799096389      16.144940802454574
   174   3   -0.012160696251256316      10.223329957154149      18.442737799577273
   175   3      1.9714420116922113      8.0505999218969091       18.49641568326798
   176   4    0.053984572838806928      8.1272155264935115       19.92399060744107
   177   2      1.9494178978558794      10.056519014298537      22.224648538963582
   178   3      2.1179204078602547      10.328608700051287      20.355906012761306
   179   3     0.06655231702319285      10.078889630790313      22.343175722563121
   180   3      2.2062563643545015      8.1700253988779732      22.279265941909145
   181   4       3.911503825981665    -0.10211691500721898      11.799223382104296
   182   1      6.1040873254099708      1.9655167098478974      14.139315666941712
   183   3      6.1737033584635395        2.25198407914018      12.105129570768666
   184   3      4.0220960790260358      2.0154555733924759      14.217948421837974
   185   3      6.0832267604420434   -0.058924466139243022      14.264651634406954
   186   4      4.1852597977244983    0.034329542570276948      15.839991164674514
   187   2      6.1684216044382065      2.0704868135682819      18.156580692631689
   188   3      5.9197289171478316      1.9438357367959613      16.272305138415799
   189   3      4.0302017396067047      1.9628805806572247       18.53636772727711
   190   3      6.0779289621884312    0.037879452533093931      18.461215882040793
   191   4      4.2682837508543887    0.030666975285748851      20.090451368737725
   192   1      6.0558120875150667      1.9890458521470393      22.306857981281393
   193   3      6.0911303684051461      2.2295998528850323      20.264330841716838
   194   3      3.9824270773877615      2.2638457784590318      22.278553060488221
   195   3       5.839675305143051   -0.029009190876800057      22.302816980464062
   196   4      4.2515843103718787      3.7900497421021604      11.906044526468614
   197   2      6.0706446578000319      6.0180921529415627      14.081913318086267
   198   3      6.0110523171434362      5.9975767591263667      12.155727612545837
   199   3      4.0979485300819469      6.1722048589891205      14.324782111070602
   200   3      6.0008882613644889      4.0687910987652431      14.361040691637795
   201   4      4.1603712460417874      3.8958959059016243        15.8941480323794
   202   1      6.0521554978388084      6.0229428323777263      18.192172780828244
   203   3      6.0546706092451155      6.3712003126026309      16.182641649335441
   204   3      4.0162302553950306      6.3065322371404875       18.23021933011044
   205   3      5.8632353109433897      3.9974334460204903      18.202689729138605
   206   4      4.2620770790397957      3.8081360281509538      20.123000202582492
   207   2      6.1061311694507339      5.9596882575220178      22.246923706932954
   208   3      6.0197163584123139      6.1351886052505966      20.329424275382419
   209   3      4.0536553816391558      6.1554309515998149       22.46877127500273
   210   3      6.0660923079578914      4.0944237493902769      22.411318826155231
   211   4      4.3472053293611541      7.9673357061652981      11.883151028723386
   212   1      6.1177407533963111      10.097037705339424      14.160507505237058
   213   3      6.1796870056710667      10.255005804066036      12.131693546122213
   214   3      4.0586857449368363      10.165647831624607      14.152131102624766
   215   3      6.2560331177291015      8.0616275772258312      14.021904220991942
   216   4      4.1665475188836369      7.7593834117473168      16.099150821912236
   217   2      6.0305998182407219      10.135038735662977      18.084412526747972
   218   3      6.1032020381921459      10.067869743039999      16.222036055084036
   219   3      4.1118724123688146      10.128560082050527      18.401609574367576
   220   3      6.1415106082506519      8.2069174830511216      18.465489931663569
   221   4      4.0078880033632869      7.9961613474107587      19.928381328037503
   222   2      6.0007882376988446      10.074850278300888      22.270838825646411
   223   3      6.2064740203406856      10.289759511419689      20.345414035629254
   224   3      4.0972513086691524      10.376535842899569      22.310345370643013
   225   3      6.0162094725922426      8.1961767797721858      22.282824071345154
   226   4      8.3670070662775107    -0.25812973635445646      11.955406183790707
   227   2      10.183453577340133      1.9884158055264427      14.074646280965155
   228   3      9.9838044994108373      2.1938778882028429       12.17147071195553
   229   3       8.121524724064038      2.2370443043289079      14.251125404096083
   230   3      9.9329503074131527    0.055658961337585369      14.151113519849718
   231   4      8.2437783337770494    -0.14957580831066214      15.878984647190041
   232   2      10.197799784153762      1.9466809171852388      18.200318081567929
   233   3      10.084294592703198      1.9316523249372086      16.267170852257799
   234   3      8.0921965556934374      2.1975282667507288      18.270346544420352
   235   3      9.9535756043672112    0.078881012783473203      18.419920453523421
   236   4      8.3126822755573375    -0.23599217507832507      20.334887964811855
   237   2      9.9972895018705632      2.0157560818405562       22.41795574325408
   238   3      10.033796700943194      2.2928676385953137      20.224477948988962
   239   3      8.1013473353592875      2.0932611602215867      22.229416717738733
   240   3      10.138724399587387     0.10292094539977176       22.12823717957658
   241   4      8.0859138522019851      3.7353773941800132      12.176477821784214
   242   1      10.101990039381519      6.0591627852130694      14.131502126402147
   243   3      10.096355668600795      5.9690439886715456       12.12443603464682
   244   3      8.0604867499073229      5.9775828536657318      14.357095396244494
   245   3       10.14268164590942      4.0243131252739648      14.466610366129331
   246   4      8.1552708277368939      3.9766328506527429      15.829950369553817
   247   2      9.9899296135273019      5.9786701131132958      18.197042487590188
   248   3      10.152444449841362      6.3452416336055855       16.30844408127922
   249   3      8.1098197709437247      6.1666997768634255      18.329726565648933
   250   3      10.192522570601321      4.0864114056193195      18.130493427369917
   251   4      7.9895504423793993       3.710598397453734      20.390585546869278
   252   1      10.018758058589849      6.0842375656673378      22.278090587641621
   253   3      10.279882326734588      6.0579225552184859       20.20732507976723
   254   3      8.0102066878250451      6.2392608791547159      22.346105423935175
   255   3      10.232996200483399      4.0368986063749999      22.310088344497274
   256   4      7.7457115851189444      8.2720783310815218      11.987671723018599
   257   2      10.077401839784175      10.056081039028438      14.019829839398488
   258   3      10.050696168469933      10.294110746716754      12.147318044221178
   259   3      8.1762508823232452      10.282566321801367      14.311460236767317
   260   3      10.125134986598194      8.1658211757555641      14.211013068710672
   261   4      7.9414151246725444      7.8571701615912115      15.917217789352195
   262   2      10.126268623757378      10.047959572890065      18.136255436458587
   263   3       10.17520446531416      10.099450799044146      16.261123091286528
   264   3      8.1242471359127499      10.249038498895198      18.345967051870183
   265   3      10.068442515670498      8.1613896208375696      18.485565929779437
   266   4      7.8621101018718864      7.8957078867894177      20.067202244016521
   267   2      10.065030223901145      10.052741233547401      22.219905991778486
   268   3      10.084230963310402      10.354988248746155       20.32320332007227
   269   3       8.126118655013828       10.19869316425291      22.456133946858607
   270   3      10.241300913942871      8.1817406243061832      22.175680443505371
   271   4     -0.3447353511818943      12.075926170715713     0.10291803786202307
   272   2      1.8875648595835626      14.142113343725191      2.0369967523439043
   273   3      2.0593727970396936      14.467611526079665    0.011126755088736539
   274   3    0.032455734464634275      14.234504496691883      2.0151459989865645
   275   3      2.1370848793167032      12.271199955828795      1.8607760818367924
   276   4    0.059952975979816685      11.890969819363022      4.2138429595335687
   277   2      2.0235081027835147      14.157706562544274      6.2333417724601858
   278   3      2.2099556788295276      14.142873608027285      3.9597749802041697
   279   3    0.010486035446840843      14.140098423220374      5.9500539688414591
   280   3      2.1350116964033492      12.249805811269939      6.0184487929293775
   281   4    0.036056312856080075      11.806311437574474      8.0968876903275753
   282   2      2.0424464355840986      14.153645771177786      10.322759938880063
   283   3      1.9157946470973171       14.35203878012533      8.0987375922833067
   284   3   -0.010671459957605508      14.175112982997254      10.205520985869422
   285   3      2.1546695732847292       12.24815528285739      10.050523949145997
   286   4    -0.31232512709325183        15.8921385344242   -0.087880972201199892
   287   2      1.9161620518808824      18.160827067337866      1.9973880336782615
   288   3      2.2978308168551549      18.224116789522839    0.047343886345254764
   289   3    0.037236476661079973      18.323593335536327      1.9072204267387607
   290   3      2.1482234982815589      16.268916920532586      2.0986619044905432
   291   4    -0.07654850740690515      16.332657530188925      4.4392716274935848
   292   1      2.0638176178307917      18.192930417344261      6.0711148929076746
   293   3      2.0285717088366151      18.448212308206511      3.9389028107655473
   294   3    0.018982883608033584       18.40948491203617      6.0066205477121688
   295   3      1.9092649950897118      16.171611137528739      5.7632720135238751
   296   4    -0.27087166856280032      16.173349989716275      8.0432678007721403
   297   2      2.0177564087089221      18.166214478747836      9.9648886725979224
   298   3      2.0139512382103328      18.266809543938134      8.1056381205050698
   299   3    0.075007462161281485       18.52842099103778      10.163398756290599
   300   3      1.8344721510560433      16.272324981355929      10.208713321583677
   301   4    -0.28438683254367481      20.231305872622396    -0.18499763974557348
   302   2      1.9779426415250738      22.193986519006558      1.9637707915090028
   303   3      2.0837733954716242      22.480062025599185    0.081223874083578229
   304   3    0.094156971522889543      22.359253919196686      2.1281905308301985
   305   3      2.1872370862437633      20.308618621561685      1.9580357276722788
   306   4    -0.15517307132683969      19.958646115526609      4.2503277526540879
   307   2      2.0253643109426376      22.153071285745423      5.9962970212525528
   308   3      2.1917448073673298       22.31500575017284      4.0560716500869685
   309   3    0.079281958749770634      22.216739504612413      6.0153820108342142
   310   3      2.2098129435715972      20.304311446263746      6.1006492613922711
   311   4    -0.11336592637267841      19.910889498672582      7.8126744236581658
   312   2      1.9811806977239677      22.235032179478363      9.9841431103228633
   313   3      2.0316718397545506      22.459534652538252      8.0654953680508292
   314   3     0.07469226200843615      22.140631477702382      10.254429374584213
   315   3      2.2810506622366167      20.303791732328044      10.105062816223811
   316   4      4.0225715665710089      11.836045805316306     0.12750751338858957
   317   2      5.9902092404078813       14.10453025349959      2.0344727713832458
   318   3      6.3373076533915818      14.209969407580619     0.07656803149715842
   319   3      4.1199538593001055      14.326957881504285      1.8903862622927745
   320   3      6.1568854229747432      12.213530840988538      2.0883548288765557
   321   4      3.8030028762957935      11.954178612090677      4.1530873031111719
   322   1      6.0170407025325359      14.124636313209072       6.030048590585106
   323   3      6.1475070065540081      14.258555853523351      3.9984831120900131
   324   3      3.9878450974400015      14.419190960789162      6.1015824580570071
   325   3      6.1481831428019582      12.107760925301246      6.0499631487457455
   326   4      4.1001989908857972      11.957736534494591      8.4177020124133435
   327   1      6.0606243185616107      14.161998234893032      10.139631585564478
   328   3      6.1449982888169794      14.287374878502355      8.0715025508324434
   329   3      3.9620246389690617      14.395376065061052       9.992476557817108
   330   3      5.9597445599332417      12.149955595751416      10.054600190573655
   331   4      3.9158822454291431      16.102387071115906    -0.11180031344847485
   332   2       6.069998583591798       18.13715844440415      2.0134206217994182
   333   3      6.0406453979872445      18.325079028298013     0.10893451715485272
   334   3      4.1497723520707739      18.306926692490716      2.1917615500668437
   335   3      6.2566920973289877      16.249975389434859      2.0930475078919901
   336   4      3.8220049156565254      16.042412115042474      4.2857563942764463
   337   2      6.0447211581660918      18.130441410318376      6.0445123484486709
   338   3      6.2831272296377003      18.421775805025753      4.0433145259827032
   339   3      4.1162583335151126      18.172523411592028      5.7956428481117355
   340   3        6.23026981601926      16.249199797618274      6.0231447573061407
   341   4      4.3510274614329161      15.857992781592039      8.2005204534363578
   342   1      6.0953266485129873      18.217446693158699      10.005678518832697
   343   3      5.9933915032552676      18.356227912340358      7.9776798431728109
   344   3      3.9933305700788555      18.156425843270259      10.211675413445144
   345   3      6.1060773995782744      16.203616501844731      10.186111120543055
   346   4      4.1091057697546738      20.024139888283944    -0.22919656413127371
   347   2      6.0464928604528678      22.179345184502473      2.0584423159292595
   348   3      6.1144119960483927       22.50630175209437     0.10555447518656309
   349   3      4.1056647503361727       22.44896009636053      2.0873749686223713
   350   3      6.1049400692811426      20.318803662832796      2.0485257791772824
   351   4      3.9243183136221806      19.948546885836741      4.1005914215665387
   352   2      6.1960999168667037      22.221592703486941      6.1021383484967506
   353   3      6.0343646831411411      22.408889354014619      4.0725987354346742
   354   3      4.0077991820441818      22.597364366787922      6.0778675911321605
   355   3      5.8928688793418402      20.334372108319762      6.0460530814434934
   356   4      4.3931063626847564      20.183703427478367       8.285223042158977
   357   1      6.1182482205078772      22.275445738634996      10.072969466525846
   358   3      5.9013611759254099      22.366142450057481      8.0211548043719016
   359   3      4.0100842384343114      22.569209148985792      10.078806049521466
   360   3      5.8804965415803752      20.266181856990546      10.101558036544381
   361   4      7.8508409023170884      11.992990956505501   -0.071518304833854449
   362   2      10.105757213086742      14.111422918878459        1.89485962078853
   363   3       10.10879737038341       14.33068740684239    0.047382551687713326
   364   3      8.1857102929599748      14.194690073921814      2.2143213153569126
   365   3      10.285631939420576      12.184209076502874      2.0616027787239259
   366   4      7.7225948285392656      12.049867832924805      4.0496042543698829
   367   2      10.106993090362955      14.010957255770045      5.9915028888706798
   368   3       10.21705086335734       14.13230414925693       4.095365431940917
   369   3      8.1569464490131018      14.243565565985712      6.0704880444984353
   370   3      10.223929021496041      12.138429399121707       6.205419898777861
   371   4      7.5881724035988825      12.207642507387131      8.1123474866667209
   372   2      10.128400363327579      14.149471121305732      10.021817410142226
   373   3      10.071480510157242      14.336607547787711        8.09372078017112
   374   3      8.1621212777073318      14.102466694781038      10.190950871876316
   375   3      10.317915774449784       12.16239962320325      10.081682090821353
   376   4      7.9728395050453944      16.192464441160695    -0.31989121535046144
   377   2       10.12755279269115      18.074274093957719      2.0150830189002185
   378   3      10.267674307418833      18.183057049109163    0.098554499579968827
   379   3      8.1550834311332512       18.39408335901873      1.9948640802118733
   380   3      10.108678893373064        16.1939163928878      2.2421045822071952
   381   4      7.9816029803080673      15.890506155852941      4.1088259048217788
   382   2      10.239849941576722      18.110601096810402      6.0944025828999155
   383   3      9.9912432737628993      18.412201463151256      4.0593677096999947
   384   3       8.072321198699429      18.472776543827084       6.086730838446873
   385   3      10.036061836632493      16.208201677042368      5.9661578701996092
   386   4      7.9160351448439306      15.846724820580546      8.0032868134845323
   387   1      10.171697788458379      18.126504488424775      10.046738462066665
   388   3      10.065720919123976      18.177236673484593      8.0236823302398541
   389   3      8.1210632805084888      18.337619000266415       10.13251150119588
   390   3      10.050363969911054      16.120337007702489      10.368250718926655
   391   4      8.1171979245225536      20.034989946943185    -0.24329771314104756
   392   2      10.154228051345255      22.167152777828694      2.0548349848909795
   393   3       10.09724474758773      22.560432144736261    0.072544761805163518
   394   3      8.0800483036853397      22.418474939935972      2.0024229733681365
   395   3      10.219386867204719      20.265482864404746      1.9634872609117489
   396   4      8.2821827693177834      20.037128421904992      4.2066232208700276
   397   1      10.132931632188894      22.226353324868839      6.0551801766070801
   398   3      9.9944125086924576      22.255783627085002      4.0115499220138489
   399   3      8.0575385762103746      22.273213038536202      6.1126471068645074
   400   3      10.187382980438954      20.206549426012231      6.2190141294719306
   401   4      8.3007230050821512      19.843475097281313      8.1520709400530489
   402   2      10.152064575685644      22.086478521406345      10.161090787163548
   403   3       10.18562212535659      22.499549064051195      8.1392695366272054
   404   3      8.1712032488638986      22.248291899691139      10.048960247471653
   405   3      10.280449020767264      20.215548934305222      9.9912263887632182
   406   4    0.053030693422155988      11.840038188620275      12.153237465787514
   407   1      2.0053668601224612      14.221262250093277      14.151563788607925
   408   3      2.0484122418411541      14.176935688191453      12.152574929661458
   409   3   -0.066962212695075393      14.115685701979777      14.144727964196088
   410   3      2.0954027385751139      12.156238998156946      14.390980620880754
   411   4     0.29319310423000811      11.981254222807909      15.931099292504287
   412   2      2.0731505873642879      14.142425592025901      18.088788195456804
   413   3      1.9652044785504732      14.289155485992783      16.244889116744201
   414   3     0.10597957516981212      14.150721347485137       18.46157372318725
   415   3      2.1235631377066975      12.225432610713719      18.287305511672436
   416   4    -0.13346987424549667      12.136101298714916      19.929182439838396
   417   2      1.9385194801565089      14.070005188212013      22.263060721117927
   418   3      2.2228202409250928      14.205608577848746      20.371517711703202
   419   3    0.071667663745593135      14.345515816410657      22.283201983796257
   420   3      2.0351671561918958      12.205832836467419      22.449354795846677
   421   4    -0.20688283392659615      16.175113586049296      12.085807662309955
   422   2      2.0083267099615019      18.176722878952887      14.041205540403938
   423   3      2.0379665027372096      18.387100340005453      12.168316430838201
   424   3     0.10238160446340104      18.394210782658217      14.304690121795728
   425   3      2.0926672120373531      16.297670057507951      14.243101495183158
   426   4    -0.39515924006384207      16.212925628828209      16.314413805049586
   427   2      1.9543681902166614       18.20837868225405      18.175077405391828
   428   3      2.1807996253807405      18.225646420270213      16.303090168438874
   429   3    0.098500943612587363      18.371778644794208      18.244280318358967
   430   3      2.0522904376517856      16.268575760372116      18.457365916219342
   431   4     -0.3647598502072541       15.93600707760751      20.035020045087951
   432   2      1.9830151377298908       18.13864330093195      22.212719036549071
   433   3      2.0590390332380601      18.401305657909894      20.328483340355771
   434   3    0.069452299150974228       18.21672062495513      22.485554163652271
   435   3      2.2493571456027568      16.259232528357508      22.307217488311771
   436   4    -0.21520935077208811      20.238194580277206      11.918387598660599
   437   2      2.0007269878942071      22.224277056261933      14.091891404347212
   438   3      2.1518628354902671      22.220996111630871      12.199243398021933
   439   3     0.10181096797259492      22.227844499441076      14.251575300632766
   440   3      2.1726222260483032      20.302249293794603      14.402093573745448
   441   4    -0.26169129528810881      20.149455616721379      16.112115280648197
   442   2      2.0779438528786822      22.198934231535187       18.13947939916806
   443   3      2.1103886181331792      22.395828423190036      16.277100160452669
   444   3     0.15689827025583095      22.238585596303867      18.350623019056755
   445   3      2.2419400266747731      20.281886158569382      18.284935599015924
   446   4    -0.34288322043840685      20.300263506022205      20.192467782605242
   447   2      2.0217723748251304      22.191530928553636       22.20067179696078
   448   3      2.1481694199067158      22.270079370720939      20.337417643585297
   449   3     0.13130387344318745      22.461096508481134      22.378646709832115
   450   3       1.982265497999687      20.296661596317222      22.501544443517759
   451   4      4.3599964961123492      11.821960897387894      11.998539120991772
   452   2      6.0145170013901632       14.20877112755206      14.099077139827273
   453   3      6.0092946449771105       14.10770541819339      12.190765142210831
   454   3      4.0959034716643652      14.207725531423884      14.413023844282373
   455   3      6.0645610921294857      12.203221583251645      14.331967371921847
   456   4      4.0305376284451997      12.212622840847763      15.819297923681932
   457   1       6.094456408227547      14.157555399709992      18.150505723070001
   458   3      6.3376239693631078        14.2411814556209      16.161371502114317
   459   3      4.0305601001193399      14.340158440995896      18.304407341688908
   460   3      6.1079582312902625      12.121851570262383      18.336941450254798
   461   4      3.9472246830551247      11.996644774799208      19.941995878447869
   462   2      5.9983884931250993      14.191127857449452      22.236204728604513
   463   3      6.0884609199028841      14.269191512322056      20.334421781407848
   464   3      4.0992238696085312      14.203235130187021      22.491184502450132
   465   3      6.2938556876530907      12.256357572952401      22.355226106550774
   466   4      4.4701464597505458      16.398353271271919      11.876336476982162
   467   1      6.1073179437495098      18.234791302061605      14.150845713615233
   468   3      6.0535675713974566      18.319069567579547      12.132912998471495
   469   3      4.0333127808261482      18.270003395634344      14.331462684193724
   470   3      6.0973693790139132      16.187306324708739      14.229685190856834
   471   4      4.0295518712313267      16.244390005987107      15.816992651686123
   472   2      6.1026425915673448      18.152701332670265      18.185510141234698
   473   3      6.0678142172709055      18.229560087078294      16.292683954389467
   474   3      4.1247674895510551      18.210852450690094      18.470482665176146
   475   3      6.2204719501028869      16.260418429394704      18.383985250498664
   476   4      4.0461128865264246      16.004949556394084      19.990638639526306
   477   1      6.0763842657502707      18.196503109385606      22.294210801750921
   478   3      6.1835358148200719      18.463991985929304      20.273749567496484
   479   3      4.0219279175184131      18.491048553984101      22.285407782830788
   480   3      6.0959038587532666       16.16723886441584      22.470188896109089
   481   4      4.3196665783391746      20.020555136835117      11.869149370038796
   482   2      6.1079278526280882      22.297621069631294      13.995046244980902
   483   3      6.0794686521296804       22.24757216439707      12.135169107612173
   484   3      4.0969283721279544      22.306400068846891      14.353144752294364
   485   3      6.0753211883555212      20.323486922587964      14.371463395921543
   486   4      4.1637293010554153      20.109737027175306      15.859164325797167
   487   2      6.0981024323551249      22.254826746335045      18.152649696681245
   488   3      6.0983616487090915      22.397563493927393      16.288322887282543
   489   3      4.1041777162018063       22.46145739811158      18.365417043137924
   490   3      6.0398150032607623      20.324608942988768      18.285142063249101
   491   4      4.2094945762418732      19.927688545685303       20.26295755127078
   492   2      6.1190107385327241      22.296715469867618      22.243350543507511
   493   3      6.0514422339668474      22.254833898535846      20.335041625797775
   494   3      4.0661363394496863      22.210657189671693      22.533534455721174
   495   3      6.2033507351540935      20.345275819469052      22.495064962679162
   496   4      7.8279150625346468      11.988644376804215      11.849083791451289
   497   2      10.151689278236026      14.124347376890885      14.038353564453219
   498   3      10.251105504649917      14.060454265972943      12.174268386768727
   499   3      8.1675753288387369       14.19826104186923      14.193458591478144
   500   3      10.153308342918667      12.220334393899511      14.410643829641028
   501   4      7.9008413865182217      12.150388533831821       15.90287084934805
   502   2      10.164033995400439      14.088631558827664      18.111355838164137
   503   3      10.043530225789294       14.33493553781344      16.255089719376368
   504   3      8.2196103355834111      14.208354274740099      18.489654861619215
   505   3       10.17393727869382      12.194579642111259      18.249843438291645
   506   4      7.9017166530675649      12.097902566818183      19.984670858539438
   507   2      10.139116980407058      14.134544423856681      22.153569692791006
   508   3      10.252381672283477      14.216106228757189      20.292320942107182
   509   3      8.1656686932596987      14.392434021978591      22.288182113171395
   510   3      10.069887761987275      12.246219632821287      22.505953156113801
   511   4      8.0126463956689715      16.341639545583419       11.63413403977386
   512   2      10.106066960429924      18.206561769737238      14.029676329948236
   513   3      10.119593838934037      18.332346017354659      12.164654829740499
   514   3      8.1612430956563866      18.268356906076058      14.340709968362177
   515   3      10.151411868077457       16.19490137849473       14.21683843583016
   516   4      7.9308498600916986      16.062727398217923      15.917917667694333
   517   2      10.163809969161209      18.097684560799671      18.168884374705591
   518   3      10.164928760047054      18.140802899219388      16.302461116250321
   519   3      8.1222821284016362      18.390104449342736      18.334086167021702
   520   3      10.026556592526791      16.232195153865639      18.425233314177699
   521   4      7.9896012307605009       15.97052152257214      20.071073521325719
   522   2      10.198318696436752       18.23878224824324      22.216567265388846
   523   3       9.992563130603612      18.366871422880493      20.310131486041819
   524   3       8.155053317390605      18.196769289335979      22.525609248638517
   525   3      10.244503496124402      16.235153895927574      22.363990771815971
   526   4      7.8406419912545067      19.918988254071454      11.773367375772171
   527   1       10.12587359737276      22.203574749019303      14.116897168619962
   528   3      10.064207892896183      22.300391919257489      12.096905408701703
   529   3      8.0522664944882969      22.254638490929139      14.337475762965903
   530   3      10.139705574399157      20.180885076942889      14.444629922247444
   531   4      8.1204752154179385      20.204308232944395      15.798660229542582
   532   2      10.152348085285123      22.137223239550217      18.248912648860365
   533   3      10.053633518215912      22.505988383299528      16.322707371983704
   534   3       8.066171346008467      22.328869223231692      18.379302100565546
   535   3      10.156888929718923         20.254335656294      18.242309650032624
   536   4      8.0203978344072731      19.960266149367843      20.259429446070293
   537   1      10.137331641772727      22.198253512936436      22.299917486590704
   538   3       10.08339774025195      22.392588392384187      20.242938042733119
   539   3       8.060740581561717      22.486905061367374      22.396052588449695
   540   3      9.9985664520920601      20.192411536712484      22.494073703810788
   541   4      12.060759939564258    -0.30315636155059139   -0.051576755677054109
   542   2       14.05591406398865      2.0640633251560039      2.0136592397657296
   543   3      14.217306287310427      1.9165013081094113   -0.014106368024287106
   544   3        12.1469703168805       1.956297312414319      2.2153300510516765
   545   3      14.285531728361683    0.061619042828990313      2.1641431852356221
   546   4      12.027765767748358   -0.059705347987432142       3.729070906545914
   547   1      14.153430537248058      1.9925223397594671      6.0311467930946403
   548   3       14.42919969861677      2.0973648191996914      3.9874844636532396
   549   3       12.14090891117209      1.9393220351401768      6.0118128726989477
   550   3      14.468818183431173   -0.035394763637372928      5.9141086323778795
   551   4      12.156356260356086     -0.3412414711719452        8.07551336772325
   552   2      14.242618710601205      2.0100608620936531      9.9947385057314388
   553   3      14.202066500119951      1.8333136374628658      8.1045688797615441
   554   3      12.174704177705786      1.9352514888667649      10.266326076003486
   555   3      14.232920296149038    0.059458315239369133       10.45395845376968
   556   4      11.721494502292593      4.2846700388729237      0.1577239769808248
   557   1      14.158232862783978      6.0690130840267829      2.0036448514561336
   558   3      14.123015845578964      6.2369824580145012   -0.033617794016360739
   559   3      12.131981042361343      6.1894461952547379      2.0800602668281996
   560   3      14.127227009796446      4.0232314896315708      1.8542858070017383
   561   4      11.808058201672711      4.1092781706161068      3.6828597647432839
   562   2      14.108347017614108      5.9099022345246439       6.023297283087687
   563   3      14.274809177612479      6.0922308545956367        4.11498479335072
   564   3      12.183114069557755      6.2912332675915561      6.0462674773026057
   565   3      14.119016674870162      4.0519516394057611      6.2878744768419823
   566   4      12.119218872178877      3.8955334251491398      8.2620206418655808
   567   1      14.138569398586485      6.0373830773130246      10.096169476937408
   568   3      14.086968926265865      6.3487156370596116      8.0502553001925818
   569   3      12.070298849209825      6.3544227160982993       10.09888433780057
   570   3      13.865047551698471      4.0012595037949996      9.9769769093222536
   571   4      11.876075484267323      7.7386831006027652      0.1799359321450619
   572   2      14.065717654828491      10.064360337641595      1.9428833283831484
   573   3      14.249646032021463      10.020174349526899     0.05774958911954204
   574   3      12.175726407413688      10.133969229633893       2.184487620381987
   575   3      14.278086519478741      8.1738162942852544      2.2837821816203041
   576   4       12.00264049339955      7.7448310637341082      3.8286463423021542
   577   2      14.019730060297313      10.074064420731952      5.9867298453435644
   578   3      14.309269937284132      10.287788389637212      4.1107481475583345
   579   3      12.153687542823103      10.086797125213188      6.0331004860410724
   580   3      14.425596459619342      8.1541913796924881      6.0071554898782198
   581   4      12.158167279777143      7.7849090250126176      8.1342037765164275
   582   2      14.320130978772065      10.079077692878833      10.048595388174627
   583   3      14.117258774626833      9.9736937869065727      8.1013030805018484
   584   3      12.101836758620371      10.010545155366778       10.34509321556048
   585   3      14.184033161254726      8.1544574041401532      10.339254740093297
   586   4      15.942951735802051    -0.13965504120130773     0.15863629662927897
   587   1      18.207622369672176      2.0359364314880097      2.0178704431478707
   588   3       18.50547238152738      2.0182420267865937   -0.048231403489816173
   589   3      16.185732081636171      2.2188473830565463      1.9243505857520637
   590   3      18.378476026962865   -0.010568025667702046      2.0666346148251735
   591   4      15.887757899216394      0.0896903000156348      3.9786307815903403
   592   2      18.234858291387845       1.914553595643369      6.1635277163558282
   593   3      18.146095786452864      2.2686825821147969      4.0710969058275568
   594   3      16.259859543704323      2.2670624359525413       6.117854998552823
   595   3       18.11455370800844    0.014716472459733853      5.8974893889978839
   596   4      15.926831085220229    -0.21645370761050767      7.8402588185682669
   597   1      18.176977463094261       2.002556663404444      10.119912044039509
   598   3      18.393507005843546      1.9898866243182787      8.0849623657207523
   599   3       16.15395146128353      2.2152643768984599      10.208998324387633
   600   3      18.205483755511374   -0.035709159165023173      10.287812069928439
   601   4      15.961571834493792      3.9065763336924531     0.20890875624881575
   602   2      18.106399229024952       6.053717595095728      2.0137155164244027
   603   3      18.365362898748614      6.2042616142447011    0.044990524090322406
   604   3      16.230474669065494      6.0774087120301017      2.0368086549884596
   605   3      18.394001461038215      4.1397591574915538      1.9027819907713421
   606   4       16.19213544740575      3.6862095536708082      3.9776815976398532
   607   1       18.19489190026383      6.0720004538521248      6.0820940450265804
   608   3      18.375084497711882      6.0325867154900026      4.0062328943283347
   609   3      16.144344271293861          6.012104997282      6.3041804576267415
   610   3      18.411017631363645      4.0452648358626844      6.2213337196246341
   611   4      16.164758244455847      3.9726675949956896       7.769475764894187
   612   2      18.008952039363862      6.0435129411544857       10.12873413114734
   613   3      18.387926782924705      6.1519887888616758      8.1667514967898054
   614   3      16.164459923127389      5.9631379160718838      10.000978288601566
   615   3      18.489868320598205      4.0989352967616908      10.037168045132267
   616   4       16.12198326375562      8.3806229841142716    -0.37547711536064354
   617   2      18.103063084181858      10.154612548437138      1.9637091525718728
   618   3      18.220781682532888      9.8812774588880625     0.08570273081628299
   619   3      16.220968395656676       10.14212673835449      2.1180252689022061
   620   3      18.273399098862711      8.1155112402200356      2.2328608273797061
   621   4      15.962069886616439      7.8660254129820766      3.9299428436328743
   622   2      18.083283447637672      10.112178607226491      6.0716837252475608
   623   3      18.387360511096695      10.197762885834821      4.0822570286463531
   624   3      16.215968060698927      10.269115219887198      6.2104324304444267
   625   3      18.254820713612602      8.1552909850915967      6.0174443159240329
   626   4      15.974466528827506       7.784395952763318      7.9269666732891055
   627   1      18.172229812264618      10.112733121933426      10.060672237652499
   628   3      18.461483421973195      10.053480387866887      8.0374712193869868
   629   3      16.182192579966397      10.308665789351986      10.148513015027298
   630   3      18.299364419355491      8.0145456205477394       10.20490142976484
   631   4      19.913063353349234   9.566385281116474e-05      0.1194019283576986
   632   2      22.206235386839758      1.9744279231595421      2.0704137351760448
   633   3      22.305299991202421       2.230220197321807    0.048111119330923484
   634   3      20.335771894640779      2.0636179656169298      2.1403725739492296
   635   3      22.416949401571241    0.061192667316215053      1.9623494408978528
   636   4      19.929244486487949  -0.0015229711785116431      4.1589330136806852
   637   1      22.213926868512193      2.0024571100815356      6.0589971026685339
   638   3      22.569187629896366      2.0231114886634129      3.9822736567647854
   639   3      20.197723558022766      1.9167562716165538      5.8206551742250801
   640   3      22.605034522443443   -0.012194030846833239      6.0574945512853962
   641   4      20.060502687005751    -0.27727544437355711      8.2877366119586817
   642   2       22.19944532213276      1.9693580206809709      10.060461356354397
   643   3      22.348306997770536      2.0227025995916241      8.1414026555840469
   644   3      20.318279284612245      1.9125197433835763      10.323569962634359
   645   3      22.560351623472243    0.050592426436171768      10.153565768420219
   646   4       19.98681417411149      3.9305368989185827    0.022387012092679993
   647   2      22.209228199630715      6.0332617764320844      2.0539625579994016
   648   3      22.476587094350815      6.1275838719685609    0.079655245705450572
   649   3      20.338624335030261      6.2246379811134371      2.0292938995248844
   650   3      22.346550567480698      4.1141607033176717      2.0857216702840859
   651   4      19.876345725448253      3.9086640555689613      4.2025519207484399
   652   2      22.188385460149092      5.9523700498276293      6.1025728924078164
   653   3      22.364350466611981      6.2214062355817097      4.0548833782433613
   654   3      20.331890839774729      6.2594266551965303      6.0797357919951009
   655   3      22.236177305842205      4.0847050770733997      5.9782673036806404
   656   4      19.886839282213195      4.0738058470994511      8.0999539869939188
   657   2      22.203768690929557      6.0985516646995679      10.248394669828881
   658   3      22.430125465456666      6.0984441339687701      8.0356622857247544
   659   3      20.325503542002558      6.1515607362554166      10.129841598431675
   660   3      22.283534750757106      4.0510320097073773      10.125600534797883
   661   4      20.010849561273574      8.1450598346711587    -0.16938566086565152
   662   2      22.190772890016699      10.081145405375388      2.0989244545371872
   663   3       22.48322591039117      10.073506938670489    0.037215004253999033
   664   3      20.303921210676755      10.012160025319849      2.0077797048898858
   665   3      22.520953897123057       8.135859900646679      2.0250634327207497
   666   4       19.89463364885729      7.9437017697327317      4.1490723900580981
   667   2        22.2570993931811      10.036815552362704      6.1674350412085026
   668   3      22.427260542544818      10.223916924759182      4.0328383857543102
   669   3      20.349600116322453      10.041570082016522      6.0505783437483744
   670   3      22.546103761991255      8.1369051642131573      6.0453019433085471
   671   4      19.897404740203015      8.0769661777828254      8.2118510910842382
   672   1      22.297957641992308      10.069737064106917       10.14051647828404
   673   3      22.398590302821987      10.166261448073133      8.0689586608213641
   674   3      20.273579707673676      10.057038363037501      10.247755495683727
   675   3      22.512989408835669      8.0122774988924501      10.033636618269636
   676   4      12.106809835400469   -0.016235905016987913      11.739049483780965
   677   1      14.135233563057611      2.0161135029968431        14.1924854171197
   678   3      14.229296811669531       2.312030154180718      12.149827561901015
   679   3       12.08933904075603      2.0536397909866784      14.180618061929215
   680   3      14.360696836200116   -0.036030050025834315      14.004332978048332
   681   4      12.135745204056915    -0.34169695936851385      16.136223874372657
   682   2      14.175813845266163      1.9870857080793392      18.123510621884911
   683   3      14.142202382403587      1.7673250617811129      16.253315891948709
   684   3      12.118961768231973      1.9806033937176695      18.344695111041855
   685   3      14.295750067493044     0.11036610538284596       18.51027262114625
   686   4      12.064944119104918    -0.35207714721088507      20.360754714813126
   687   2      14.041639001243114      2.0614040989618974      22.207162411202475
   688   3      14.290593346966128      2.3117921754103365      20.303314817358263
   689   3      12.147346274987557      2.0756408311109027      22.185830342803939
   690   3      14.234402929985858     0.13387023618124666      22.097254896191277
   691   4      12.373900196174077      3.7838369498719548      11.967664104772862
   692   2       14.18581412481273      6.0030375734858268      14.041652611175785
   693   3      14.009276678225234      5.8720748294947773      12.160018452831734
   694   3       12.20075371350098      6.1239926585177393      14.396435203817902
   695   3      14.080525595775917      4.0859671224654912      14.461283942203437
   696   4       12.10166981275848      4.0874346226994431      15.877882746058519
   697   2       14.10563294448303      6.0835351481523983      18.282374631672532
   698   3      14.274568171235725      6.2445442514213232       16.22566494493412
   699   3      12.149542791154344      6.2799802314735516      18.226819033003533
   700   3      14.013378374057774      4.0713316648759958      18.000970367096567
   701   4      11.777222948859693      4.0956467973399899      20.448661858059054
   702   2      14.077183817165485       6.057445020690003      22.390837629260929
   703   3      14.220201006344583      5.9014260544019157      20.238728793793349
   704   3      12.184441533079939      6.0993186064762241      22.181471282326726
   705   3      14.268646693315601      4.0665459587882085      22.472520469340424
   706   4      12.344288608659589      8.0096935634590611      11.860440130018658
   707   1      14.112113088388446      10.075431936784124      14.118277892208926
   708   3      14.200585344080411      10.370910773673849      12.097806097636953
   709   3      12.073968864600479      10.248030985693674      14.223166711535823
   710   3      14.295381798504676      8.0331010851869955      14.059398904999398
   711   4        12.0113622462046      7.8933979154990306      15.920003362446211
   712   1      14.090464389666778      10.065157984139839       18.20655073769133
   713   3      14.269266116486586      10.066509307302143      16.185619437839101
   714   3       12.05185451883885      10.155019388303668      18.399524548975215
   715   3       14.38990221244072      8.0294832622282311      18.306568586486232
   716   4      11.909584562434913      7.8606646794787149       20.29767427530885
   717   1      14.070062121789219      10.048872167219887      22.292770668852206
   718   3      14.230655221078285      10.226771281758509      20.242162325971858
   719   3      12.065861343257902      10.390838029770061      22.262842403640427
   720   3       14.26051393571451      8.0107432670560321      22.108050442658669
   721   4      15.903190755625225   -0.041374833945794033      12.101271490453534
   722   2      18.084280896435921      1.9211356412153235       14.16361919243883
   723   3      18.205666127809621      2.2954246666561393      12.201229550357342
   724   3      16.214541777894478      2.1441504950313468      14.200394197565497
   725   3      18.192577424503007    0.039424182079918373      14.030324810529628
   726   4      15.878487518667779    -0.19457531768637293      15.985323059803315
   727   1      18.116803015072286      2.0463828053489639      18.200988527479254
   728   3       18.47205239468655       2.006552490770563      16.131415998982821
   729   3      16.109426835891522      2.3369724850587037      18.221913690435109
   730   3      18.277573661697904   -0.014923919115243336       18.33758542963923
   731   4      15.949078969243676    -0.21946284278333159      20.203820730883209
   732   2      18.089621888880227      2.0216852495940869      22.284289473134255
   733   3      18.294911585344991      2.1653891702011689      20.329593187500389
   734   3      16.222101589860134      2.1109206821942017      22.387257439506381
   735   3       18.33079100312758     0.10281072251215165      22.232018030282461
   736   4      16.120407124845421      3.7508317422738502      12.144510701538476
   737   2      18.343992244978523       6.080044936343481       14.20336019238127
   738   3      18.229450570528183      5.8830315057489013      12.112454831789712
   739   3      16.186759113369785      5.9519782429459829      14.124734844980521
   740   3      18.375484622815804      4.0407574689997956       14.27908211581552
   741   4      16.062113467382549      4.2344458027001002      16.295306894780502
   742   1      18.141900343425998      6.0899652567099816        18.2399306152994
   743   3      18.275927020206378        6.11288703524216      16.158238340768207
   744   3      16.132640521134011      5.7527044608720539      18.209076335835416
   745   3      18.455747307977347      4.0627774483796912      18.170382277672921
   746   4      16.179447717888461      4.0563675636835654      19.956136925843069
   747   2      18.136249288722162      6.0620978589195236       22.19674410273111
   748   3       18.35790375180893      5.9914233321340813      20.315230266196828
   749   3      16.245014991039341      6.0625380721610984        22.3043474057922
   750   3      18.346547107073285      4.0762642609451465      22.468803712554738
   751   4      16.249756032534741      8.2807382148977133      12.542945553008513
   752   1      18.248848383613911      10.085680165876511      14.197969263615358
   753   3      18.253546591764799      10.215156129024011      12.141320523027344
   754   3      16.203134155951034      10.213412602850317      14.073334656194424
   755   3      18.124092581939145       8.034195780050494      14.022865528892506
   756   4      15.750984831232969      8.2040256656168449      16.236540445597441
   757   2      18.092051692851136       10.17065958365497      18.294735955936442
   758   3      18.412730990989893       10.07907731752608      16.251636947283398
   759   3      16.225409236881152      10.183109140321386      18.212488663575453
   760   3      18.375447894358711      8.1429342065572214      18.227119098716752
   761   4      15.835116243502007      8.3736425389078484      20.337484763804035
   762   1      18.251353255015513      10.123479968271429      22.260571489035225
   763   3      18.371155594081994      10.066818040030116      20.202572590468311
   764   3      16.210268602709149      9.9746204287628135      22.201657709783902
   765   3      18.378489130022857      8.0017832356876966      22.303014604759682
   766   4      19.977072529799383    -0.19236601860271638      11.950149841951898
   767   2      22.182994133078143      2.0889048035189424      14.184374701768602
   768   3       22.55884062381633      2.0226156357554395      12.182772182008181
   769   3      20.307713403867833      1.9538995778862389      14.017939546262989
   770   3      22.470589747787606   -0.042756082565550128      14.199017161396847
   771   4       20.12442336221628     0.34755266838855076      16.467414207483774
   772   1      22.321584721137594      2.0381362818026738      18.195677278390566
   773   3      22.236150802735967      1.8327912397296644       16.14203596804888
   774   3        20.3009090974403      1.8802763128545816      18.333427034147856
   775   3      22.559162430079027   -0.041638476619104303      18.253334383946495
   776   4      20.002589901008083     0.24348841768588358      20.005499505466105
   777   2      22.225505455447252      1.9860522562798528      22.248831688372423
   778   3      22.550829748443423      2.0409316786179392      20.358606302610411
   779   3      20.347192708461805      2.1573435407784687      22.222291423254173
   780   3      22.393332686940592    0.097272629456323201      22.426379055191873
   781   4      19.912515616756458      3.9384788663132633      12.055428832466015
   782   1       22.22887269875563      6.0421412585604601      14.163516588106942
   783   3      22.469384151734619      6.0462021289501848      12.112991650325849
   784   3       20.21759691990415      6.1296315713520206      14.127651453049436
   785   3       22.41272224686071      3.9714727488385386      14.230857675419495
   786   4      19.864985100303528      4.0132350199735578      16.346685824278179
   787   2      22.229616400086048      6.0265183468959815      18.131067947898135
   788   3      22.431455132540052      6.0964129554976063      16.262754561340838
   789   3      20.346649851920983      6.2112568295818544      18.242355960534542
   790   3      22.302901320476856      4.1147127858907488      18.389929685219943
   791   4      20.005109779186924      3.8975451091604301      19.871771743603222
   792   2      22.223230184103919      6.0649633481266596      22.204471575266769
   793   3      22.352897246385972       6.155689650140701      20.324797265364783
   794   3      20.342481923396694      6.0491522564997071      22.414416130637058
   795   3      22.510047970510819       4.117339323518264      22.352191447403129
   796   4      19.933332333380601      8.3807871539717596      11.909389405095535
   797   2      22.231641702113592      10.000172470397381      14.072439193798514
   798   3      22.381556185478559       10.21947768176504      12.191018957745619
   799   3      20.325588269855825      10.112613019821531      14.220550814802289
   800   3      22.482796481931167      8.1409557987978456      14.206543904458917
   801   4      19.843649575806136      8.0803176504670891      16.333106015091715
   802   2      22.333146363235137      10.086225340388319      18.081015089647479
   803   3      22.387992511523652      10.209356086131134      16.194385110495677
   804   3      20.379927309515242      9.9990265855670053      18.221748036644112
   805   3      22.489398511915478        8.10464124367879      18.319197386196034
   806   4       19.92740223364618      8.1627935317389948      20.094250164024082
   807   2      22.155655960224532       10.15415894671343       22.21470328436893
   808   3      22.291409070539384      10.054968734213286      20.321326025020849
   809   3      20.299919661927426      10.027086312954911      22.431375120547436
   810   3      22.365547190653842      8.0789643116520544      22.463389287833724
   811   4       12.26889956850925      12.130883035927498    -0.41551567182546861
   812   1      14.176402479906226       14.19028087985923      1.9833150017767656
   813   3      14.350051580922628       14.25801617890963   0.0050587228717710606
   814   3      12.104434715192999      14.249875303317388      2.1851553920450382
   815   3      14.219474906835044      12.076427788420313       2.057679350522807
   816   4      12.266400349609611      12.319987566678387      3.7156072944060372
   817   1      14.118248495592121      14.111335011762771      6.0456840905275504
   818   3      14.178892056193002      14.063371181693219      4.0457371042084009
   819   3       12.08173844708101       14.30414313500124      6.1881246703313915
   820   3      14.153574645897235      12.067541612191119      6.3507547895586729
   821   4      12.402500499845376      12.255144580090704      8.0775509311928122
   822   1      14.167193130085428      14.117239052930429      10.125384626978324
   823   3      14.190074296527118      14.291953442045514      8.1000743313651391
   824   3      12.114004544289996      14.373798154856244      10.064131127879071
   825   3      13.868962344463094      12.069365610047404      9.9554098971240705
   826   4      12.437518409381349      16.025827690634305    -0.32268115595398938
   827   2      14.282073478388098      18.184035792384801      1.9921091692453616
   828   3      13.989126447686113       18.16764364964634    0.057590672039991263
   829   3      12.101135817950958      18.208316453738373      2.2602599168954578
   830   3      14.197038359282823      16.259366436249589      2.2371706619444445
   831   4       12.37972593414772      15.912188153817356      3.9443323690111525
   832   1       14.18313252698406      18.208530298723488      6.0208584149006414
   833   3      14.255705194289757      18.505856433035056      4.0061117075697394
   834   3      12.135951073812949      18.230443641652673        6.01311098726545
   835   3      14.338255716548092      16.188467448981594      5.9742773008987822
   836   4      12.395661848189159      15.901815060946923      7.9114264149939384
   837   2      14.182708683061733      18.239830965054324      9.9442082598744168
   838   3      14.202159143028188      18.066468040104269       8.073878798838523
   839   3      12.207779891641808      18.103755164694515      10.287390208460856
   840   3      14.255076233785124       16.23765884425335      10.352209328597876
   841   4      12.324134505866589      19.993326485285923   -0.043307620618223679
   842   1      14.135415913730597      22.226419991435957      1.9924191091023442
   843   3      14.115363261289893       22.62563577086555   -0.039122382957335375
   844   3      12.084488164726395      22.510191120793806      2.0275568664331822
   845   3      13.889966371576151      20.209040973344646       1.887370902811919
   846   4      12.396460904693447      20.031123137132813      3.8635037774227343
   847   2      14.115120395273063      22.262046963822161      5.9303152066814553
   848   3      14.181156198101439      22.169874124931098      4.0377361885683394
   849   3      12.179756598013258      22.401868473565035      6.1673438933061044
   850   3       14.07618012578963      20.302240937613785      6.3204109456437854
   851   4      12.052264483865303      20.215183454183066       7.736471765506348
   852   1      14.129484581981179      22.244880063087837      10.073632119489695
   853   3      14.130561599356394      22.605353064450767      8.0717269613662967
   854   3      12.107648568192749      22.542001966055601      10.116423996686542
   855   3      14.070898387837126      20.200354213438043      10.059348974468593
   856   4      15.826175699557039      12.352270004234827    -0.12550069639186343
   857   2      18.180176648654232      14.337898972559803      1.9957089415730498
   858   3      18.054680209228639      14.259213613306532    0.006606257825234484
   859   3      16.269808544647422      14.033212575913337      2.1851633602387146
   860   3      18.418240019457723       12.06790731889695      2.0092755923025534
   861   4      15.899519817420838      12.377233869117077      3.9097189179349887
   862   1       18.24071137713042      14.119120144199551       6.070402307506269
   863   3      18.509906858384419      14.063596932305545      3.9957958718366116
   864   3      16.222985917383113      14.084560538848971      6.1149106698005955
   865   3       18.49675548027443      12.081352846006293      6.1566883382644413
   866   4      16.007246787118756      12.402174574117533      7.7670820246493051
   867   2      18.070944512100546      14.173816946864141      10.067272607670688
   868   3      18.333688253661002      14.343694572925857       8.170489140122033
   869   3      16.214326329012419      14.110377993395847       10.18502273891489
   870   3      18.500895768540531      12.253703115636773       10.05916255321914
   871   4      15.920964965290924      15.927929947753947     -0.3255726408820766
   872   1      18.224735305268773      18.191460861573884      2.0276346513661894
   873   3       18.30760269685242      18.378084750534228   -0.070710988321621635
   874   3      16.180136523498089      18.452445868080414      1.9349866845910848
   875   3      18.261499132833009      16.191053676033111      2.1844687550557467
   876   4      15.910853850107546       15.87223059544902      4.2561124348263215
   877   2      18.213281603946371      18.134046948806304      6.1459163873209661
   878   3      18.155525262837912      18.533035875200675      4.0605689707702854
   879   3      16.251401237329897      18.504308902584587      6.0690079131007044
   880   3      18.155834318242942      16.221278985274086      5.8889259004981245
   881   4      15.888919793614907      15.922209921729918      7.7400802730480001
   882   1       18.18872039822536      18.204669822751963      10.094082546749084
   883   3      18.372025819927444      18.188234132851207      8.0681123760239597
   884   3      16.155108947891446       18.26904517174885      10.310817106070877
   885   3      18.159171387500415      16.163450688158591      10.414143404917146
   886   4      16.384567452268687      20.038758423050773    0.073524969260235842
   887   2      18.081495330804898      22.302059319882503       2.115705155668461
   888   3      18.250451266394197      22.547434065210698    -0.02511980439557078
   889   3      16.203692133941388      22.316929765474537      1.9097086335340145
   890   3      18.289016128490907      20.387022709003897      1.7485061294796278
   891   4      16.244414806598392      19.935639714496102      4.0756802888568622
   892   1      18.164385695455611      22.264374992892648      6.0615153762505249
   893   3      18.323685024740382      22.183800155759418      3.9969452975865085
   894   3      16.143642158051936      22.123178426539262      6.2733182437426995
   895   3      18.436295332768605      20.249505696036298      6.2115267424504257
   896   4      16.057704842036284      20.266537621445469      7.7531281351079366
   897   2      18.043840475549221      22.290168931094104       10.13438494138431
   898   3      18.385487056136324      22.353742512090601       8.150478394345658
   899   3      16.172298347693204       22.19592944223356      10.125289796790552
   900   3       18.47220339507227      20.300300356901534      10.054446785692296
   901   4       20.39961087068685      12.348115136182676     0.16987407879067012
   902   1      22.258128938157988      14.152670282267922      2.0680370510764758
   903   3      22.330457635399828      14.250597530413541   -0.011870440116283503
   904   3      20.199941566650295      14.144969487048222      1.7386277797771825
   905   3      22.224697639274595        12.0760136392178      1.8154039089322511
   906   4      19.936608834825304       12.16921938738893      4.1008479130094289
   907   2       22.22440396568442      14.122443452199967      5.9520758035072712
   908   3       22.11153176292434      14.211573199130266      4.0828630357333351
   909   3      20.314547537098075      14.439020382775009      6.1995857942264632
   910   3      22.198099546642926        12.1980915905997      6.1441515032515168
   911   4      20.032022860525018      11.856100232792505      8.1660760149179517
   912   2      22.279347138752069      14.075171035524642      10.113986209762315
   913   3      22.349824707755282      14.382381097174211      8.1675776890983016
   914   3      20.339001586708331       14.52379867308241      10.122722587483979
   915   3      22.154834207545157      12.231345760655175      10.134882171509636
   916   4      20.453957134857284      15.819994638315066   -0.044505697718222437
   917   2      22.159816140298915      18.128703779067017       2.051284474035397
   918   3      22.262830613978455      18.448044657549922    0.027713657797758841
   919   3      20.283640750593072      18.427160117558564       2.038144092597074
   920   3      22.245179876234207      16.261720367262303      1.9288655255017995
   921   4      20.022248313471501      16.034964168993547      4.1967305407745013
   922   1      22.199163464819264      18.199367393545298      6.0565968948260043
   923   3      22.425925396240231      18.290640680330323      3.9641673395157029
   924   3      20.199943982342674        18.1486666830411      5.8535395215963053
   925   3      22.537192765254591      16.173005325180085       6.107932369060225
   926   4      20.115234288134818      15.983011720305774      8.0428859764898082
   927   2      22.156577514244081      18.290931020804916      10.065745960148964
   928   3      22.400061259844513      18.259591646328161      8.1483282082013666
   929   3      20.301812423695687      18.064768326579472      10.241034113198078
   930   3      22.612527392769735      16.325184244072844      10.180760048088429
   931   4      20.066689096542795      20.067997099971468     0.13154045874446016
   932   2      22.203764280126109      22.201842494848279      2.0298121051409512
   933   3      22.510103557277414      22.310358811365841    0.094790148489832318
   934   3      20.320907364369106      22.354721425665048      1.9513853890057489
   935   3      22.376031139061421      20.320190309831638      2.0679837168846165
   936   4      19.971497859196116      20.016977837073487      4.2386981397753081
   937   2      22.149816737704075      22.268321571807107      6.1070676751745427
   938   3      22.359758666382632        22.4697465533329       4.032456405740608
   939   3      20.284454237428733      22.512912766699127      6.0583244672496095
   940   3      22.280467446101742      20.338999789602859      6.0110101659804442
   941   4      19.857903284376331      20.272454674291492      8.0975636369975117
   942   1      22.271804767438557      22.242175984865277      10.103315387209886
   943   3      22.362899235099228      22.416639709395842      8.0357291120812864
   944   3      20.265147871629612      22.517674659150998      10.138490235311052
   945   3      22.217759956128404      20.214179046137232      10.272556911587792
   946   4      12.353016720606405      11.918731920962495      11.905754323826713
   947   2      14.210436320656699      14.199736822103612      14.019965666243593
   948   3      14.099989297410852      14.016641170640018      12.172313817059678
   949   3      12.148259040697161      14.189753184343344      14.376624576812551
   950   3      14.152301714295712      12.246700705865994      14.439652715658283
   951   4      12.289674626469836      11.848963542681927      15.931145016553993
   952   2      14.180459990976653       14.03380961774416      18.182589670774327
   953   3      14.220716739202304      14.433133599450597      16.256121522009042
   954   3      12.156299465007704      14.391129904033674      18.244265091284895
   955   3      14.100756540725397       12.17788162444481      18.125587676452238
   956   4      12.331687017196401      11.730343262150376      20.188044817074275
   957   1      14.156278162244455      14.149422971628725      22.208681303428538
   958   3      14.160659929453434      14.244966328825553      20.183519560581622
   959   3      12.109565933785703      14.133926803244893      22.473254101047146
   960   3      14.283676031323809      12.131744035074483      22.405092290449318
   961   4       12.20717007575756      16.176228756300777      11.738033959573206
   962   1      14.161996803069522      18.190398547568289      14.160122700350684
   963   3      14.170516748960479      18.483951055880308      12.160317558670206
   964   3      12.088595545805116      18.271620848644218      14.305933061886888
   965   3       14.07466476723563      16.142961602648978      14.139506858876455
   966   4       12.33674687914246      16.192309545504795      15.884743240509135
   967   2      14.273455823194771      18.287561791005032      18.135362665295826
   968   3      14.094192914637352      18.108795350058809      16.264114127798454
   969   3      12.104942826806203      18.213621906937433       18.46407786582914
   970   3       14.19145275238195      16.322392073259753      18.466132560673774
   971   4      12.531949349910704      16.095920514263476      20.234005209899731
   972   1      14.201958146489856      18.212469643509039      22.276290443851099
   973   3      14.206417583915803      18.485978143154309      20.263818200903891
   974   3      12.125649719579982      18.374227804458727      22.267034384092298
   975   3      14.101783356521278      16.204216441514038      22.286997037291147
   976   4      12.283909463588424      19.914449771576709      11.921238623556246
   977   2      14.078189278608445      22.269408669156302       14.05673707963698
   978   3      14.198019465730242      22.112173073215633      12.161680671290641
   979   3      12.150004117708471      22.333160772755921      14.328619802987971
   980   3      14.113587421711829      20.305819527096244      14.446653944247666
   981   4      12.174736652889059      20.127427369044572      15.868179276466133
   982   1       14.11063815158222      22.264872748591745      18.222161654506216
   983   3       14.11546962110827      22.613874825036856      16.202232783615841
   984   3      12.055436667365525      22.506115545283475      18.270953264687922
   985   3      13.969169663864024       20.22590864873845      18.201915752000389
   986   4      12.436710466930558      20.027650128442389      20.149906650308335
   987   2      14.206905844482648      22.183649900527961        22.3131754468411
   988   3      14.187537080780951      22.303803029575924      20.335600719890689
   989   3      12.209853379473913      22.478663514497743      22.316814326965069
   990   3      14.169980922704699      20.310838723736001      22.482223037307829
   991   4      16.290415001850871      11.716377678146481       12.23816750923033
   992   2      18.277116402026458      14.105908901373367      14.160426519506869
   993   3      18.368098429586386      14.133304235505619      12.186347503834817
   994   3      16.209365499816041      14.229711410247708      14.242004249628351
   995   3      18.326051885507656      12.220956496062449      14.332111576944527
   996   4      15.935184014789293       11.71096041972209      15.973869009440483
   997   1       18.17283584276997      14.099680786013979      18.221172832294179
   998   3      18.209177046486204      14.411089958305032      16.155550023150742
   999   3      16.131613305500508      14.346313690022869      18.234193636174439
  1000   3      18.504348909793311      12.082151398585749      18.158426862134927
  1001   4      15.903431051029788      11.803943956418738      20.644189888603712
  1002   2      18.265410533449099      13.979316353760696      22.198747263133431
  1003   3      18.306800754151656      14.183433673300256      20.293869774853952
  1004   3      16.258035372453698      14.329847570958352      22.236899109264645
  1005   3      18.131460610368972      12.136280713236967      22.358106214100744
  1006   4      16.101681738979071      16.318278054919062      11.803419509325243
  1007   2      18.093988399758235       18.22476785400092      14.085130555447602
  1008   3      18.275879559266766      18.438756623329347      12.208661320759994
  1009   3      16.213622383939956      18.401667499463112      14.237880998306649
  1010   3      18.174620072643062      16.279170928602159      14.098005677839989
  1011   4      16.284888386511508      15.865730668568094      16.221552300102751
  1012   2      18.306529448184271      18.143629555672359      18.173129576260692
  1013   3      18.285195195418016      18.246813699771682      16.269612629645621
  1014   3       16.22183819659541       18.42927222609968      18.314057367165905
  1015   3      18.123958157055593      16.290572649606908      18.344731066625638
  1016   4      16.128263806638842      15.807163614912778      20.196651386074759
  1017   2      18.180218744174585      18.081774806817872      22.305062969624828
  1018   3      18.179265887917683      18.539713931086609       20.31207774160093
  1019   3      16.265239062093634       18.35212008642182      22.320378865688049
  1020   3      18.288937870837746      16.236473836509465       22.23116439777591
  1021   4      15.919741137497189      20.069945086156157      11.958007742610217
  1022   1      18.179001278900202      22.300141781944326       14.16555868918919
  1023   3      18.371989779928558      22.153339885346785      12.110075114188957
  1024   3      16.130672652071677      22.199894252754341      14.377137753042918
  1025   3      18.306312690240357      20.218378576245154      14.410446234284807
  1026   4      16.108907813035582      20.339531514489043      15.841419543385912
  1027   2      18.049637190779634      22.317652687071618      18.165750446652332
  1028   3      18.326365463100281      22.299171128764602      16.277812058212042
  1029   3      16.182497353309127       22.30567011411576       18.24729989706864
  1030   3      18.401915997901916      20.343879802667303      18.267472769871031
  1031   4      16.152282541156126      19.956666879643404      20.309525295642533
  1032   2      18.347194455727145       22.25686493271655      22.254252132711159
  1033   3      18.200515885749518      22.295725505132651      20.284605934630658
  1034   3      16.177598737588088      22.497832393893503      22.341499384097272
  1035   3      18.140467172648044      20.366508529737256      22.422955299963789
  1036   4      20.052436015487881      11.776768776346517      11.881682846976094
  1037   2      22.346027269334886      14.063824494853884      14.160170438656438
  1038   3      22.244058461643128      14.418409263403129      12.156552221993698
  1039   3      20.239038091489792      14.394571132986087      14.268285449378864
  1040   3      22.166307261277883       12.19955422730977      14.221673567353204
  1041   4      19.989332712846611      11.888045289609702      16.147451770490218
  1042   1      22.322967398620879      14.114660837685582      18.149606600648504
  1043   3      22.279681407925722       14.40549750021292      16.121777263251552
  1044   3      20.247949134315551      14.284072607558912      18.230978829351407
  1045   3      22.257656563192999      12.071028336878069      18.422609223932238
  1046   4      20.338985385474309      12.385196022701065      19.863339195471077
  1047   1      22.263012872589158       14.09371971609883      22.252809730146385
  1048   3      22.195835171434837      14.265430753996407      20.266035425876254
  1049   3      20.187072678471313      14.182398768267539      22.504730830551207
  1050   3      22.370427599225604      12.055947745055512      22.380092689301723
  1051   4      20.026512952674835      16.105440771453978      11.969094248752414
  1052   2      22.153832389037188      18.215383676144885      14.193489143998621
  1053   3      22.492822729763073      18.261342845581254      12.207325700555854
  1054   3       20.28041149306689      18.283851264272226       14.21571413494477
  1055   3      22.460135827597401      16.304920041197693      14.177873082345178
  1056   4      20.270070907031602      15.784961051037497      16.388674077265971
  1057   1      22.258494701268376      18.259764695316328      18.214552878915406
  1058   3       22.44512435304031      18.270606759472013      16.156665867513194
  1059   3      20.205988101782044      18.271417240188999      18.440920069633059
  1060   3      22.422041994524974       16.23215147122287      18.254270283644665
  1061   4      20.486258100226358      15.858428284993188      19.940218711185484
  1062   2      22.182320841636582       18.24438139554012      22.212850942057798
  1063   3      22.414803861164661      18.307971283299977      20.324506151180771
  1064   3      20.252127968454555      18.470840021737025      22.230513155538244
  1065   3      22.248600307781977      16.323804855353977      22.418294069293722
  1066   4       19.95207535531798      20.346752901804976      11.942774752465095
  1067   2      22.184395367611256      22.319359663278675      14.102539479487671
  1068   3      22.362969060396267      22.268291532232791      12.221959483869041
  1069   3      20.318072836351917      22.230615763457564      14.263291433336601
  1070   3      22.398731826421287      20.285592647117358      14.276023832230388
  1071   4      19.947875534860458      20.406934705896823      16.023783774987589
  1072   2      22.190932626414561      22.289870234964752      18.230834861933111
  1073   3      22.465848450958752      22.277228139400911      16.250866997074528
  1074   3      20.304407391226846       22.40677237460498      18.320133423651214
  1075   3      22.355247785621952      20.330298727875391      18.317964670669969
  1076   4      20.110149059612635       20.11277365616419      20.057483162545864
  1077   1         22.231562979648       22.30101364927139      22.274265196867347
  1078   3      22.508032480374222      22.331763503533065      20.220156538741854
  1079   3       20.21268864741981       22.29255479269991      22.308321149073713
  1080   3      22.548688164227428      20.255941695885205      22.284397423974095
