(written by ASE)

1080 atoms
4 atom types

0.0      24.299999999999997  xlo xhi
0.0      24.299999999999997  ylo yhi
0.0      24.299999999999997  zlo zhi

Atoms # atomic

     1   4     -0.1950717719110216    -0.18274439166873269    -0.14804024372544516
     2   2       2.014265736471117      1.9291495701471715      2.0328923113065844
     3   3      2.2647239700195949      2.0514926532555284    0.096422476198094936
     4   3    0.090723254099676187      2.1977337371236931      1.9031601679015677
     5   3       2.094284369617454    0.051558686501455175      2.1902458955050408
     6   4    -0.22388375277244602   -0.046162582386682763      4.1883844911154613
     7   2      2.0359873296772673      1.9387312788821334      6.2022588993217695
     8   3      1.9254841857301279      2.2731536777018624      4.0346964571879704
     9   3    0.076623999813644081      2.2986988544460676      6.1287344507154744
    10   3       1.857497935524093    0.060476769564827178      5.9757023356356473
    11   4     -0.2677029936714686    -0.12399855780066327      7.9634459482427262
    12   1      2.0363202123273512      1.9754129614128526      10.093991320975316
    13   3      2.0694191204979999      2.0499821148805366      8.0675770107125917
    14   3   -0.024605843458776821      2.2882723832102432      10.096124624907693
    15   3      1.8929908789699961   -0.068750314103309812      10.369825723268672
    16   4    -0.13831341817748399      3.8895416301342132   -0.064380153726799033
    17   2      1.9674040949314104      5.9629719579004119      2.0298862113250071
    18   3      2.0752885302440593      6.3247185328136135    0.078272813797019503
    19   3     0.06822479337309427      6.1087201820379118      2.1167474923069212
    20   3      2.1702347088203875      4.1064018027873175      1.9627508128579589
    21   4   -0.054505656586042728      3.7757595307268041      4.2284275379646106
    22   2      2.0202365742197821      6.0652588264389529      6.1711062453169854
    23   3      2.1376197219866548      6.1136712015662784      4.0126658617758082
    24   3    0.037380248552584892      6.0601621720993828      5.9652291880590198
    25   3      2.1701301026194679      4.1241346710655034      6.0508926055594801
    26   4   -0.063659722557681986      3.7525508873498175      8.1714687970073587
    27   2      2.0333697988949964      5.9103111887643491      10.225975962946102
    28   3      2.0471437560567423      6.2483396538876406      8.0881834204742926
    29   3    0.051701439633660792      5.9493368683123409       9.953123298541076
    30   3      2.2173072284698492      4.0562532016783708      10.101944998053453
    31   4    -0.23618743553652607      8.0432909628608904   -0.057757384605455264
    32   2       2.029334154348843      10.027284952391886      2.0150672055042587
    33   3      2.1541399689547238      10.203768885558905    0.019797472127674173
    34   3    0.072047905176242599      10.366230907735453      2.0092929957199042
    35   3      1.9990615322349716      8.1608357207412361      2.1738284443555465
    36   4   0.0065283741297010988      7.9255220229054872      4.2402581857817916
    37   1      1.9928005687857273      10.098927763868504      6.1191156289770703
    38   3      1.9838595072216538      10.437033790310746      3.9716753538459759
    39   3   -0.024646821731919524      10.414449608828045      6.0372414848836611
    40   3      1.9223529217555972       8.083613636744877       5.816049794409107
    41   4    -0.16786653329609594      7.8895759958803806      8.2936759842919354
    42   2      1.9864955500641688      9.9968565224781134      10.091940775453747
    43   3      1.9795137794198483      10.233064121366105      8.1710162893664613
    44   3    0.050743037668704458      10.443352702740118      10.139150674883787
    45   3      1.8194153035275782      8.1272377282184216      10.167997068691522
    46   4      4.1646729856694567     -0.1041521301662208    -0.21652020738756547
    47   2      6.0515430281170994      1.9634711634747257      1.9657607192237936
    48   3      5.8675250009300912      2.0137293393417743    0.079640923375774067
    49   3      4.0684416656021911      2.1208230260959708      2.2982730312555981
    50   3      6.1295573797031384    0.089818529031728961      2.2022941114564549
    51   4      4.0899468608279808    -0.18032341712609878      4.0905371153559935
    52   2      6.1742719529642267      2.0279453720016236       6.069718070886962
    53   3      6.1521078959455462      2.2740117722118467      4.0981568205367669
    54   3      4.0049986923768008       1.987416172407183      5.8676493615434229
    55   3      6.0750673572813509    0.078734920145836287      6.0509021138684789
    56   4      4.1967311305118775    -0.24230693356290697      8.0946963688886573
    57   2      6.1045468304588031      1.9200889314129341      10.129597438791578
    58   3      5.8822107088406508         2.0616439418415      8.0982340107765136
    59   3      4.0839210891324633      1.8525781171793243      10.371455257016832
    60   3       6.234959195811534    0.029245985424184481      10.137134041976664
    61   4      4.1376741259664724      3.8556181574933235    -0.18141569343890862
    62   2      5.9865252257656429      6.0675161425902129      2.1330478982524097
    63   3      6.0251090702375922      6.3449700793158232    0.013021653842339323
    64   3      4.0458481261002444      6.3224899263851047      1.9956681213416756
    65   3      5.9596666445782862      4.1291503520168042      1.9228804314887984
    66   4      4.0465544945334493       3.838011772866591      4.2330046594287598
    67   1      6.0521873881137385      6.0234839227719572      6.0687629465465811
    68   3      6.1317692431716209      6.1200513127665932      4.0332798499643809
    69   3       3.994345839941448      6.3265425966391744      6.0458757221595381
    70   3      5.8017364304763568      4.0104516643559682      6.1803971981053216
    71   4      4.4062986539269566      4.1133162663326468      8.0954293519614566
    72   1      6.0897686693158057      5.9871033169527523      10.119725542153514
    73   3      5.9306454583623616      6.2257477163592432      8.0995205400306922
    74   3      3.9549382295658861      6.3613825691144248      10.135963164477316
    75   3      5.7518665129716524      4.0071070151849959      10.040852857532201
    76   4      4.0515520074677829      7.8295078879810101   -0.045151467118583075
    77   1      6.0309927017074321      10.089542053752245      2.0327710884265677
    78   3      6.0997442479045834        10.3004159849877   -0.025994787207113988
    79   3       3.995319513140291      10.289421402179579      2.0652046906346091
    80   3      6.3223977417284942      8.0838964583497361      2.0835147835498469
    81   4      3.8407739491826054      7.9562709589722189      4.2987858948751487
    82   2      5.9167474103853976      10.106792791213072      6.0939518454436055
    83   3       6.299002648218365      10.157065516054876      4.0984782885672564
    84   3      4.0284952696347105      10.111713148063414      5.8860383921793256
    85   3      6.1987512597813232      8.1631209222164784      6.0141372793100629
    86   4      4.2490879986011718      7.7817684205843918      8.1598410704756645
    87   1      6.1050808837125246      10.091289285382652      10.083564506292985
    88   3       5.990086378676069      10.157013270245772      8.0520235194057648
    89   3      3.9682848750850406      10.119636478182084      10.231320728873953
    90   3      6.1491473945397681       8.086134950783336       10.28605588818016
    91   4      8.2267355345478368    -0.27220270257942669   0.0034008329086728248
    92   1      10.070493173663769      2.0012639352860746      2.0387504260893405
    93   3      10.133148901255659      1.9774945364244372  -0.0017721202846487118
    94   3      7.9924108777898555      2.3188092657793833      2.0439217748606646
    95   3      10.048832925634038    0.014935110717261701      2.3008565110472392
    96   4      8.3796038641013997    -0.16757286195116469      3.9690902664297707
    97   2       10.29464371353631       1.928006389116439       6.073304743103793
    98   3      9.9468119573111569      2.2880359991372643      4.1449764185855553
    99   3      8.0512072956582088      2.2584300917300677      6.1724935412285742
   100   3      9.9431408790159956    0.058341088164596017      5.9477356562027994
   101   4      8.4534947347187526    -0.22090296236683343      8.2347437818695948
   102   1       10.13292629490266      2.0185941839420671      10.094896020485022
   103   3      10.042114475081931      2.0505307378756497      8.0326120098038203
   104   3      8.0438776476576042      2.3248722052880368       10.04887887504991
   105   3      9.9560215454448002    0.020079367918676937      10.241955580089837
   106   4      8.2363017767725761      4.1201567805018726     0.31136174809604977
   107   1      10.026224555924504      6.1084221519242474      2.0654385778534379
   108   3      10.220052612502229      6.1488744553056796   0.0058810897604001135
   109   3      8.0193549355396154      5.9724033086631607      1.8290608072470869
   110   3      10.190936761175889      4.0618253640610549      1.9457186907506596
   111   4      8.1765598797294121      3.8463683896294478      3.9295555911791227
   112   2      9.9969981583033576      6.0122943447449826       6.091522229538235
   113   3       10.20083687630682      6.0197807685963829      4.1277828771291629
   114   3      8.1261464709564031      6.0894956844279351       6.176348751478792
   115   3      10.231043252198697      4.1093189012423519      6.2279605878431026
   116   4      8.3068317775799407      3.8508625206623446      8.2305148845728269
   117   2      10.087842326294748      5.9872676196609618      10.259884271723765
   118   3      10.254358764819171       6.283896506182816      8.0638001359454972
   119   3      8.1547639045145974      6.0262855594519786      9.9436777435016275
   120   3      10.277870358285103      4.1006792510431103      9.8858950339809386
   121   4      7.9432036057955608      7.7884566865868203     0.16483586466655628
   122   2      10.011329651001605      10.103415302281604      1.9798036166851816
   123   3      10.225564421834751      10.133559465457159    0.058161610014624228
   124   3      8.1545590008367341      10.294576410245222      2.0039917674563106
   125   3      10.116917801477182      8.1899790747805614       2.131597611111975
   126   4      7.6979959545874381       8.106142407298444      4.0575114495883051
   127   2      10.000075659742821      10.034494034601057       6.002391832326663
   128   3      10.085434901129066      10.276576592818902      4.0962152146119042
   129   3      8.1393401098233973      10.210341083519801      6.2013434961739859
   130   3      10.110079402291792      8.1408352143240617      5.9842102671162447
   131   4      7.7550935658792008      7.7355614937007706      8.1866249254350993
   132   2      10.083114971244166      10.064976694841787      9.9866569164315244
   133   3      10.295095529643788      10.076039578447281      8.1031975000709284
   134   3      8.1729940838030934      10.340476758668393      10.092835719300194
   135   3      10.017015783967615      8.1602214455806941      10.264195635685736
   136   4   -0.054183712521151027   -0.075187641634277519      11.868647663261106
   137   2      2.0361355893015842      2.0311093112228109      14.054029758384925
   138   3      1.8833083371767847      2.1019535392583797      12.186815519410709
   139   3    0.057066526379932328      1.9901493555360539      14.422992064787808
   140   3      2.0903212529414641   -0.021758597015010966      14.222184572499513
   141   4    -0.27004612683431323     0.12106565309392024      16.128520040193436
   142   2      2.0037796777236681      1.9453816711499843      18.151807606981251
   143   3      2.1995828837962459      1.9249867998794359      16.288612335225526
   144   3    0.095708825391930361      2.1704871134250241       18.24882927455997
   145   3      2.0234646515581547    0.034375188093179285      18.472563350766375
   146   4    -0.23066437750311955    -0.12867311626084352      20.113154222026623
   147   2      2.0489107659261503      1.9494187028448757      22.229934531807018
   148   3      1.9082041888901948      2.1693820600863294      20.356859806348819
   149   3    0.084569912021891486      2.0760806908237841      22.592201173170274
   150   3      2.1992082757833269    0.044414583443219906       22.35925154135364
   151   4   -0.095095855404304513      3.8389723076801423      11.959025067890353
   152   1      2.0934212867914272      6.0097162046676882         14.128292251263
   153   3      1.9063229330349094      6.0867328548971242      12.106109395183378
   154   3    0.038503520064463122      6.1075287615328362      14.310593946659463
   155   3      2.0439173900874708      3.9641590539388925      14.394583617539491
   156   4   0.0099289579514227413      4.2360665389872372      15.784446358431829
   157   2      2.0714691313637976      6.0217421985750015      18.161359215749865
   158   3      2.0206288761766036      6.2017966924463037      16.263749950026504
   159   3    0.053694371698065103      6.0508874883291695      18.399846238529719
   160   3      2.1635107233858779      4.0631762745149986      18.307076985443114
   161   4    -0.13336169225059932       3.904238774129511      19.984733742286224
   162   2      2.0096292264731379      5.9969386603631216      22.245972683645665
   163   3      2.1115802946771955      6.0316420045063417      20.355500937114897
   164   3    0.086343312661276247      6.2277009995010024      22.391334009130293
   165   3      1.9816879161044274      4.1090388654664505       22.53249693196442
   166   4    0.034618704978107637      7.7186463830689478      12.395113646622569
   167   2      2.1773845769014324      10.059599816779683      14.183538509507306
   168   3      1.9137507293540437      10.308881498840799      12.161941418019966
   169   3   -0.025840494634175638      10.409858955621347      14.164704995526559
   170   3      1.8575473696575466      8.1595679974051549      14.112415324976185
   171   4      0.1173175098595283      7.8327616937804185       15.91352547822434
   172   1      2.0294417725309244      10.080681894754102      18.175943030356287
   173   3      1.9018128398105441      10.116263178384997       16.13812128528577
   174   3   -0.016249463578803358      10.217870091499359      18.437326669289408
   175   3       1.963079142792955      8.0469065299400526      18.487060018956612
   176   4    0.054335598991495385      8.1368912560821265      19.923571887190242
   177   2      1.9588258403622236      10.045938117530248        22.2241830449634
   178   3      2.1215107564622726      10.311029577339495      20.356580173382586
   179   3    0.073734686847589367      10.073469113371726      22.348249296337833
   180   3       2.194738197654559        8.15732409705058      22.291861140720222
   181   4      3.9077765092123387   -0.089893203945552377      11.797605646654727
   182   1      6.1005510945483215      1.9653551372470812      14.134897087385962
   183   3      6.1673429572433625      2.2563649757288311       12.10273335088214
   184   3       4.009641793224735      2.0051078735184813      14.206821099752055
   185   3      6.0815292921973541    -0.05651340336335884      14.260178121431277
   186   4      4.1783082664876776    0.035627015404863183      15.840524053462827
   187   2      6.1723519867922318      2.0646533239556306      18.162116990611761
   188   3      5.8995126037285441      1.9448111454110864      16.271975593833247
   189   3      4.0246348718688107      1.9600433734330345      18.534415448390551
   190   3      6.0799639964404522    0.047026405796567722      18.465913201268581
   191   4      4.2459580139931301      0.0348026698742534       20.08283363727643
   192   1      6.0590037210011074      2.0032737362461095      22.296719468425003
   193   3      6.0994985355427414      2.2627537583047821      20.255244750694253
   194   3      3.9772105750410587       2.252343837089942      22.287982483468728
   195   3      5.8451051188156162    -0.02119578007357837      22.295679497942917
   196   4      4.2410659621758802      3.7784886399986033       11.90048877509795
   197   2      6.0458528369815268      6.0066875252945486      14.082524073464647
   198   3      6.0706022730258615      5.9943048855305676      12.156357826975052
   199   3      4.0955150263265523      6.2058016214942269       14.29321663263223
   200   3       5.980729348725232      4.0657945285072481      14.365291147481424
   201   4       4.183826192311086      3.8674915643693342      15.940378096314717
   202   1      6.0490692973345315      6.0290558735818083      18.206127550010777
   203   3      6.0408246057294113      6.3784783829160467      16.180282852399007
   204   3      4.0091392893116495      6.2974410228564981      18.227554909460228
   205   3      5.8254774915953398      3.9941565528298346      18.167679268934339
   206   4      4.2785743268458525      3.8511628544519683      20.100437312510515
   207   2      6.1350408331997954      5.9774422204418025      22.208890489805242
   208   3      5.9503277236736691      6.0250727891585942      20.321338248576069
   209   3       4.032209307469997       6.135540909611211      22.499781249403267
   210   3      6.0285407252148007      4.1047890555683395      22.460228404340224
   211   4      4.3470255198711145      8.0259489976850578      11.855186202842553
   212   1      6.1173664712236819      10.081024947052736      14.141815450066165
   213   3      6.1864489816784056      10.278718200254117       12.12744726080644
   214   3      4.0626969906179173      10.124002250169015      14.162516568983042
   215   3      6.3058832868415875      8.0552814662995686      14.014044286423831
   216   4      4.1524612765580962      7.7740320867741914      16.098085145720848
   217   2      6.0660364467906973      10.133253581663336      18.038752525058992
   218   3      6.1329515244609922      10.038595129082722       16.17960438526914
   219   3      4.1122986224174136      10.106326816933985      18.394321895978166
   220   3      6.1105873389770302      8.1809120546089371      18.468793842594714
   221   4      4.0693154250496475       8.035013727952645      19.892737463059419
   222   2      6.0128525465428071      10.049276601574009      22.269965121391671
   223   3      6.1329084689066082      10.308328940616256      20.354512800937208
   224   3      4.0964141735473172      10.356009134572231      22.341932540388456
   225   3      6.0032014962654587      8.1677501895154485      22.271968773366776
   226   4      8.3422506130869056    -0.27054171915773295      11.927609292532521
   227   2      10.168984803335439      1.9842724469609634      14.056372181610366
   228   3      9.9916793783236706      2.2048491592950197      12.160331497210626
   229   3      8.1243221609544367      2.2388656709746018      14.250379148045162
   230   3      9.9390755164160289    0.057195336123756317       14.14658296897089
   231   4      8.2434384518616088    -0.15183492982215491      15.883175958335645
   232   2      10.210678300051788      1.9787217313513568      18.193537399299235
   233   3      10.104650310472746      1.9309281250609827      16.262521929452422
   234   3       8.094099648617572      2.2170673062795938      18.263730375606766
   235   3      9.9586593571264022     0.10034081861293526      18.432970688550878
   236   4      8.3136801282234583    -0.22529867605412413      20.325684218412885
   237   2      9.9979674733554891      2.0205685745377329      22.415679422749044
   238   3       10.04116035468579      2.3145016470042243      20.230111797656619
   239   3       8.103684995938865       2.108331415546651      22.226352643970255
   240   3      10.137168079621652     0.10551500436867481      22.112502664808531
   241   4      8.0678130658590312       3.742499761434674      12.164084944040972
   242   1      10.102407701867051      6.0402932683000188      14.121467294129085
   243   3       10.07445622003959      5.9307750494376572      12.111446862297546
   244   3      8.0540750893786086      5.9499247006418683      14.375855408570468
   245   3      10.153068207974353       4.015695720496125       14.46236046656483
   246   4       8.171383463273008      3.9873569310698014      15.836064742429047
   247   2      9.9719778187751391       6.037811297028207      18.196007569496015
   248   3      10.175347506355598      6.2954645048721467      16.270863360913467
   249   3      8.0894024088940881      6.1111992080147877      18.282409511088904
   250   3      10.250605174973465      4.0890931693329273      18.132970871245629
   251   4       8.007191315592598      3.7416073919451462      20.377240114125101
   252   1      10.025898313402193       6.085272110793893       22.26574334248583
   253   3      10.295804477789533      5.9779789483386754      20.214785752137647
   254   3      8.0162036438805675      6.1730750820550568      22.357709549245691
   255   3      10.254009299960737      4.0322684840529384      22.335697780340016
   256   4      7.7669278717481118      8.1322251034412751      12.013520334991437
   257   2      10.101703331312274      9.9693923287322335      14.179940090806296
   258   3      10.064581584858654       10.39951244514705      12.145873667890408
   259   3      8.1770910658761409      10.395607479047786      14.172853316091823
   260   3      10.056988810524974      8.1099010544770369       14.07148478468604
   261   4      7.9273304852643589      7.8118538855555428      15.935724966547602
   262   1      10.083380966451402      10.098888935447965      18.135009346044519
   263   3      10.249774432153764      10.102932439174399      16.111420872908962
   264   3      8.0494628792551914      10.155056314729199      18.409773475668963
   265   3      10.058054491976874       8.074174232683422      18.508793804896044
   266   4      8.0318061934554539       8.129095562129562        19.8844117954262
   267   2      10.081210279504097      10.029550679321847      22.235275370447489
   268   3      10.124569163191921      10.357547617185391      20.336512394900367
   269   3      8.1149037859290445      10.213781361667422      22.411001265036731
   270   3      10.205959397899942      8.1658391174519398      22.192032750616985
   271   4    -0.33240567297801399      12.063150853964205     0.10868298718018736
   272   2      1.8956481617489669      14.137938239885163      2.0347047835804575
   273   3      2.0671199362999211      14.461677565431604   0.0080744203120893514
   274   3    0.038493955037310977      14.232111074521988      2.0058954536976352
   275   3       2.145085316955619      12.268624089812544       1.868048693421877
   276   4    0.064415217771199462      11.889265350695133      4.2027927227409076
   277   2      2.0266978448609017      14.156320839690716      6.2355423246336823
   278   3      2.2059156928153394      14.146858209869189       3.959690901981066
   279   3   0.0089320395184213867      14.143865054394173      5.9558202298098442
   280   3      2.1301172204995145      12.248663673298417      6.0146926624788728
   281   4    0.033375942507497897      11.806807947374157      8.0964024163879262
   282   2      2.0417866639366347      14.148135304935579       10.32444037080843
   283   3      1.9105553582485608      14.346995298066782      8.1009872478867706
   284   3   -0.013467022759953857       14.16265636547616      10.203481612406691
   285   3      2.1688966702559198      12.241784866791601      10.055403136216066
   286   4    -0.30057837025049983      15.884193905726722   -0.087829515266863556
   287   2      1.9220525539888762      18.157435901233843      1.9928806429627024
   288   3      2.2949809368619372      18.235737125907811    0.042989928837443944
   289   3      0.0400794546755966      18.328419231429503      1.9064131153135218
   290   3      2.1441290573485818      16.269798562348054      2.0953184010943953
   291   4   -0.069681393595574903      16.330043344414449      4.4369893194703636
   292   1      2.0670249267472993      18.190628809644753      6.0698938638786224
   293   3      2.0265187843212122      18.450304523197218       3.936450317303207
   294   3    0.020688008617778437      18.407282905587024      6.0035172796760543
   295   3      1.9095432069044604      16.169781909740244       5.767707087526543
   296   4    -0.26453695583618153      16.163235419587703      8.0371333002824343
   297   2      2.0148915150836126      18.162829688742416      9.9656127145117637
   298   3      2.0052349709023876      18.265919411984541      8.1062802553051458
   299   3    0.070251952420260735      18.528128770993785      10.166865935910451
   300   3      1.8207893718234569      16.270802246955675      10.210160478216796
   301   4    -0.28008077167711387      20.228363113394082    -0.18616768734513775
   302   2      1.9803827519798363      22.196562205795118      1.9593901595766103
   303   3       2.089926350923526       22.48269568798808    0.080377909691148344
   304   3    0.093566881585907924      22.357962235094778      2.1228920557468043
   305   3      2.1884625204859427      20.313725326754632      1.9602535000301882
   306   4    -0.14383211536919782      19.952512170855965      4.2429198430702737
   307   2       2.032856158063987      22.150841267671083      5.9907656039097263
   308   3      2.1765981336970412      22.317964797535428       4.059018705126225
   309   3    0.077876171823784993      22.223824982025405      6.0339730696618519
   310   3      2.1996840310064907      20.301952203872371      6.1078137434532067
   311   4   -0.099915199892385342      19.908689015118448      7.8044967201542601
   312   2      1.9842886890788005      22.235132031286515      9.9843005090463972
   313   3      2.0212242990604188      22.461179056292458      8.0687729901825733
   314   3    0.070949213260557267      22.151209526738153       10.25786666672353
   315   3      2.2669986472592085      20.303369760208078      10.107897529810149
   316   4      4.0350634423949403      11.821098193115185     0.11391727838240127
   317   2      5.9928795668416557      14.097702775828223      2.0329759656756718
   318   3      6.3303205716865794      14.228008619145319    0.080114998097286533
   319   3       4.121446779291654       14.33361935906756      1.8957060219286601
   320   3      6.1513611863572999      12.207951059891302      2.0758774837077718
   321   4        3.80463553076991      11.950732103737471      4.1598927862099337
   322   1      6.0234049170457631      14.119664638836113      6.0383366632475672
   323   3      6.1502645413342423      14.243589017314079      4.0010670358416931
   324   3      3.9867734072009107       14.41234698466784      6.0978911574655994
   325   3      6.1341366619372311      12.103680442497865      6.0715533289099444
   326   4      4.1262725761142054      11.993061182732474      8.4007631417112254
   327   1       6.075106199880036      14.155965404448278      10.152153495805422
   328   3      6.1306556370749794      14.302313573270563      8.0745204395580021
   329   3      3.9543974909343618      14.409202564378923      9.9976482405363374
   330   3      5.8665239943588094      12.152886470129303      9.9887726959116598
   331   4      3.9387960719265087      16.083279994451701    -0.12343965570578203
   332   2      6.0728728963068042      18.136151448492246       2.014510334750192
   333   3      6.0427396244088536      18.321223793806464     0.10809070692673951
   334   3      4.1485747304980558      18.312222080110061      2.1879144621431617
   335   3      6.2550091810420678      16.252054008238431      2.1039891398431458
   336   4      3.8291463923297755      16.035517569132296       4.287536042519335
   337   2      6.0455188172583352      18.127583786979859      6.0442010806865509
   338   3      6.2725389482652743      18.439832683964696      4.0415765648157533
   339   3      4.1153252914212084      18.178468758334098       5.793062776666674
   340   3      6.2191058621532358      16.249281946592035      6.0055013784158673
   341   4      4.3641129572990902      15.867922461390849      8.2076199309253965
   342   1      6.0912763126289251      18.219393366909394      10.005063211822023
   343   3      5.9877150500333389       18.34991941869572      7.9766881440262454
   344   3       3.986557276716935      18.157900131112193      10.213910881247982
   345   3      6.0986091188236529      16.206828794245556      10.190104130498625
   346   4      4.1137625774564608      20.026040141742591     -0.2299296819745324
   347   2      6.0504491161328646      22.186002827226613      2.0504292193229858
   348   3      6.1026246750358526      22.514569294538195     0.10405051560960953
   349   3      4.1036312966084498      22.459788869388841      2.1041712011590388
   350   3      6.0998169530325459      20.325535316110269      2.0399410688855588
   351   4      3.9332303355460714      19.942130500001081      4.0940747025040904
   352   2      6.1959276714328553      22.227277732471432       6.098568929227997
   353   3      6.0403316970237295      22.407294259294673      4.0757205967473658
   354   3       4.000809952261327      22.595237703488447      6.0795076767615317
   355   3      5.8929683321950534      20.338648658440672      6.0568520735079296
   356   4      4.3998932373137123      20.189054613591402      8.2753969263680602
   357   1      6.1098983455985403      22.277363313030389      10.071218962757831
   358   3      5.8890327975014731      22.366653769161807      8.0234213928386016
   359   3      4.0015825417997455      22.564891527782947      10.087783557549916
   360   3      5.8793056020108567      20.267490490665523      10.101233362580246
   361   4      7.8561421736148258      11.969510997503328   -0.071739355437793445
   362   2      10.105794461443844       14.10915123064477      1.8990669364881734
   363   3      10.108623315110806      14.327187133857244      0.0488089842049301
   364   3       8.182987835039917      14.188616618593342      2.2145419922712746
   365   3      10.284505577266993      12.182439489866546      2.0661392240664695
   366   4      7.7224243967874973      12.044345157557476      4.0542475851046493
   367   2      10.101328638242892      14.009763354957816      6.0061748061838065
   368   3      10.210425009304974      14.117045831212323      4.1027276469541896
   369   3      8.1551961276038831      14.246448350879527      6.0749150375788679
   370   3      10.225928730146538      12.138466571324834      6.2329707649672956
   371   4      7.5947973787892771      12.191141018432244      8.1846354161894634
   372   2      10.112701288662533       14.13482540933283      10.038739392460142
   373   3      10.095757583265003      14.375587270367213      8.0892625332581893
   374   3      8.1598351230086053      14.142992127469892      10.125636716120631
   375   3         10.330938740152       12.18316593642473        10.0222424505387
   376   4      7.9533993162404419      16.193288235141129    -0.32116565435180477
   377   2      10.127176570965581      18.069796386711413      2.0145184983839224
   378   3      10.257832142906381      18.174961445164808    0.095770913339244854
   379   3       8.150852383050303      18.401300511818789      1.9991108459752314
   380   3      10.098759682155457      16.193465411785638      2.2462544089630172
   381   4       7.982306896056734      15.879534348682768      4.1157853657431414
   382   2      10.238668309505757        18.1086571096067      6.0882625114563238
   383   3      9.9931504341147566      18.425558831914412      4.0545368486069755
   384   3      8.0697696683397844      18.473428997881488      6.0791734391851691
   385   3      10.040780487989478      16.212374984351264      5.9418512571286524
   386   4      7.9226827816492786      15.837871428748459       8.029398292075177
   387   1      10.168197298130192      18.133187577326037      10.042006821851878
   388   3      10.064111222972043        18.1703698018827      8.0175520725675948
   389   3       8.117837518749349      18.334103108156064      10.137965252008694
   390   3      10.060407924352768      16.136354138036012      10.375083399065236
   391   4      8.1150213615757387      20.036556777387943     -0.2433230382217387
   392   2      10.159023732382382      22.169492117469318      2.0548147805451982
   393   3      10.101306932185109      22.571992775529644    0.070765622383548041
   394   3      8.0773223974232327      22.424406611751046      1.9927654552181149
   395   3      10.212908240521656      20.269015115420927      1.9505216713414839
   396   4      8.2764954767091012       20.04026342534512      4.1942736485400118
   397   1      10.132803048359184       22.22675549743958      6.0490488110426037
   398   3      9.9761090342450665      22.247780367809206      4.0081594968521888
   399   3      8.0562482081765747       22.27861129693267      6.1332593326134477
   400   3      10.174530541569647      20.209992906391545         6.2335578760371
   401   4      8.3091326505131065       19.84982035095555      8.1310404124564979
   402   2      10.149644969565879      22.084204280807292      10.156621252274453
   403   3      10.185347333506098      22.503597562806924      8.1391402721688468
   404   3      8.1668532120583546      22.264666204969554      10.053498925513843
   405   3      10.270502047961566      20.214827989658804      9.9775756786420402
   406   4    0.044577495032745273      11.838375687945488      12.148210712142214
   407   1      2.0032913394089538      14.216089447089242      14.154565695982592
   408   3      2.0434441996216237      14.179318533866317      12.154651285057206
   409   3   -0.066113559363982582      14.110648499350885       14.14771087647102
   410   3       2.105806941757538      12.149777470320172      14.393612486460675
   411   4     0.29593271843508029       11.96175885121221      15.943733398343719
   412   2      2.0767701932578704      14.124976859681212      18.094484525217652
   413   3      1.9656772666079643      14.287867734865626         16.250016828326
   414   3     0.10940161621894637       14.14957326134493      18.465010476684832
   415   3      2.1224011201061672      12.213232381443804      18.280391082419026
   416   4    -0.13566801260626435      12.128425082639792      19.935338892771906
   417   2      1.9478006220224453        14.0603299155239      22.261197685222438
   418   3       2.225774383460347      14.211746457757412      20.368385916071269
   419   3    0.079969910425071192      14.342241372816211      22.285619161376509
   420   3      2.0433159505222029      12.198427525314878      22.444622460280602
   421   4    -0.20305853644154981      16.169832582135399        12.0905831745326
   422   2      2.0071115167092306      18.179742486872939      14.043649868266773
   423   3      2.0325401717005738      18.386084470816829      12.170677634862122
   424   3     0.10090917685466609      18.398705311017284      14.308700785012695
   425   3      2.0872061799411341      16.299279536899785      14.250722193828517
   426   4    -0.39263400299826356      16.207372022437102      16.322783261918541
   427   2      1.9525974767932057      18.203879030121129      18.182633302292388
   428   3      2.1790363847232634      18.231969491164595      16.307800907984138
   429   3    0.098538039662198956      18.375587617815384      18.247856625143889
   430   3      2.0553022325241037      16.270298284406934      18.453018878742167
   431   4    -0.35849592528808627      15.928868837335308       20.04224043990828
   432   2      1.9857194570710195       18.13577989550577      22.218010527733167
   433   3      2.0677228643737053      18.407429548569436      20.329255974821216
   434   3    0.072394606568915776      18.223029099776529      22.482752117386543
   435   3      2.2492695670848031      16.260055127709741       22.30523176262745
   436   4    -0.21248136234943654      20.234636717160626      11.918592843395635
   437   2      1.9942986331155121      22.232531930795538      14.095402651141475
   438   3      2.1355302507830407      22.222713567770725       12.20358512657983
   439   3    0.093802858240263423      22.230215997715906        14.2648043322324
   440   3      2.1685627729650974      20.304782987985899       14.40481052705336
   441   4    -0.25862591012711095      20.143878143793255      16.110088516060316
   442   2      2.0715350763589413      22.200342901753235      18.142038592312481
   443   3      2.1174731276959764      22.397188962944465      16.279858573415268
   444   3      0.1508709625660957      22.246687307537265       18.34291515491773
   445   3      2.2410492598549347      20.287807046480008      18.287009174558492
   446   4    -0.34286439858065415      20.294931217061595      20.203454009564584
   447   2      2.0221896778018436       22.19711265309779      22.201488611357568
   448   3      2.1410341212639574       22.27850260667504      20.336253196924709
   449   3     0.13072149875765174       22.46468180105192      22.385640988827767
   450   3      1.9857158392372833      20.302758437295441      22.495587836760755
   451   4      4.4359647776590316      11.871858222785976      11.964522087180454
   452   2       6.006274747424583      14.215212927549253      14.099776552995838
   453   3      5.9701050291317497      14.117426323707525       12.19451527326485
   454   3      4.0917106080804659      14.221303526598559      14.430423913609154
   455   3      6.0419887702363182      12.206661217597116      14.341099379732713
   456   4         4.0357047027043      12.208353651022151      15.823079097767314
   457   1      6.0997817937772352      14.145711893966187      18.150096010327751
   458   3      6.3567993765607946      14.239223012554836      16.160106447527557
   459   3      4.0325756898531377      14.342064108629362      18.294464350486919
   460   3      6.0902463169845653      12.108182089450167      18.291210489631268
   461   4      3.9894134392682332      11.950957859169367       19.93068481245329
   462   2      6.0067894977143732      14.170722575003914      22.221722008972407
   463   3      6.0745094730756364      14.265799508745321      20.324700349258912
   464   3       4.100845944620561      14.211759435815859      22.489731591039934
   465   3      6.2582737211559163      12.249132530548469      22.387570864655498
   466   4      4.4659735723775915      16.387222981400946      11.875179042550695
   467   1      6.1002156879371627      18.239477989095771      14.150825281278326
   468   3       6.052107405930176      18.324385602087343      12.134528242231671
   469   3      4.0298779584206192      18.271553092415882      14.336210022923746
   470   3      6.1084192885788724      16.190205186937504      14.234316718689019
   471   4      4.0023260989991742       16.24215433016025      15.831026473600199
   472   2      6.0956545083481695      18.153409665149702      18.188450705255978
   473   3      6.0824284640781814      18.226338830855397       16.29292683408254
   474   3      4.1275595848328948      18.216777677536001      18.462615425073633
   475   3      6.2337562783214242      16.259746742273077       18.37431852040681
   476   4      4.0425605059525687      15.983764675458334      19.999595866227338
   477   1      6.0757366647361577      18.194556417245828      22.291266352186909
   478   3      6.1848212330349162      18.464291327841117      20.270231456731498
   479   3      4.0247055919317747      18.494310056359222      22.284035299106272
   480   3      6.0965409545100258       16.16409046710363      22.462875859873535
   481   4      4.3144283256852347      20.018297725177128      11.867505930135486
   482   2      6.1035240519138743      22.301831627686237      13.996833479327522
   483   3      6.0862456277642369      22.245767568961327       12.13628240374512
   484   3      4.0925255055388954      22.309308980329913      14.347620293220089
   485   3      6.0706724035552941        20.3277983722435      14.377400756519455
   486   4      4.1503164027271202      20.113132698594679      15.860201082135635
   487   2      6.0927268278235847      22.254074093816552      18.154466777636468
   488   3      6.0898218041799002      22.408625196294189      16.289987781782866
   489   3      4.1044174830444344      22.469755959974027      18.372888917668526
   490   3      6.0471464497876948      20.328703457942535      18.278248489985376
   491   4      4.1995848780156892      19.927164654528958      20.271297471375661
   492   2      6.1197800400735627      22.303831284978074       22.23838839073375
   493   3      6.0640426826777869      22.256414983004941      20.330735419214946
   494   3      4.0665892122785259      22.220224521351021      22.521015657598138
   495   3      6.1994428837527682      20.350638542852096      22.495445282969325
   496   4      7.9988616681576756      11.818568056520842      12.084617126336282
   497   2        10.1295876915551      14.177408429537719      14.030542273136732
   498   3      10.259701777086166      14.073364302213305      12.153198548569055
   499   3       8.161350601774517      14.188516704406002      14.170014933347744
   500   3      10.192095157214855      12.276364730415736      14.371714281636907
   501   4      7.9119379135037926      12.145371040646642      15.897625998360025
   502   2      10.152126605452011      14.089191828048364      18.099851841465579
   503   3       10.04787861327662      14.342242000943063      16.233638953196529
   504   3      8.2189974208686216       14.18714949182842      18.481216745250777
   505   3      10.234235767471693      12.211694889734739      18.232741974908169
   506   4      7.9812374604460246      12.008985525587821      19.931533506760768
   507   2      10.127222634045674      14.143746758275121      22.160307487549677
   508   3      10.262813298810553       14.17635662201832       20.29197259117409
   509   3      8.1539168647458542      14.378630693144242      22.282207860166054
   510   3      10.071052461519535      12.250699250613465      22.492903850699111
   511   4      8.0174372285687667      16.367208431037177       11.62983130173634
   512   2      10.104884304393007      18.236872706222723      14.030104803046203
   513   3      10.126545700322628      18.354719014555751      12.163802302159166
   514   3      8.1603509229634454      18.281549308375837       14.33968794358624
   515   3      10.144061440191919      16.215732176869324      14.193975053479086
   516   4      7.9006428002643441      16.088717746934041      15.931853047170414
   517   2      10.157563649929626      18.098453065739761      18.170503546713043
   518   3      10.167497109272034      18.144038850527433      16.302756520705916
   519   3      8.1235718997417568       18.39775627241157      18.332738773093247
   520   3      10.024425573945139      16.234460407656268      18.437078783677634
   521   4      7.9812324837055337      15.964289087804536      20.068268226480807
   522   2      10.196626390213984      18.242174842396402      22.218250934783104
   523   3       9.990964331111222      18.378927978040039      20.309991613742223
   524   3      8.1512196722289438      18.200368285884988      22.519420721550443
   525   3      10.234775789332646      16.230155258640792      22.347434098953762
   526   4      7.8291799156259598      19.929408853049139      11.766278932747369
   527   1      10.121679485821709      22.208074036480841      14.114725681076502
   528   3      10.060440813535575      22.293479727810727      12.094076491481866
   529   3      8.0498669643482099      22.257369086751858       14.34827801237503
   530   3      10.147153705080939      20.191688508174138       14.45293724255856
   531   4       8.103079206790909      20.208130089431219      15.806254560357045
   532   2      10.148199450858888       22.14452623551615      18.248848747594394
   533   3      10.068406870255963      22.526617343766596      16.320120385777876
   534   3      8.0673811777162339      22.344697240858252      18.361956805502192
   535   3      10.157024731631656      20.263138233937742      18.234558157708701
   536   4      8.0191708736952894      19.961395978492348      20.262149404228019
   537   1      10.132773896896625       22.19929778534658      22.300772393542932
   538   3      10.077264775747683       22.39398790017685      20.241717389661293
   539   3      8.0600869135230333      22.487328168013047      22.402765610009997
   540   3      9.9985747221507264      20.192816433997251      22.495628938368302
   541   4      12.062424375787016    -0.29602507726106742   -0.058705445145005967
   542   2      14.070109719104728      2.0652591622701406      1.9916686923767655
   543   3      14.207575095172135      1.9479129194499154   -0.010512357370734037
   544   3       12.15341975530974      1.9609340872530192      2.2298649969029452
   545   3      14.271591567763505    0.062692757883772779       2.167798697704058
   546   4      12.046652766360934   -0.038794545293403739      3.7150519018189625
   547   1      14.157306101051843      1.9931133592879791        6.02556182467415
   548   3      14.440027050351624      2.0918599754565212      3.9900403505732966
   549   3      12.143205034452601      1.9462670436933249      6.0053983312720565
   550   3      14.465150449472999   -0.036649109654440321      5.9183922507245255
   551   4      12.160044228831778    -0.34618303010097334      8.0694662289477854
   552   2      14.246400363801346       1.995381984043173      9.9897133286820807
   553   3      14.165615720371573      1.8504792544498332      8.1012103751857989
   554   3      12.178571801972419      1.9395597940210378      10.289719997728117
   555   3      14.234035457417923    0.056075650260443935      10.431075215589631
   556   4       11.71448674832655      4.2765933784831134     0.12105092894090402
   557   1      14.159114573366798      6.0788681860477887       1.987549205120289
   558   3      14.190435840514262      6.2345781635842368    -0.05433963480295767
   559   3      12.134618072015199      6.1973928383120276      2.0816509868121154
   560   3      14.119989452690193      4.0335376014305941      1.8874846159660092
   561   4        11.8475849035138      4.1154107178348314      3.6456261299036168
   562   2      14.114862172982708      5.9218406081966588      6.0167603001670908
   563   3       14.27394125755343      6.1037336511541485      4.1092426462056366
   564   3       12.18359345067323      6.2903632987083595      6.0492591088928522
   565   3      14.120158867690732      4.0593158739798465      6.2838285566970411
   566   4      12.159302080109613      3.8822340223989342      8.2309951958276599
   567   1      14.144187689639439      6.0443380818006771       10.09669931117635
   568   3      14.079131213631424       6.345717727386087      8.0508137886392461
   569   3      12.075308869301475      6.3480918378978286      10.120744422461007
   570   3        13.8713239063408      3.9981845028536758      9.9826006147903215
   571   4      11.877816430187583      7.7177612475937192     0.14216529752799634
   572   2      14.053664730036417      10.077974970907828       1.949215446458924
   573   3      14.233530237644551      10.023071117152087    0.059400711786212035
   574   3      12.166365490329635      10.124770775712472      2.1928173160540982
   575   3      14.293293526616857      8.1788695985769628       2.263175399102729
   576   4      12.000091108605192      7.7503468657357617      3.8263460588577276
   577   2      14.015212337117624      10.084377328394048      5.9955578780943251
   578   3      14.305305152632762      10.282044472516159      4.1123032597055635
   579   3      12.150009331097074      10.086699033056643      6.0445408731584527
   580   3      14.421817712730668        8.15392918766908      6.0034354338800915
   581   4      12.157966710510097      7.7873278556806884       8.131726169012337
   582   2      14.312389713361926      10.106127446035959      10.057546838876107
   583   3      14.117945296083903      9.9392033683293501      8.0968298624188453
   584   3      12.115400021470421      10.031174259479048       10.35572092350445
   585   3      14.182936536244888      8.1567175753426966      10.337322546562561
   586   4       15.94793128488687    -0.16136086010450509     0.12248409029217312
   587   1      18.200236082064404      2.0381252462674309       2.016268235005382
   588   3      18.522977278639434      2.0070969308990865   -0.043262830570230323
   589   3      16.180581319913951      2.2299688685704702      1.9269174022942821
   590   3      18.380863426683899  -0.0095977936153282904       2.070302544943869
   591   4      15.879120329596708    0.096527274902091176      3.9679891173127499
   592   2      18.219360009826211      1.9157934092129063       6.155704963220316
   593   3      18.130871619974062      2.2679955389773281      4.0751183977596668
   594   3      16.257281664905648      2.2556342532308076      6.1469289577791839
   595   3      18.127286363524622    0.012437159649732309       5.916768198394486
   596   4      15.930495209968429    -0.23543614320190973      7.8369607267790409
   597   1      18.178928312213124      1.9921527067535187      10.105805141886039
   598   3       18.43398841340202      2.0018525437624408      8.0806293190716527
   599   3      16.160290418162898      2.2306969001537706      10.170735111738454
   600   3      18.248041075900542   -0.038076034501284259      10.254774864874523
   601   4      15.922199492804321      3.9546855817240352     0.17190889597468681
   602   2      18.110437846308898      6.0542003024202868      2.0181783120126231
   603   3      18.361930904432036      6.2278623713015948    0.048236819752380797
   604   3      16.233855739333716      6.0810715626124487      2.0412866516097972
   605   3      18.400013024613951      4.1450855871734751      1.9031814488700205
   606   4      16.174665230237434      3.6936075011345317      3.9499020869936703
   607   1      18.187722022180264      6.0749297017019908      6.0770683383348088
   608   3      18.372703940607781      6.0442676496289547      4.0086093691956686
   609   3      16.143518063602283      6.0196416474608219      6.3113630323517533
   610   3      18.412324918765645      4.0482206963825904       6.222248649710477
   611   4      16.155851234257057      3.9880283912887129      7.7731896029420362
   612   2      18.018964393901754      6.0561327425565645      10.103186695350411
   613   3      18.404995909110269      6.1532449232772084       8.171144519294181
   614   3      16.174837678144879      5.9528408335644896      9.9744667750871585
   615   3      18.502097198599113      4.1062689935616383       10.05921323183389
   616   4      16.002350017107961      8.3141280797610086    -0.31896613214870995
   617   2      18.097343847300831      10.148080217526084      1.9502518956412274
   618   3      18.237198174030748      9.8898006007286572     0.08360319155138661
   619   3       16.21755521685251      10.157321945191331      2.1121506490566957
   620   3      18.269620613431986      8.1241005040512277      2.2391648890871343
   621   4      15.954854180000066      7.8833737595065418      3.9272838457133479
   622   2      18.074585690751995      10.125821129720649      6.0676775323190482
   623   3      18.383510098878666      10.198311112300591      4.0883566670892026
   624   3      16.211740752139981      10.263502078435053       6.209858798225655
   625   3      18.276899655969736      8.1618282093692684      6.0465401551193629
   626   4      15.939474338897375       7.819181895482771      7.9366155549247352
   627   1      18.178176760030258      10.125003531733489       10.05394709562537
   628   3      18.466949164490615      10.066789179578159      8.0365677053435665
   629   3      16.188021002104538      10.285352013853483      10.153982728740989
   630   3      18.273392373703413      8.0188250092419064      10.236005216785792
   631   4      19.925591740028725  -0.0042876262923318255      0.1367985265715268
   632   2      22.206865741511677      1.9763938453103989      2.0738668479656321
   633   3      22.293882926533534       2.231123763201444    0.054424621149920166
   634   3      20.334416024274013       2.060750083313732      2.1555356883501253
   635   3      22.416950787162836    0.061925281122853115      1.9686307679801971
   636   4      19.943043186516022   0.0095927715942470612      4.1671257763849816
   637   1      22.213215435568831      2.0016593359174002      6.0544469191198322
   638   3      22.571406395306404      2.0226454996208219       3.987629961568151
   639   3      20.194806767302715      1.9242018833421042      5.8003013622270627
   640   3      22.603235321254093   -0.013314521408008895      6.0551926864985228
   641   4      20.050026277002374    -0.28195395658130845       8.265754281761108
   642   2       22.22903718277141      1.9635946053184818      10.034441804243007
   643   3      22.301560561919182      2.0363159634445238      8.1340438973834086
   644   3      20.329781700708615      1.9494652363100253      10.390189472477559
   645   3      22.535221271641404    0.051290768707494452      10.172592126022206
   646   4      19.995996682605877      3.9281097875149888    0.028306752811269497
   647   2      22.210100715283119      6.0322233948410178      2.0591142972860688
   648   3       22.47537583368327      6.1292489866674282    0.091345600303306462
   649   3      20.337849743738385      6.2368200837272196      2.0349538939134719
   650   3      22.332882737824431      4.1145762725370387      2.0955800819960442
   651   4      19.880382654075909      3.9018122648238425      4.2052338520223422
   652   2      22.186852097982619      5.9526448750311349      6.1061329591206555
   653   3      22.360022579646785      6.2240122073985482      4.0650509929668868
   654   3      20.327727548627429       6.267563268596029      6.0840237156542827
   655   3      22.219522664944581      4.0862564700098325      5.9895617057986605
   656   4      19.900144895155545       4.050145917617737      8.0715131821937067
   657   2      22.200559838080338      6.1052076118876561      10.247556333648179
   658   3      22.399157325347101      6.1062311823441622      8.0480908262800064
   659   3      20.311339673087396      6.1685747734727929      10.205392611421871
   660   3      22.246128134422424      4.0565338978763297      10.161040760761299
   661   4      20.006878696298202      8.1423053955869147    -0.16859055608542006
   662   2      22.195118294388557      10.077044149954212      2.1018905234316798
   663   3      22.485524862236712      10.072960284062999    0.040061586184247516
   664   3      20.307738824062859      10.014171295464973       2.016703744324281
   665   3      22.525263437006959      8.1375674911852514      2.0372125385193933
   666   4      19.897381082531492      7.9492696249933719      4.1455284382044573
   667   2      22.260391381420806      10.040882542100066      6.1679667083032017
   668   3      22.421909547696451      10.233861408170263      4.0359152184556937
   669   3      20.350566704999899      10.041821311576246      6.0611990141192793
   670   3      22.538762771038353      8.1411691815392331      6.0516712518603555
   671   4      19.894455499911455      8.0933082424680283      8.1288462984279235
   672   1       22.29743689079309      10.082867801683825      10.135241282976905
   673   3      22.399832503537361      10.172843012212267      8.0706382404213208
   674   3      20.269929712961481      10.052129367365929      10.270479089566136
   675   3      22.506753537507795      8.0210299593109422        10.0477705126006
   676   4      12.077194409177512   -0.033884039536552911       11.73942712503988
   677   1      14.131606927838765      2.0042667872889592      14.183553095241063
   678   3      14.256285713374783      2.2952423043673242      12.151956101406759
   679   3      12.090335979516908      2.0711267203182651      14.178268946487815
   680   3       14.38943131649785   -0.027462380871800383      14.033005063706756
   681   4      12.123682897426921    -0.34257193327989877       16.14726816302306
   682   2      14.200797062522259      1.9270883998692534      18.141934971034974
   683   3       14.14772428026269       1.841900744671717      16.262325995066249
   684   3       12.13416573198263      1.9702763126043366      18.343331367445629
   685   3      14.289698087474335    0.066670412017743527      18.477621334407711
   686   4      12.043993230739693    -0.34332922045983227      20.356635359706477
   687   2      14.047067584081454      2.0577256705311151        22.1862167117912
   688   3        14.2923708157406      2.2570840482196428      20.297174249335747
   689   3      12.155078200702414      2.0590085540502785      22.195217692468471
   690   3      14.248110104627507     0.13006909757372059      22.133072791855462
   691   4      12.369462564104253      3.7522602343857034      11.944073778021417
   692   2      14.118382506117552      6.0540688554825364       14.02477929734761
   693   3      14.107108187649954      5.8653259425715136      12.161868744891789
   694   3      12.197869959405217      6.1310785792820903      14.363996298506891
   695   3      14.128805355538603      4.1107270284094444      14.497687202949392
   696   4      12.080338473217759      4.0145535950995432      15.872038203977166
   697   2      14.183458279088796      5.9514520350500257      18.251586191461492
   698   3      14.167185830468419      6.3378925014230427      16.279262117324258
   699   3      12.177667456062499      6.3515159058699018      18.212935008795466
   700   3      13.991140495243021      4.0676409915884957      18.122488841109398
   701   4      11.766715722669062      4.0889564382680836      20.396366770791154
   702   2      14.049071044296916      6.0531517933949086      22.332718385897998
   703   3      14.183966079318614      6.0174202639919114      20.252643473108986
   704   3      12.169717133751902      6.1093108990465588       22.27371336897248
   705   3      14.289188633306779      4.0748049574581291      22.448624722854991
   706   4       12.31138707431988      8.0325719426868893      11.830465497858299
   707   1      14.130180178583004      10.070324011813465      14.133641669160454
   708   3      14.225609108977885       10.36789809462498      12.100326843515218
   709   3       12.10447361174813      10.307456609799136      14.074375185477271
   710   3      14.380630545234325      8.0327372223348856      14.073420771799929
   711   4      12.016860998786855      7.7949457825047199      16.126274891891811
   712   2      14.053956326285236      9.9782653324871138      18.174662732369992
   713   3      14.216660453159662      10.107920516169571      16.244050589766054
   714   3      12.170457746375954      10.114644502093928      18.348155217499166
   715   3      14.315202851791041      8.1172150516180466      18.356051447766564
   716   4      11.834870202366282      7.8799039271671205      20.122828157431854
   717   1      14.061733848075809      10.068702015285641      22.270357820419267
   718   3      14.263297836810676      10.252989173322264      20.185907413615642
   719   3       12.06109772077699      10.403249457399427       22.26938571004354
   720   3      14.305170937786224      8.0367563162972466      22.166352640203371
   721   4       15.87448471740964   -0.095635330049355483      12.111228988214972
   722   2      18.128326181478908      1.8937208842580815      14.152776602271349
   723   3      18.182220640925465      2.3160194223563462      12.216770066033277
   724   3      16.237863561071688      2.2130629864091222      14.275712724120369
   725   3      18.148143266584736    0.030674356572273891      14.045228720064006
   726   4      15.903929737564729    -0.23044455264436384      15.972229300452041
   727   1      18.139676822566987      2.0168710458735397      18.185053574770542
   728   3      18.504753781956616      2.0008757154278465      16.132622033624013
   729   3      16.120563702220416      2.2634658502458702      18.245032696265945
   730   3      18.284316756195157   -0.024862791759223433      18.361151703764918
   731   4      15.970109389556283    -0.25736251030367219      20.218491440392373
   732   2      18.090426067989828      2.0160765879455815      22.300281140354745
   733   3       18.26206937543672      2.2029403423101579       20.33667388931341
   734   3      16.224661743838098       2.107350188395023      22.411847744473864
   735   3      18.328772721159606     0.10376069802016066      22.211728150658196
   736   4       16.12349056513202      3.7520397895253033      12.082713514348301
   737   2      18.381145860649795      6.0690445282606538      14.137746578674967
   738   3      18.124775478690907      5.9077685249136298       12.15094699485414
   739   3       16.15699126810263      5.9700139702282868      14.386382515713565
   740   3      18.282553321155913      4.0766913368330222      14.383695565876209
   741   4      16.098977150785174      4.0446368639966757      15.936699418487779
   742   1      18.160331547463034      6.1046276883419948      18.232858638694573
   743   3      18.327391974539381      6.1980060471515142       16.16805874718219
   744   3      16.128869890265548      5.9155168418980884      18.221611291983219
   745   3      18.406142526909392      4.0606964385945936      18.215414866272294
   746   4      16.369524286479759      3.9874218425506611      19.871426069004862
   747   2        18.1513019106504      6.0577087268243819      22.205887168743988
   748   3      18.355274344033692      5.9784106748308181      20.318329345618324
   749   3       16.26357776272739      6.1109049329282872       22.29890779174168
   750   3       18.32909645176187      4.0779319848992284      22.496587494861096
   751   4      16.297850827017495      8.3645401413874332      12.406494014200334
   752   1      18.250169697390678      10.083486792710017      14.196449305982345
   753   3      18.214513426412964      10.193303805249382      12.148343004996875
   754   3      16.197467950078131      10.267333352242966       14.10647590006514
   755   3      18.017661922404493       8.031745372711077      14.094034616237472
   756   4      16.073903528728049      7.8629371403428685       15.99593791657434
   757   2      18.088235975794852      10.175946762004621      18.291163173689132
   758   3      18.411314947836676       10.08360392782588      16.258949951927836
   759   3      16.202935637724529      10.251001808154443      18.201841840564125
   760   3        18.3785932798244      8.1597074033593682      18.238611870395076
   761   4      15.957003910529208      8.2931866942506289      20.480341928869169
   762   1      18.243228325961223      10.116926895942447      22.285187274532483
   763   3      18.341192525121013      10.069310368824027      20.204494427109005
   764   3      16.205896735733322      9.9607556989720187      22.186474230183752
   765   3      18.407920067384431      8.0055316341300884      22.266260495716079
   766   4      20.037864943052195    -0.21242989359502262      11.897907336866298
   767   2      22.187900475298665      2.1023601171920623      14.179401645019391
   768   3      22.560852591329038      2.0308834242349438      12.201984405666543
   769   3      20.290666249298955      1.9811609802244423      14.009696139176405
   770   3      22.450335575855348   -0.042040487531242093      14.213313885013326
   771   4      20.179733525900296     0.35700251814413808      16.480565902112321
   772   1       22.32166163418858      2.0441958404522058      18.203026486703841
   773   3      22.203182748596149       1.831200781067196      16.150290279520497
   774   3      20.296286045571122      1.8885550565072797      18.358264473261613
   775   3      22.537263496876971   -0.038969375813084718      18.261783640136418
   776   4      20.013302177440075     0.22146858378233597      20.015652295920543
   777   2      22.227420282000448      1.9874252099870164      22.251369955228974
   778   3      22.553653189043057      2.0448659785855101      20.362526156906089
   779   3      20.345364326704189       2.166683042900015       22.21048717433974
   780   3      22.387669389477505    0.098879260476574082       22.42782974430968
   781   4      19.985565954183876      3.8704097168078015      11.942041946122401
   782   1      22.248930681724154      6.0522144414714107      14.161824755862833
   783   3      22.505596988681283       6.049932248168532      12.112751997134758
   784   3       20.23240715003725      6.1471312479292015      14.098604446425512
   785   3      22.410125050370137      3.9788605054612955      14.241303419426417
   786   4      19.835279885298462      4.0460446697679018      16.363004448289338
   787   2      22.227707769561697      6.0312673779923092      18.128549378934476
   788   3       22.39041591039561      6.0939737759714889      16.261810909122648
   789   3      20.340775715304243      6.1961646880267649       18.26526423775314
   790   3      22.301795291373647      4.1167914888951334      18.397427245600028
   791   4      20.036152801619949      3.8870373884216076      19.879338072025046
   792   2      22.232841007532908      6.0666937762135635      22.207573462926288
   793   3      22.362568825062894      6.1534870744914514      20.331223622262065
   794   3      20.349664611632807      6.0374804868524787      22.425134466312059
   795   3      22.517177965597376      4.1165223899604557      22.360417236836039
   796   4      19.980445979020125      8.3895160133229609      11.862206003623001
   797   2      22.227276738571579      10.001670423835135      14.073555308516296
   798   3      22.376863106217325      10.220658253318856      12.190888558138608
   799   3      20.315156395682827       10.11579247058013      14.211740989661838
   800   3      22.477298032982624      8.1453755861153692      14.206610912837043
   801   4      19.865301730786175      8.0512951108207833      16.336205373334082
   802   2      22.323191835395207      10.087312148038112      18.087539733332882
   803   3      22.364074581853203      10.216294939576118      16.201346970712187
   804   3      20.369550119364895      10.026996019955378      18.257863650151688
   805   3      22.470836904618245      8.1071534604605962      18.328903713174345
   806   4      19.934904118938988      8.1808385762632305      20.118996414084929
   807   2      22.160098210919951      10.157576558823067      22.222553107040095
   808   3      22.310631685890556      10.057408142854159      20.328050482846642
   809   3      20.301924947014804      10.038321028091644      22.418108256362942
   810   3      22.364096159649971      8.0783568831321766      22.467368708441743
   811   4      12.268762196809048      12.141804898891426    -0.41149971018748743
   812   1      14.170375627973369      14.191436102263381      1.9894808097207939
   813   3      14.341817931482806      14.254669063071431    0.007127842992223193
   814   3      12.098778581904604      14.248913631529302      2.1940111173653132
   815   3      14.208415177027483      12.079266281518832      2.0546624177627297
   816   4        12.2510925209387       12.33119502176654      3.7330216043389264
   817   1      14.109945417450943      14.115590595182169      6.0551484942112204
   818   3        14.1692401013888       14.05714781234974      4.0508087096688872
   819   3      12.080062625918703      14.311209615533276      6.1772925369278591
   820   3      14.144766018737656      12.065854124331606      6.3562032020670589
   821   4      12.350994696469018      12.211717192710886      8.1161377147874649
   822   1      14.156018220048697      14.104283237196952      10.124935297421686
   823   3      14.209953436635207      14.310375633082213      8.0957443599999035
   824   3      12.119011843407543      14.409871994778074      10.018293009443756
   825   3      13.942993030281853      12.069096314585973      9.8837875481556399
   826   4      12.440104485344891       16.01893319699348    -0.32002078074441798
   827   2      14.282588280778622      18.174140724995645      1.9946186116088405
   828   3      13.985383295881318      18.162213603857744    0.058475881752552521
   829   3      12.097368960508328      18.217016968394177      2.2484606750580132
   830   3      14.196824151329771      16.256121285724397      2.2384180180691584
   831   4      12.389863245602962      15.902238670726998       3.987510285277081
   832   1       14.17900670341211      18.208725536108403      6.0150278598185603
   833   3      14.252597771113338      18.510445925364873      4.0008013396931918
   834   3      12.132798390479092      18.252071132364804      5.9989457595385378
   835   3      14.347321276582191      16.196201508874438      5.9487146401120103
   836   4      12.346940690879739      15.863847928906148      7.9632710627088263
   837   2      14.186879314343342      18.234080252419968      9.9395533322701226
   838   3      14.212224808695014      18.091575612236191      8.0682323421189892
   839   3      12.209367550336994      18.112468587048717       10.28086762309313
   840   3      14.262045681257637      16.244050938411199      10.333071534863139
   841   4      12.329670472977208       19.98802386439684   -0.027070456390906852
   842   1      14.136812980010772       22.22514000693203      1.9896794319659208
   843   3       14.10909645176684      22.614489727764845   -0.037791440806472079
   844   3      12.085330499519513      22.506751821725317      2.0318731860389061
   845   3      13.895040774283451      20.208404368824016      1.8811088909913225
   846   4      12.394283933870399      20.030309498376539        3.85893165142812
   847   2      14.113810253758617      22.262279758111454      5.9233428264422523
   848   3      14.192147342230241      22.173036728266503       4.032937871855113
   849   3      12.179324701677839      22.395907639834601      6.1625985781803658
   850   3      14.080479112192272       20.30425786997327       6.309332560289552
   851   4      12.055907070534358      20.208796334868392      7.7270598096003269
   852   1      14.128465012693169      22.242701277576366        10.0719741718174
   853   3      14.126293227632091      22.595996701966303      8.0699018173213659
   854   3      12.107178647136713      22.531959253330449      10.121688414236408
   855   3      14.078567883777557      20.203471026667675      10.087777692073066
   856   4      15.821540483301899        12.3480126115322    -0.10203921739341992
   857   2      18.177498117711625      14.332577216952613        1.99735162769756
   858   3      18.053700599661706      14.251133060814675   0.0054837569974431994
   859   3      16.267228998256048      14.025278324583658      2.1861436855197756
   860   3      18.428013978424293      12.066525299847436      2.0116323652663266
   861   4      15.895865009900938      12.386253390805505      3.9321624620037188
   862   1      18.234503400179449      14.119028940119129      6.0695864118908602
   863   3      18.506504903283247      14.061986656625264      3.9939615447387413
   864   3      16.218939074656554      14.083753068427994      6.1046116892037858
   865   3      18.508423878594606      12.085169698583023      6.1521999724548095
   866   4       15.96048906165808      12.429579701367212      7.8089086712511895
   867   2      18.071971686449736      14.180646571391319      10.064659498363243
   868   3      18.346839717600748       14.33332972704128      8.1688841431693007
   869   3      16.215656990515054      14.105583538558999      10.173901880716803
   870   3      18.508631461664159        12.2567377514484      10.068111456644926
   871   4      15.918596436925466      15.921633862338838    -0.32897136510696173
   872   1      18.225278117794193      18.186124720730405      2.0252510321643458
   873   3      18.309276737327423      18.374416471834966   -0.068661580161381269
   874   3      16.180272641324315      18.449522142829419      1.9327371184162268
   875   3      18.260096833786559      16.186390276371572      2.1780047171396504
   876   4      15.925025192903584      15.871597506477471      4.2650720130305499
   877   2      18.213820005141272      18.134771022443157      6.1465829917551771
   878   3      18.157374644692091      18.529585579388144      4.0560737945074017
   879   3      16.253375554438133      18.507045983395365      6.0617725634070192
   880   3      18.155648488928975      16.221146833888078      5.8849170260456978
   881   4      15.869709741746242      15.939391447853643      7.7383279692248079
   882   1      18.187666833118847      18.201761568682734      10.094327687948649
   883   3      18.371597646748103      18.187788770423118       8.067189969812306
   884   3      16.156746181258253      18.272627861208726      10.311649256852816
   885   3       18.15844516612453      16.162434516406183       10.41658304418447
   886   4      16.379647149208722      20.040017601615556    0.082738356917308825
   887   2      18.081319249017096      22.306731422131058      2.1213512071699401
   888   3      18.251783851204298      22.561009239261129   -0.027916539590311377
   889   3      16.204613790100282      22.318908246440561      1.8983775817023005
   890   3      18.288068960693913      20.391109529295917      1.7428724524032893
   891   4      16.246540574159241      19.935024415978592      4.0706537835072396
   892   1      18.164689102565681      22.258769518507112      6.0582426585074725
   893   3       18.31205180571078      22.180506065684057      3.9992401490684997
   894   3      16.144805764505293      22.128008049384107      6.2835499969393434
   895   3       18.44144697936407      20.245671227280166      6.2052233873608316
   896   4      16.048905256758516       20.25956174077935      7.7528560433272515
   897   2       18.04488403918462      22.286044493469095      10.134363876080965
   898   3      18.398119352027177      22.340409179376557      8.1461640403702358
   899   3      16.174397640321914       22.21200883522129      10.108810253039877
   900   3       18.47499896806557      20.299392870768436        10.0506455158388
   901   4      20.398017261017408      12.335844597750246     0.18909625403170208
   902   1      22.263788872676479      14.150178180316674      2.0638400021401369
   903   3      22.329976568213194      14.259135591470482   -0.012451235691113706
   904   3       20.20105029503069      14.144844585758745      1.7385834570936385
   905   3      22.223482562782316      12.077923310210375      1.8113828225005688
   906   4      19.937774407464484      12.164052716391963      4.0870708474444513
   907   2      22.228238532183401      14.122736122871476      5.9453371851957568
   908   3      22.118920244190026      14.208157308881805      4.0781749880065199
   909   3      20.315251397000445      14.443828428013934      6.1929934551061692
   910   3      22.190688023728018      12.202463703467217      6.1516496637867366
   911   4      20.017450596004227      11.891447568764086      8.1349636489594523
   912   2      22.277791119801172      14.075682437779665      10.115749316190984
   913   3       22.34169490837359      14.386110824181095      8.1696335069458961
   914   3      20.338575506140209      14.532965724670847      10.129072556380827
   915   3      22.133594250192257      12.234245510594477      10.142881215366245
   916   4      20.462763846986171      15.814667459714341   -0.038534796264003177
   917   2      22.165093929350512      18.126002829435862       2.050564331283026
   918   3      22.266533004859848      18.444901986607274    0.026697616167943021
   919   3      20.286482922281493      18.426248310200464      2.0353268113716263
   920   3      22.247513655150215      16.259879239200973      1.9295856208633131
   921   4      20.021301825604102      16.035804536739739      4.1993495152927061
   922   1      22.201813511825755      18.198426624127833      6.0534804052080915
   923   3      22.428671402236645      18.290704391865741      3.9619841340059954
   924   3      20.201418697739893       18.14271550887192      5.8489435311232167
   925   3      22.537724908323824       16.17341036445713      6.1050915289900605
   926   4      20.124358591450438      15.980586915384661      8.0341945245677593
   927   2      22.163798848966859       18.28547061530583      10.060340105673204
   928   3      22.397328392043388      18.258859744033771      8.1466722351112235
   929   3      20.306044079920731      18.063685360728275      10.249255914653894
   930   3      22.616136026013322      16.323785894602906      10.185664178675822
   931   4      20.067985550277093      20.061886031374318     0.13689313614495446
   932   2      22.206293743605084      22.199858039982757      2.0262820477168195
   933   3      22.503844001720097      22.314078477615883    0.094352691724238449
   934   3      20.320919390393314      22.355736947469858      1.9546184395263826
   935   3      22.374138139560955      20.319245057064489      2.0646901905052744
   936   4       19.97307097377913      20.010489912142411      4.2332926004810307
   937   2      22.151816032632215      22.259890660285219        6.09957988110882
   938   3      22.366267179105616      22.465992205412611      4.0324768179178259
   939   3      20.286429606042116      22.509959510144029       6.054853058180945
   940   3      22.278859147520695      20.333823395622243      6.0083181751703254
   941   4      19.861772621922555      20.273741903922083      8.0906602150185716
   942   1      22.285571398366859      22.234269447114997      10.093910905398362
   943   3      22.366518071706118      22.412048921428653      8.0317072651097341
   944   3      20.278752855997507      22.496895575536648      10.142958516369321
   945   3      22.214233512717492      20.211010481122337      10.283616576096414
   946   4      12.216076606267716      11.799644718352061      12.040080351629857
   947   2      14.189114184459184      14.187103109380276      14.014514129250404
   948   3      14.142283214283466      14.057998491174102      12.167770500980344
   949   3      12.158385126624312      14.217897754676056       14.36012516596343
   950   3      14.170972649451178      12.252943576072941      14.440068139173283
   951   4      12.103056005063548      11.896013286262827      15.886868898643796
   952   2      14.176025991818559      14.028269637608661      18.186431189290051
   953   3      14.227695650865664      14.422561862637766      16.271070244840693
   954   3      12.164314541900856      14.374350165293512      18.243142893888059
   955   3       14.13250818534387      12.153766238991949      18.150221974147208
   956   4      12.056759854195752      11.804676615036938      20.161364159976966
   957   1      14.151800281489926      14.140801513028064      22.203599646708259
   958   3       14.16026567409145      14.247498889951704      20.181783603760003
   959   3      12.107187551574365      14.126430877988524      22.467733719096366
   960   3      14.302752299329848      12.125766423351754      22.411291264030218
   961   4       12.18393015216833      16.172671506763976      11.721381324194226
   962   1      14.167867955113836      18.184376548767926      14.160003659530103
   963   3      14.172423128976687      18.468515558966857      12.162891336135944
   964   3       12.09061322726199      18.265858013418232      14.311502563471851
   965   3      14.116981682820329      16.143361225695553      14.178050517643953
   966   4       12.35496378280186      16.207866261585593       15.88684619055323
   967   2       14.28011881963365      18.282260754304541      18.144896341767424
   968   3      14.079148415130737      18.127244946718729       16.26816644789794
   969   3       12.09960901409973      18.218085430640283      18.463087010465568
   970   3      14.186463996768907      16.316772690440182      18.453483225607478
   971   4       12.53949570789195      16.103357651137959      20.240676873564361
   972   1      14.200172424512763      18.209112707596233      22.278680134260579
   973   3      14.200112288848077      18.473138601327207      20.263452501524526
   974   3      12.122361634816144      18.364802071676309      22.264618814021897
   975   3      14.098163671193278      16.199582400737093       22.29054357790589
   976   4      12.289265242305092      19.909039864848317      11.912611555033916
   977   2      14.066274299953708      22.262829785713588      14.074816955614612
   978   3      14.235540264044902      22.161364818397189      12.170185813790244
   979   3      12.146837835227499      22.361304582885172      14.303790785685777
   980   3      14.110148993199303      20.307263062931725      14.428740100698855
   981   4      12.190217072738074      20.101331106960746      15.892087892473224
   982   1      14.111837903456266      22.249886433671836       18.22016320933885
   983   3       14.10829192916972      22.594019576206581       16.19533850317503
   984   3       12.05444989697345      22.505923202881235      18.275397231932207
   985   3      13.962087616273177      20.221215996573243      18.209460049861487
   986   4      12.430084953420451      20.022650914313477       20.14559950006765
   987   2      14.194245697362483        22.1771318363439      22.312820216559793
   988   3      14.204361648436814      22.300822342965319      20.339187323458141
   989   3      12.206786907253749      22.480044544846958      22.307472269173449
   990   3      14.167361221592769      20.305111898001947      22.480256692701587
   991   4      16.259683728346779      11.753004577459755      12.228733881193683
   992   2      18.281844737340936      14.120676447076919      14.156853133961311
   993   3      18.361548152012251      14.126610827346603      12.188517518873198
   994   3      16.216778635512608      14.206204707074338      14.271166439574428
   995   3      18.319500408671793      12.225704741984464      14.350554816189186
   996   4       16.02839304764262      11.792202324528253      15.885750743153261
   997   1      18.177087752672975      14.106090197563878      18.221967220866713
   998   3      18.218711292570017      14.414966926840096      16.161838656647099
   999   3      16.128260225696714      14.345471049991572      18.243004077809282
  1000   3      18.505987091900742      12.083003791991855      18.162319384821501
  1001   4      15.947464949679887      11.851064354861627      20.691288685551211
  1002   2      18.273306894875663      13.981098855164976      22.207417146993283
  1003   3      18.297002448493807      14.184313425246687      20.298872738935462
  1004   3      16.254368840061389      14.324256760398502      22.234362159669846
  1005   3      18.114403662906177      12.134257717856707      22.351270516991143
  1006   4       16.07940055032466      16.307173751645806       11.81317973637468
  1007   2      18.099744096308168      18.225983721542057       14.08148315953086
  1008   3      18.278455812136528      18.437242576246909      12.209699430648534
  1009   3      16.217350672236773      18.406576058291051      14.240441280254711
  1010   3      18.164400112159175      16.275709024989361       14.09839411837852
  1011   4       16.27071768381359      15.860690421661392      16.199114956613421
  1012   2      18.310684362521116      18.139875285491438      18.174506642457651
  1013   3      18.287809809966561       18.24133043332915      16.273117494726058
  1014   3      16.223062205153923      18.428108972900297      18.313538372175049
  1015   3      18.128673494957834      16.289125652111963       18.35726805791117
  1016   4      16.144168688496411      15.797456989388175      20.194032920081018
  1017   2      18.178587772256609      18.078460412514236      22.308825616994596
  1018   3      18.178714090281691      18.540547560217178      20.316633355209621
  1019   3      16.264350046402399       18.35016327527665      22.322411369213327
  1020   3      18.285131777330857      16.232375889767095       22.23580324981932
  1021   4      15.912126355414685      20.060367222666265      11.957181969973966
  1022   1      18.187961045370127      22.286591056461607      14.157971336318356
  1023   3      18.365291127253123      22.160022215095335      12.101519649528933
  1024   3      16.139430448225959      22.202447743803074      14.390957815675193
  1025   3      18.301569561904437      20.215665157234351      14.422715587802781
  1026   4      16.128294843710538      20.329786807315838      15.839767096312647
  1027   2       18.05809664135602      22.312145266622771      18.163172441671513
  1028   3      18.336125715066174      22.300685529525452      16.279036974631037
  1029   3      16.188369538734843      22.292293242669494      18.237617941230759
  1030   3      18.405668773793561      20.338583124780715      18.268914598159334
  1031   4       16.15892380673122      19.954818399011309      20.315720535206552
  1032   2      18.350008308005432      22.250714317358774      22.260449364244955
  1033   3      18.178495305658245      22.286979131508421      20.292836151871317
  1034   3      16.175882304418852       22.50190285950243      22.355124325085416
  1035   3      18.141160340379482      20.363543424677768      22.430005915181674
  1036   4      20.044803924207319      11.781710086975854      11.886507745439564
  1037   2      22.348612133418772      14.064494142159063      14.164129172362145
  1038   3      22.245563628551277       14.41929781755168      12.159569618016224
  1039   3      20.240328542339039      14.399793446915188      14.269105851361784
  1040   3      22.148352187836228      12.203155378842022      14.222711279752081
  1041   4      20.001963056172443      11.887898512153265      16.138033656650432
  1042   1      22.326921280001876      14.114349238835576      18.154377673426758
  1043   3      22.280423592335172      14.404576729244178      16.126259823757028
  1044   3       20.25242287795971      14.284114392460994      18.239039872455738
  1045   3      22.263679039086565      12.072680565834661      18.429716689181966
  1046   4      20.339256226442323      12.383254270363954      19.862388274050595
  1047   1      22.269411974809056      14.090381864616848      22.256240769525807
  1048   3      22.205712663519868      14.266515052582802      20.270247401346822
  1049   3      20.191100698013116      14.176646492424492      22.497537562179197
  1050   3      22.382773421076802      12.056594842173922      22.381994123320855
  1051   4      20.033630168501677      16.114038354563554      11.961560899096355
  1052   2      22.154841386783403      18.212374072321623       14.19525566460538
  1053   3       22.49217885864687       18.25863320213174      12.213077327038782
  1054   3         20.279075328832      18.282315205500645      14.219996706665341
  1055   3      22.463268559609073       16.30342581265538      14.183114238445311
  1056   4      20.268223618923063      15.783532028575168      16.394061148676169
  1057   1      22.261839996370849      18.257658570035208      18.218291481632772
  1058   3       22.44566449739445      18.271198980797458      16.160274227502086
  1059   3      20.209243578084489      18.269281639889385      18.444938397521327
  1060   3      22.426170489382574      16.231307062507458      18.259804049181533
  1061   4      20.492562125832045      15.856828243756654      19.945625782751758
  1062   2      22.181777221158537      18.241116380433724       22.21623164832231
  1063   3      22.416174482504875      18.311623172148014      20.327634579815058
  1064   3       20.25216348075681      18.466798915281004       22.23287789572397
  1065   3      22.254893890931971      16.322702887281931      22.414607130482686
  1066   4      19.976870596576187       20.34894873168701        11.9148530721623
  1067   2      22.180441180603893      22.318662042200451      14.108777275938715
  1068   3      22.365178073224563      22.274947343184099      12.225265614437827
  1069   3      20.313089221582551      22.224447560477827      14.254657365596112
  1070   3       22.39483515639775      20.284612087218555      14.278558067970785
  1071   4      19.958960877535755      20.400042337625678      16.022903937286493
  1072   2      22.192589389444141       22.28427550956793      18.235881901165282
  1073   3      22.443408586173131      22.274146053657621      16.256583835022308
  1074   3      20.303542553584784      22.398954305346045      18.348561576731139
  1075   3      22.352225973134381       20.32769018190092      18.325978397312603
  1076   4      20.115479285280156       20.10818893083102      20.060339611529223
  1077   1      22.234230127379149      22.300748694253443      22.277213515591157
  1078   3      22.516002967553593      22.331702082775802      20.225396203204429
  1079   3      20.214201801008123      22.295831522943761      22.297038928151633
  1080   3      22.548643011950212      20.256438079006625      22.286767305526002
