(written by ASE)

1080 atoms
4 atom types

0.0      24.299999999999997  xlo xhi
0.0      24.299999999999997  ylo yhi
0.0      24.299999999999997  zlo zhi

Atoms # atomic

     1   4    -0.19658765355200516    -0.19132338406410046    -0.12423623509904543
     2   2      2.0041591469124862      1.9375888727065942      2.0529754776903806
     3   3      2.2715365921930211      2.0972996729309146    0.082318678326067207
     4   3     0.10121190156470861      2.2205293890226141      1.9157905281542684
     5   3      2.0503901429130345    0.072206497968697908      2.1499793069588264
     6   4    -0.22250889809686134   -0.077357177319193712      4.1407299315177504
     7   2      2.0546993958891613      1.9193196702649489      6.1846527411230348
     8   3      1.9771798885062479      2.2782252319078919      4.0299063136629227
     9   3    0.090199130273407341       2.305474013178106      6.1081061946813273
    10   3      1.8484507641032866    0.051037005269807791      6.0122528071985526
    11   4    -0.22642693677084502     -0.1709676879809538       7.908368882795374
    12   1      2.0404174616445796      1.9679086564355137      10.085099572460454
    13   3      2.0264668581455507      2.0888460746029183      8.0557741699051277
    14   3   -0.029631662974071351      2.3051357554665595      10.086884519327414
    15   3        1.90544177045414   -0.077419038908706855       10.36543256720975
    16   4    -0.15983788692438636      3.9063168232175034   -0.031205488537161982
    17   2      1.9751617386349882      5.9878333217226833      2.0489425912056158
    18   3      2.1713412076474428      6.3117718581707933    0.063750936984765486
    19   3    0.083535973058181043      6.1215335158430548      2.0580174726613945
    20   3      2.1960329278314821      4.1228118216197451      1.9402100905396793
    21   4   -0.068923339593169528      3.7937957796035113      4.2495723242422416
    22   2      2.0362238679576223      6.0899548628361684      6.1902016695306639
    23   3      2.1550225584828024      6.1088023153639721      3.9979320164737691
    24   3    0.046366921467199458      6.0666204684349276       5.955271452157441
    25   3      2.1819517059116524      4.1409000544952628       6.029192505817111
    26   4    0.028253287287791612      3.7448807499003123       8.154133269249531
    27   2      2.0562056479793602      5.9251593057084193       10.23974460159298
    28   3      2.0378819353644873      6.2411942275073224      8.0896587980517598
    29   3    0.041669899510404611      5.9532892798895967      9.9454550583202739
    30   3       2.190033632984465      4.0620326593882368      10.101565111930555
    31   4    -0.28000653020382632      8.0748198712987644   -0.016721836323886696
    32   2      2.0204919989138395      10.042586925601656      2.0295229158229473
    33   3      2.1710893966625187      10.201122878084449     0.01158148049334371
    34   3    0.071039871259715712      10.321081980393396      1.9780469901198614
    35   3       2.045654743093746      8.1659639300228672      2.1362108552508334
    36   4  -0.0088351702617625108      7.9654220386263006      4.2784429399780732
    37   1      2.0056221331736608      10.099784160196432      6.1231152683440708
    38   3      1.9908726935952279      10.438573401379408       3.965877159160724
    39   3   -0.012122130205312243      10.413125249303395      6.0254255410850677
    40   3      1.9300939214556323      8.0867637891119362      5.8072702409115466
    41   4    -0.18238325504027184      7.8979379201151065      8.3168006947888369
    42   2      1.9774733509310778      9.9887614613734783      10.094202959394266
    43   3      1.9677673872418426      10.241604430791703      8.1708805097502193
    44   3    0.053838401556527506      10.447749750349498      10.146949692576396
    45   3      1.8083006222346558      8.1238231099736744      10.161725440731985
    46   4      4.1477242764778675    -0.32862434964259074     0.04908909507730292
    47   2      6.0608141282360588       1.947996529305235      1.9964844593578672
    48   3      5.9640550245082649      2.0818822120818692    0.063062346782608289
    49   3      4.0867639689773405      2.1437276830826266      2.1961928895640996
    50   3      6.1106150724065156     0.08885007395834027      2.1589510584227516
    51   4       4.177979227380729    -0.32257944359907437       3.937775514671487
    52   2      6.1604806627328053      2.0035953746851134      6.0333632872433842
    53   3      6.1436191335740196      2.2089308267430448      4.0785311268147844
    54   3      4.0213722922377748      2.0090416989132409      5.9220218184175506
    55   3      6.0846411490068011    0.066238232107706643      6.1247590042975935
    56   4       4.251608384716536    -0.27806365377872971      8.0337591434647244
    57   2       6.095422788356335       1.909504603784699      10.108398698794666
    58   3      5.9282143452225613      2.0973752716146254      8.0911457063970182
    59   3      4.0814491703652749      1.8706124011657237      10.360496688708022
    60   3      6.2061563225026211    0.014588067081857612      10.113051595133017
    61   4      4.0053850786110115      3.8558172925561256   -0.032715818645003676
    62   2      6.0380963966039838      6.0536452528605853      2.1333380989301181
    63   3      6.0270038425765176      6.4074633249443735     0.01621693701507803
    64   3      4.0793084435067692      6.3215106729909039      1.9988852159951076
    65   3      6.0110897092805056      4.1330654564065874      1.9572705473878818
    66   4      4.0323130907324911      3.8960096569442677      4.2787911962028051
    67   1      6.0732009471501405      6.0284115672933023      6.0612014963842169
    68   3      6.1396633414875579      6.1600012103482067      4.0346741692277854
    69   3      4.0066836880360288      6.3196978487525897       6.026889019944937
    70   3      5.8215287598376344      4.0108802020959429       6.157866271258519
    71   4      4.4316609253467352       4.119371930941309       8.088698448374954
    72   1      6.0771896402110892      5.9992058863172799      10.108894339318862
    73   3       5.961943083639679       6.232645523274007       8.094597903530941
    74   3       3.957731953507353      6.3328897710839129       10.12781681224528
    75   3      5.7790888869781787      4.0125496918019294      10.046380631236135
    76   4      4.0417216615061484      7.8746976093127872    0.059245994624502911
    77   1        6.02815096212335      10.138557421662457      2.0507850523654367
    78   3      6.1357668142485533       10.25338225160419   -0.031508866607884697
    79   3      4.0000017258926555      10.321982593485798        2.04920974077893
    80   3      6.2919281662805107      8.1261260596603186       2.096117230315464
    81   4      3.8881191694167048      7.9629178979557018       4.304125712815086
    82   2       5.932097268955709      10.137124644530084      6.1027290990732697
    83   3      6.2818734513529666      10.212154191473504      4.1029095895338736
    84   3      4.0391343142013136      10.116399509774199      5.8938946354427895
    85   3      6.2179821421243311      8.1817803273969218      6.0076098292561264
    86   4      4.3085244653626571      7.8146794586526545      8.2243157204079846
    87   1      6.0957817053884273      10.102198386969821      10.096191647846503
    88   3      5.9952612261016105      10.137538941729014      8.0620448965077891
    89   3      3.9557474636966155       10.16886155736689      10.199583987323097
    90   3      6.1228587871313511      8.1029800755711658      10.290111116594348
    91   4      8.1887897651059642    -0.34577627240166509    0.049840838540516574
    92   1      10.104551293038307      1.9873535093960473      2.0018461830953158
    93   3        10.1421462533199      2.0663697878250371   -0.050491002801759714
    94   3      8.0268287669729066      2.2614588974992316      2.0600126730942714
    95   3       10.12943395152192   0.0079350439382875615      2.2777759731760887
    96   4      8.3070033954402387    -0.27069195926432382      3.8561404970126421
    97   2      10.251960147951124      1.8726595581977916      6.0902226623313167
    98   3      10.012996000752889      2.3099776300244348       4.155063877014844
    99   3      8.0582535666145994      2.2432396934216756       6.146777082493748
   100   3      9.9917876873261768    0.023595187475498432      5.9585921119637772
   101   4      8.3977486557091794    -0.30145404300944728      8.2282976292162022
   102   1      10.131434745769132      1.9910067584870201      10.079607755717605
   103   3       10.00526663477067      2.0568310776830203      8.0330561371654632
   104   3      8.0364573832441017      2.2938846878701713      10.048601639678331
   105   3      9.9619455939200545  -0.0017592462418699127      10.253309274266872
   106   4       8.276806864857063      3.9800680242254769      0.2933934641389111
   107   1      10.038417082853185      6.1137046218386102      2.0748796057045693
   108   3      10.280116021489977      6.1662649161985392   -0.051325486824493435
   109   3      8.0402223156205483      6.0445656823933209      1.8392217916033293
   110   3      10.178236854826716      4.0712817058764683      1.9895183519742485
   111   4      8.2718467837496572      3.8613280947063302      3.8684157136962756
   112   2      10.024984863447212      6.0199447014884395      6.0490683465973651
   113   3      10.165022173122249      6.0734549763241796      4.1358977220793172
   114   3       8.142910862278935      6.1188157465743878      6.2151832678918622
   115   3      10.190000546705885      4.1302886900638258      6.2453183147628186
   116   4      8.2734470050531375      3.7800229713730649      8.1420161615706856
   117   2      10.124295047398309       5.925163046010999      10.150000854275477
   118   3      10.191786438675836      6.3204553395587535      8.1269385338985991
   119   3      8.1571794132074995      6.1739284163024131       10.07739250432973
   120   3      10.199028230802924      4.0634094098965763      9.9807345101225451
   121   4      7.8459828760605435      7.9458240909213229     0.23781747540717152
   122   2      10.019869629119132      10.150741766813116      1.9770444031449024
   123   3      10.235289403353153      10.166888250596683    0.070188513161380361
   124   3      8.1556846835857435      10.246850269325563      2.0320402913009037
   125   3      10.206690184288428      8.2143464829644035       2.099171454761485
   126   4      7.7001881174906908      8.1504369289192855      4.0417175522970856
   127   2      10.018783465892863      10.066798365151826      6.0207835653665942
   128   3      10.144220357867319      10.287557409204664      4.1100220805069956
   129   3       8.153461229282323      10.247414001752544      6.1840699902739562
   130   3      10.109175265606741      8.1708625116938727      6.0529875752873119
   131   4       7.804099778757279      7.7438601671678597      8.0817051276776866
   132   2      10.052700235205981      10.129500858097531      10.011612556343854
   133   3       10.26195562661473      10.107014819237341      8.1309294347936625
   134   3      8.1655066213540817      10.322279145277536      10.188853696513995
   135   3       10.07000500781457      8.2282698441010034      10.319102894167075
   136   4   -0.054152568084768864    -0.13031876442424509      11.876498293634427
   137   2      2.0445391700336444      1.9891377471085254      14.051932495178605
   138   3      1.8711771497631045      2.1116315664952463      12.184644918203777
   139   3    0.065020975728419722       1.983400801612778      14.414246075660051
   140   3      2.1349701482750629    -0.01536329712946928      14.215269443970165
   141   4    -0.28825301972509232      0.1005835545320308      16.141381310398238
   142   2      2.0167894236118724      1.9552605716074167      18.154621894879106
   143   3      2.1985733359021058      1.9413721764860472      16.292173762129082
   144   3     0.11627900057608838       2.147723735925251      18.284123932925088
   145   3      2.0839213948779016    0.052447899894258743      18.467758821476622
   146   4    -0.25294551992565228    -0.10732934350637888      20.129066503000484
   147   2      2.0643917837695511       1.952535519929443      22.256600761458976
   148   3      1.9969107994414308      2.2006177422505342      20.374275409694075
   149   3     0.13199795737917855       2.120807108865864      22.534534626079783
   150   3      2.1793620445564414    0.062479270538760928      22.321906039272683
   151   4   -0.035232745542159626      3.8221927556599051      11.974426555140154
   152   1      2.0806587694889171      6.0146499404065228      14.125547043468881
   153   3      1.8712570147667624      6.0652677440397005      12.111940386325301
   154   3    0.040449925778131203      6.1235449874818801      14.318761860644912
   155   3      2.0085698036927737      3.9634308561727098      14.409000884637161
   156   4    0.023183935097353579      4.2015958973689829      15.789923474602286
   157   2      2.0713547617417922       6.070334497328882      18.142696415846718
   158   3      2.0322873315478609      6.1703874593165278      16.267143002795095
   159   3    0.066353425585422843      6.0856297974602152      18.404813640029701
   160   3      2.1421731891367553      4.0737227182169446      18.339346030385084
   161   4    -0.10480981215984782       3.909320584191585      19.997574382453891
   162   2      1.9638654099341952      6.0161553980584079      22.270172401389367
   163   3      2.0739537337503031      6.0387602486796457      20.382534373794396
   164   3    0.076696436875044099       6.200833503104163      22.422609405829387
   165   3      2.0785869646827955      4.1309776722037848      22.537032181181711
   166   4   0.0069008623809832014       7.711991398066079      12.374953912559837
   167   2      2.1171757331368837      10.050451350807972      14.205746594823244
   168   3      1.9401865965872738      10.334322551896628      12.154496296782108
   169   3   -0.011190593084484769      10.394891837863955      14.162038555110493
   170   3       1.937367335335227      8.1489788888687755      14.111282662207707
   171   4    0.033712283617426952       7.813614337691253      15.907136888456883
   172   1      2.0249871386037674      10.088628910341416      18.171478376472454
   173   3      1.9092795812545149      10.148392702747705      16.146362059335843
   174   3   -0.013386324429889906      10.194906833998987       18.45230165847018
   175   3      2.0214556144585623      8.0528818210611313       18.49404061784902
   176   4     0.03380902707490771      8.1464091582653424      19.939209157779171
   177   2      1.9568060613145042        10.0388038513988      22.252960826997562
   178   3       2.134254415100215      10.314629826959518      20.369907295032053
   179   3    0.072835283053719696      10.090161040600037      22.347017234421319
   180   3       2.202528371439687      8.1538635316152703      22.293513004703396
   181   4      3.9189304937522516    -0.10104938371989093      11.785302825979933
   182   1      6.0898929853742851      1.9631005247183819      14.128103926044528
   183   3      6.1742992025837795      2.2429088509843926      12.092187761030875
   184   3      4.0124195955902966      2.0980640279839626      14.171840916368707
   185   3      6.0498362295390269   -0.062550237353883736      14.260260630413216
   186   4      4.1733676013781542   -0.056069626552772478      15.868565685790129
   187   2      6.0911581962031711      2.0271036577166917      18.096170398937314
   188   3      5.9497426224067791      1.9814861555447081      16.243484164900302
   189   3      4.0645064043981245      2.0546401860626697      18.515373712040152
   190   3      6.0287045187854202    0.076936883990947419      18.448036320450836
   191   4      4.1579122604142125    -0.12716040711768259       20.06762075763756
   192   2      6.1258227689740599      1.9709467355808452      22.245988530633465
   193   3      6.1296522366340804        2.24085505340312      20.355251512495698
   194   3      4.0822184546312759      2.2862875964438358      22.341503190778639
   195   3       5.944535905550751    0.094844961054039612      22.254707395811348
   196   4       4.244293147904278       3.777060526150045      11.897222414784123
   197   2      6.0969369840034755      6.0116267502721694       14.06633008163478
   198   3      6.0968737417028773        6.00439331796938      12.147382658246457
   199   3      4.0909641084550241      6.0286245030684791      14.330760334012028
   200   3      6.0673836955441898      4.0711148302392619      14.348742322429171
   201   4      4.0801890736008248      3.9837641253975198       15.80249027961548
   202   1      6.0710300968901185      6.0501157245373527      18.205877573805171
   203   3      6.0587819832155096      6.3608642719865776      16.191012378442331
   204   3       4.017789405653172      6.1582598568958549      18.392584662106511
   205   3      5.9885664758731227      4.0065875996240399      18.315502707445955
   206   4      4.1511909934555593      4.0304121361453786      19.934953475478185
   207   2      6.0163201637154113      5.9965938606269917      22.234517973429874
   208   3      6.1271264970644932      6.0518336424827561      20.355445971113951
   209   3      4.0890390419756004      6.1732347991377701      22.413085963530214
   210   3      6.1238504264740667      4.1323014401405009      22.502057898128083
   211   4      4.4670148660027928      8.1249746987157145      11.950004256547981
   212   1      6.0841880891951989      10.086824395519299      14.149287337173369
   213   3      6.0340235806471467      10.331358934499997      12.142156326703128
   214   3      4.0210227046792264      10.235603361999653      14.187626399029142
   215   3      5.9711983194111999      8.0505563673552132      14.057340389696796
   216   4      4.2614598228932588      7.8440969598199519      15.910599967127535
   217   2      6.0512357557878982      10.110920150288274       18.05038595298792
   218   3      6.0929737635013748      10.010887465865038      16.186171440144207
   219   3      4.1058968951304626      10.167022174567325      18.401214690308379
   220   3      6.0380826065887803      8.1750550996006961      18.476354858267747
   221   4      4.0385666203614079      8.0560062223996098      19.905824399827701
   222   2      6.0238036312575041      10.053742215304579      22.263944553754694
   223   3      6.1196566282151457      10.383964127100334      20.335357527428329
   224   3       4.111208110330157      10.350204509455654      22.331459608341422
   225   3      6.0605133773781263       8.179036024277142      22.236402252676324
   226   4       8.345446286499314    -0.27427903238538903      11.927052081257328
   227   2      10.144377647787694      1.9856746462332286      14.048348152227662
   228   3      9.9685653167459538      2.1601579828026121      12.153085424051069
   229   3      8.1207238586304662      2.1880873270987906      14.270211973412787
   230   3      9.9566654211390908    0.050495720790029897      14.166614133246407
   231   4      8.2529711039833789    -0.19219996667426317      15.912110607111483
   232   2      10.142301648466267       1.946586209255079      18.222237821709943
   233   3      10.114060345821697      1.9738712228423021      16.285487040393058
   234   3      8.0469837040182295      2.1501079944013823      18.261733673387184
   235   3      9.9980599776894525    0.068466985617385331      18.402620474842166
   236   4      8.2840277854979636    -0.28718013672504022      20.320705616227535
   237   2      10.176985851292738      1.9721709155916016       22.34084063284919
   238   3      9.9057819113562431        2.27065151630255       20.25380780936635
   239   3       8.045151684755897      2.0879541540450033       22.38299808980209
   240   3       10.11728094903085     0.08480783648394713      22.123595104410928
   241   4      8.0568809455199784      3.7049919594302976      12.098986002078215
   242   1        10.1166156535156      6.0229167577710845      14.104537772364933
   243   3      10.145122896405384      6.1155164103736235      12.076722277124881
   244   3      8.0679844474646583      6.0831338048220625      14.338119547184416
   245   3      10.127836760174908      4.0105686910560845      14.426029122549616
   246   4      8.1511962046981807      3.9449144194039203      15.831496311790636
   247   2      10.116288049048249      6.0529586439893706       18.14084772196453
   248   3      10.188811142447927      6.2896461211817689      16.230559560031981
   249   3      8.1243760822924287       6.254984262165121      18.200629311377494
   250   3      10.006780542557795       4.098532821892479      18.205188675899691
   251   4      8.0835091536879684       3.924793521482016      20.007475309154138
   252   2      9.9546351531247321      6.0239292885430089      22.228998405461045
   253   3      9.9756437426958815      6.0551095181184342      20.299050998979876
   254   3      8.0676440198603689      6.2752423195299132      22.465032308895591
   255   3      9.9715052220726932      4.1277141749150372      22.358874343278909
   256   4      7.9459557404914394      7.9108973946715615       11.82486115663049
   257   2      9.9909045755508643      10.056294100872371      14.167930887905237
   258   3      10.200576687783338      10.407419522164018      12.158738088167222
   259   3      8.1311439548134139      10.234953497423676      14.120772352268117
   260   3      10.219818257755763      8.1702702828707316      14.056550447602893
   261   4      7.9772498396360003      7.7489600166399057      16.094388318525102
   262   1      10.075567514019514       10.10042976294312      18.153091552718042
   263   3      10.295291065358903      10.102990665102755      16.096267048626146
   264   3      8.0424969179704711      10.088990721851113      18.395165746221974
   265   3      10.128207507753048       8.076002497773235      18.432928054695296
   266   4       8.074888194635264      8.0636709418553902      19.844287207420564
   267   2      10.083888012011474      10.028427770848282      22.209291548193416
   268   3      10.109077357193016      10.311035596815504      20.336546814512833
   269   3       8.132325864227619      10.196667615979088      22.386935182282016
   270   3      10.221718112975825      8.1391643170469603      22.302737934866926
   271   4    -0.33381260241054145      12.066928302533384    0.092327206658590386
   272   2      1.8760041693538636      14.129778985327151       2.038878072966638
   273   3      2.0395285969036325      14.470041644188177   -0.010785609763024383
   274   3    0.022368891580587438      14.234453727915392      2.0018835380750728
   275   3      2.1107696096606934       12.26021871260094      1.8315393941187021
   276   4    0.059804863035862091      11.914133184178761      4.2383027791882784
   277   2      2.0224134733029331      14.164358720300687      6.2238708637995295
   278   3      2.2118441948067904      14.136088953927814      3.9445503681431688
   279   3     0.02063271734122521      14.124537438103275      5.9430454953987919
   280   3      2.1425640955152585      12.252777391309541      6.0058370486682513
   281   4    0.058916551470581786      11.819558867038621      8.1093645265323158
   282   2      2.0346437475828405      14.164507051059223      10.326157122434182
   283   3       1.938749702167303      14.365760609913988      8.0918740992256861
   284   3  -0.0055484916887374959      14.172703163453638      10.189133360377301
   285   3      2.1505857114082545      12.259084198895476      10.042202047380149
   286   4    -0.32948937371533621      15.884904010400225   -0.083542777000977064
   287   2      1.9298797771403349      18.142465586159805      2.0120042650822803
   288   3      2.2814662210952052      18.229718750393122    0.016227311908115341
   289   3    0.046405546652796628      18.302448174361469      1.9135135682119984
   290   3      2.1492667169763662      16.245208867201931      2.0535870522441857
   291   4   -0.086304732202230394      16.332632168816232       4.433436388106621
   292   1      2.0682089727268811      18.198887427899958      6.0643561148247942
   293   3       2.073571736691711      18.418828927509921      3.9267385777855766
   294   3     0.02312941902527892      18.404676913322788      5.9809691871302704
   295   3      1.9077950548032956      16.172306375762325      5.7497912232751549
   296   4     -0.2911382880089361      16.168329258579995      8.0543179120189716
   297   2      2.0098930698091997      18.176714184679675      9.9545358444322183
   298   3       2.002201880476338      18.261796448935105      8.1009044675413655
   299   3    0.072494147713236895      18.494776918930352      10.187480014543587
   300   3      1.8372176411132881      16.276516635261427      10.211679610552419
   301   4    -0.29286458206854993      20.224081288134467    -0.18352394339133613
   302   2       2.010268418619984      22.162606657986064      1.9572469893395705
   303   3      2.0993241351480276      22.496484928497424    0.048647149888629698
   304   3    0.087265789626198076      22.388425795443403      2.0819844592135994
   305   3      2.1615188926239868      20.282199965688964      1.9061895652440246
   306   4    -0.17189271333022027      19.964848252067377      4.2386738107621085
   307   2      2.0513969632709856      22.136613232497833      5.9718526347277683
   308   3      2.1279759647545773      22.317073741102046      4.0402975760532343
   309   3    0.084784778570662855      22.223842909317916      6.0669998047313358
   310   3      2.1993860035361563      20.290273405030124      6.0801783053587481
   311   4    -0.11451103233351556       19.93002082995001      7.7737823627978866
   312   2      2.0018472712132445      22.232179452679279      9.9745717463073547
   313   3      2.0281660329355398      22.424965448718467      8.0677858123006221
   314   3    0.081195686641788944      22.154962566329228      10.263805660715866
   315   3      2.2626246332232482      20.289056136953704      10.139746171166054
   316   4      4.0365597132699929      11.840124454080089     0.14698062734022513
   317   2      5.9570784812795541      14.190658881652654      2.0711228364249989
   318   3      6.3747434671276446      14.258989055203175    0.027667793858626617
   319   3      4.0894878001392909      14.288906640005951      1.8163704902769882
   320   3      6.2216893823882957      12.245315997314126      1.9587590205811392
   321   4      3.8327004050535884      11.966679251881864      4.1829177504844708
   322   1       6.047493643251646      14.154617625317449      6.0167928810570777
   323   3      6.0532754453056299      14.100733826003465       3.985207605767866
   324   3      3.9907505355939428      14.435572335793431      6.0968607530054832
   325   3      6.1153434893454532      12.125966880969985      6.1235307999460202
   326   4      4.1348612374711768       11.97532080631823      8.4176252508444058
   327   1      6.0481889416721373      14.159115115390525      10.164183046748004
   328   3      6.1363639033026125      14.308878974027776      8.0797173011435497
   329   3       3.959512253724315      14.429726785215541      10.014407954142984
   330   3      5.9140301506922626        12.1603951989725      10.001252233934057
   331   4      3.8773485298383785       16.11608339539632   -0.056056665706896616
   332   2      6.0997843786522452      18.346077797798703      1.9168539785663947
   333   3      6.1143471734135124      18.123491327627647    0.017465482441039366
   334   3      4.1185156579669941      18.256103109409761      2.0970976761447462
   335   3      6.2759314297565387       16.18774151339505      2.0857317699421998
   336   4      3.8385153022327234      16.093974124077974      4.2986662232088184
   337   2      6.0667428575356785      18.086347487112413      6.0360569470961156
   338   3      6.1649655657222313      18.358750690480321      4.0466995996331701
   339   3      4.1176046574212739      18.143280414927101      5.8399439779812843
   340   3      6.2373272802650819      16.220282983129422       6.039258834067244
   341   4      4.3018640046458865      15.846409535579472      8.1649283417675598
   342   1      6.0883324014919351      18.222984335723122       10.00721059572758
   343   3      6.0554385134669442      18.329353635517673      7.9825183838947957
   344   3      3.9957464169108183      18.138865785523105      10.225170655293415
   345   3      6.1471923587176702      16.203021051092424      10.188741397328958
   346   4      4.0322770935892844      19.985630694665925    -0.19399688145855135
   347   1      6.0951966029129636       22.23045203766225      2.0246151238170031
   348   3      6.1089883775458196      22.549838520771068   -0.019852160989388731
   349   3      4.0063757926796759      22.504631419971812      2.0483934898036558
   350   3      6.1165388623661432      20.226693393234981      1.9471915667958124
   351   4       4.044674088688879      19.913316530289446      4.0683276399814332
   352   2       6.220371366231527      22.185711787509039       6.029129437347045
   353   3      6.0083645015999858       22.40551122446902      4.1123286354089181
   354   3      3.9974730058777506      22.556889599138785      6.0779061882624532
   355   3      5.8872993522509729      20.297753673728359      6.0650095978571104
   356   4      4.4549566269226117      20.206887533385412      8.2246573252221715
   357   1      6.1011134464300927      22.265191515453328      10.068843965716322
   358   3      5.8669856095955177      22.313894689437582      8.0173146896908758
   359   3      4.0042404575184172       22.52350090585384      10.115689398756508
   360   3      5.8895841800867617      20.257298894157781      10.116989549980797
   361   4      7.8079058558525976      12.015286514583527   0.0074532370588991136
   362   2      10.097510027823732       14.17938166420026      1.8940761348160433
   363   3      10.096318081985848      14.377217939277845    0.024689408665431744
   364   3      8.1884424938308076      14.195305369405819      2.2286137334787939
   365   3       10.25370882013751      12.197938664690385      2.0973471084887785
   366   4      7.7087777336184251      12.131834109842552      4.0119857419471581
   367   2      10.043559576910205      14.052651059137327      6.0536270731808992
   368   3      10.383974974659992      14.066038153702596       4.134367428823988
   369   3      8.1699551793708398      14.139447113470487      6.0799854087303462
   370   3      10.292059328827966      12.165938054473466      6.2407631803891253
   371   4      7.5834559881498711      12.261839379322302      8.1605599256924091
   372   2      10.072513276907452      14.198021879620297      10.092041298683784
   373   3      10.137503012462657      14.393546955933486      8.1030437237877049
   374   3      8.1556130765220516      14.080661617727239      10.124275298660679
   375   3      10.367787823788866      12.197406777513885      10.049569892839701
   376   4      7.8185628694723555       16.18803004337525    -0.19257901680756917
   377   1      10.157471888455239      18.134012516398691      2.0129179544501308
   378   3      10.150760479322352       18.21286302760274   -0.021878428940962386
   379   3      8.1068384739113117      18.225535989306497      2.1573451115679285
   380   3      10.148924011666965      16.123685935920371      2.3584806002572729
   381   4      8.1026238587461386      16.244416791293215      3.7359972647394954
   382   2      10.198645208972573      18.105113079588108      6.1083315383459382
   383   3        10.1286542087323      18.469373651476367      4.0883263448527352
   384   3      8.0977289816127218      18.440359976043485      6.0154341773078288
   385   3      10.123145564102694      16.182374134217262      5.8849365048325595
   386   4      7.8158679018886064      15.923818701826507      8.1241257730615395
   387   1      10.159703041637707      18.132089274828392      10.073227042016411
   388   3      10.031054636974687      18.074602747167567      8.0409800885018186
   389   3      8.1163542667768365      18.332325132009231      10.168498545672234
   390   3      10.052824438062601      16.127434696322936      10.373814530737391
   391   4      8.4115796560340996      20.082500772013894   -0.071346160253957638
   392   2      10.141914241710367      22.166176108701318      2.0641029592191948
   393   3      10.093991055195842      22.507193346906053    0.029287494701471312
   394   3      8.1474998679536839      22.448213398948681      1.9815785676694881
   395   3      10.114474200994454      20.259721765750111       1.848577322590945
   396   4      8.2749428242823786      19.941439177092079      3.9711250941448593
   397   1      10.139090555607197      22.192903179605025      6.0570694033062278
   398   3      10.033656835855361       22.16681907981723       4.010444763287957
   399   3      8.0750620141051321      22.271701134261487      6.1555297870375556
   400   3      10.210969351187304      20.181768170842172      6.3182558955712125
   401   4      8.3250037357496645      19.861805684188386      8.1257848421963192
   402   2      10.155866898077539      22.077255192206806      10.157944527182668
   403   3      10.183840522564161      22.495586365497608        8.14830876325769
   404   3      8.1588610861112194      22.252904710493581      10.035132744393511
   405   3      10.249725619319522      20.203090454264203      9.9604414115661211
   406   4     0.04617830619438066      11.851309159922394      12.148505121639245
   407   1      1.9807622002594401       14.23315804269817      14.160842122817083
   408   3      2.0307003495210716      14.185193771516831      12.157961804022458
   409   3   -0.087309298288028581       14.11812499360888      14.172179197221455
   410   3      2.0573876927518504      12.180036578822348      14.394036192536362
   411   4     0.26270530852646118       12.01866714325811       15.92094422026198
   412   2      2.0649672055531672      14.130375684789822      18.108309460913549
   413   3      1.9558307362904992      14.287937582427306      16.262515736998051
   414   3    0.087705708997415449      14.175560051921538      18.466527267512205
   415   3      2.0634604361718973      12.216504800031796      18.303947425212449
   416   4    -0.11448367574653859      12.122723599916418       19.92536029918697
   417   2      1.9213682813310764      14.061766184645034      22.269690624153203
   418   3      2.2125602076482758      14.211259142676504      20.371455201833189
   419   3    0.054502926238435327       14.32550033197032      22.272677986749571
   420   3      2.0478423519662896      12.200339617271764      22.441536558666982
   421   4    -0.23133505771427482      16.190795756287773      12.078621171287294
   422   2      1.9924181807513204      18.177103913764793      14.050476431884656
   423   3      2.0628717440976962       18.37227446887665      12.181397288934441
   424   3    0.090726827230297485      18.383979784340323      14.294108464923957
   425   3      2.0854379026482581      16.296789428879215       14.26287736645016
   426   4    -0.41764784243250852      16.202696822226947      16.318752190266597
   427   2      1.9350610565959345      18.195846938877654      18.187001451600306
   428   3      2.1629935482915843      18.216771174227205       16.31046942927405
   429   3    0.080482678098040286      18.338760922055105      18.252746978762318
   430   3      2.0664371266396886      16.265636131056699      18.466865101567912
   431   4    -0.39285857713040317       15.93243199651566      20.044716809739676
   432   2      1.9751759076970816      18.128142434501161      22.207099677332312
   433   3      2.0691227921430131      18.425650643494485      20.318211413331845
   434   3    0.069806255278479834      18.245000262874626      22.451293530798971
   435   3      2.2222972480567247       16.25629611518125      22.278917511850722
   436   4     -0.2177993818342859      20.241372872388961       11.90898010142288
   437   2      1.9908068907613183      22.202047073645819      14.103664317958593
   438   3      2.1393487829897326      22.223931351271791      12.214920677302617
   439   3    0.099686148196550001      22.250123123230974      14.262995237335614
   440   3      2.1723768389460072      20.293187178105807      14.405461850819998
   441   4     -0.2982527170661608      20.131348741180666      16.148162107885739
   442   2      2.0590314470389024      22.185728757823384      18.135984685928527
   443   3      2.1315981132096211      22.418849616333322       16.27067124340207
   444   3     0.15041334317985744      22.298493002321788      18.328820923173438
   445   3      2.1948895831513964      20.284259438556845      18.267652692332923
   446   4    -0.36173730988716563      20.279408666362428      20.215935224988272
   447   2      2.0112155683872914      22.213956111144633      22.196109966283171
   448   3      2.1437095419483096      22.294524218162973      20.320135628262857
   449   3     0.12541629467077359      22.449816086470857      22.378576185802832
   450   3      2.0323504032843496       20.31911145001348      22.501090277275683
   451   4      4.2999772325289145      11.861442007130744      11.991912838621124
   452   2      5.9772455294127775        14.2171868571819      14.105248320225325
   453   3      6.0161331169711527      14.098403064827966      12.207296318042655
   454   3      4.0827101116396856      14.215385000789651      14.422847199483215
   455   3      6.0894617914867544       12.21760239097933      14.376487652530576
   456   4      3.9594953441431109      12.179295212546698      15.827776604078169
   457   1      6.0797678384613478      14.165519550264603      18.184359641773931
   458   3      6.3838901028362214      14.234922710948709      16.181420609209393
   459   3      4.0200731551341393      14.307307101185797      18.307458897569227
   460   3      6.2175523243404589       12.11803049763301      18.175728409093804
   461   4      3.9271412795601601      11.937346326056941      19.989130783444047
   462   2      5.9845814703304061      14.153087440672548       22.23889229210965
   463   3      6.1099916903302374      14.203698665190135      20.323802229465365
   464   3      4.0963476994545998      14.220187408682033      22.472783699464411
   465   3      6.2822918503782557      12.236220244318853      22.405906796185928
   466   4      4.4180526990849875      16.403287311618829      11.848780408342785
   467   1       6.093498254414647      18.238510539394618      14.162306664825133
   468   3      6.0748877476196581      18.284833446583956      12.143393813771851
   469   3      4.0328169472748669      18.254091618688761      14.359772347714625
   470   3      6.1195094644599193      16.181558491138293      14.256470756835157
   471   4      3.9787899372121935      16.276946830721794      15.846801413129988
   472   2      6.0753387836346118      18.145858788047466      18.232846575760778
   473   3       6.107060502752292      18.197390173002699      16.313903736184248
   474   3      4.1120200223159262      18.235220942399049      18.438701619875889
   475   3      6.1855511215292749      16.250148702708103      18.411466380183544
   476   4      4.0201459412820464      15.965227074027668      20.021368653579241
   477   1      6.0806390001701196      18.176699380924855      22.261277103271787
   478   3      6.1632203293568981      18.452226977225369      20.248314878397636
   479   3      4.0231187775940418      18.478061553457891      22.272584852225513
   480   3      6.1662855212951566      16.142873910880649      22.328761045044061
   481   4      4.2883259204806921      20.027128547378272      11.844739600682303
   482   2      6.1019155965020149      22.299593385717294      14.007724372848203
   483   3      6.0944572186247026      22.235505833839404      12.145083178162311
   484   3      4.0906359813896742      22.295983689267235      14.355977153526927
   485   3      6.0800592974013918       20.31888231655255      14.388393998027759
   486   4      4.1781995245669261      20.095483517965757      15.877647091494433
   487   2       6.121710403945178      22.215934733734795      18.194422874771764
   488   3      6.0315642818731474      22.427748136141311       16.31169538172157
   489   3      4.0833997419102648       22.46326324382369      18.369917023577216
   490   3      6.0407873619648935      20.316829283270302      18.245274339459275
   491   4      4.2105282762202396      19.920299172375302      20.292968124238808
   492   2      6.1262537534307784      22.166843310949265      22.330949003555965
   493   3      6.0250593531053251      22.350110983506625      20.336661194962719
   494   3      4.0733355827053961      22.301497178841895       22.45784063853624
   495   3      6.1897226263561249       20.29061778122124      22.410806896613703
   496   4      7.7934069620045552      11.886125760293162       12.05555616988676
   497   2      10.100851596827992      14.120081460661636      14.064206498630284
   498   3      10.286841095045808      14.044894922014102      12.161666319672808
   499   3      8.1712850299314042      14.210383191620233       14.16270890007462
   500   3      10.203623518140027      12.222800945497651      14.300010789927452
   501   4      7.7462399981792878       12.26206093058275       16.09681558405406
   502   2      10.107907230919743      14.080828284377985      18.107048503538419
   503   3      10.072576912551623      14.328304251651197      16.225076564464036
   504   3      8.2268655096255277      14.244313647180775       18.45439234720272
   505   3      10.175828647328084      12.203417490064151      18.173885010687652
   506   4      7.9484314445169995      11.974264685021616      19.959991152809021
   507   2      10.133412655330657      14.087159617929476      22.154718228549999
   508   3      10.341016629546836      14.157856840521555       20.27937899441336
   509   3      8.2064267804187825      14.377196372452875      22.223269498580503
   510   3      10.094692003758349      12.216467747800454      22.495884637559239
   511   4      7.9412524860609031      16.456874858686792      11.724950796949928
   512   2      10.113225515958376      18.203586802161578      14.035109139694997
   513   3      10.121873414352834      18.330370621993133      12.175179624830472
   514   3      8.1649730674005188      18.245773740052993      14.354259388655292
   515   3      10.182488839087755      16.201537155599141      14.201359268325257
   516   4        7.87804223809355      16.145929726185546      15.940842289395269
   517   2      10.102955540738698      18.104980869455407      18.197468252735703
   518   3      10.197791726589063      18.140704878169895      16.316676492683598
   519   3       8.155588648971273      18.313453556635814      18.338702542947463
   520   3      10.177462545329309      16.233327547597558      18.455743360221369
   521   4      7.8864230535812423      15.988741511693021      20.206226639814723
   522   2      10.149646054554433      18.129041230098935      22.366084677682711
   523   3      10.180186443858201      18.476235875656077      20.278791738852441
   524   3       8.184916085457445      18.163166538664846      22.243349832087809
   525   3      10.356691609322041      16.220554741118736      22.208338053261745
   526   4      7.8171068912768655      19.962369131987931      11.764663378462661
   527   1      10.117564637487934      22.206951840637192      14.116553715962711
   528   3      10.026506175576637      22.270090158903518      12.096688831630301
   529   3      8.0428380402481441      22.255002870927935      14.373651771243269
   530   3      10.134665019342453      20.183011296184183      14.459619371753105
   531   4      8.1120853997745535      20.198261329318175      15.823049138751307
   532   2      10.200949561795074      22.162115135236672      18.256959664610367
   533   3      10.085576339065835      22.510985912827987      16.308165795872835
   534   3       8.053055941252353      22.390290066998773       18.28945832701422
   535   3      10.172313428104966       20.26623779008721      18.187615428816471
   536   4      8.1983736319602638      19.952908998580011      20.467626990951072
   537   1      10.133273095590132      22.219434142524076      22.270978705227353
   538   3      9.9759336108360017      22.297818106445078      20.216673511922192
   539   3      8.0458670938755663      22.502205384202117      22.321974971105952
   540   3      9.9324619242478445      20.212170516541573      22.389294069761366
   541   4      12.076110613618564    -0.31809344625440661   -0.011282712567181543
   542   2       14.14620696855591      2.0310074000948064      1.8842162485808214
   543   3      14.140985578633046      1.8827657039757473   -0.008231561057516084
   544   3      12.166664221531517      2.0346206951487287       2.251251144788935
   545   3      14.135025783494447    0.048851898810605365       2.260091869700894
   546   4      12.103922586984233   -0.034006237048007766      3.6782687833256507
   547   1      14.157095508520184       1.985376860143198      6.0410914802729625
   548   3       14.34965630458913       2.155422941108923      4.0369789448726809
   549   3      12.120164438060428       2.055042929204332      6.0580146676151188
   550   3      14.421489290076719   -0.045212210347864115      5.9432299474326014
   551   4      12.168294628664563    -0.38741509580081512       8.064014421062291
   552   2      14.256916205166331      1.9918698430454627      10.008580433119901
   553   3      14.090504096657989      1.9037805467939604      8.1112000336675845
   554   3      12.176253563177005      1.9275391534799369       10.32425909098877
   555   3       14.23751504658361    0.050487559439242692      10.417166238932065
   556   4      11.878765378920081      4.2630915567659251     0.36707012645279857
   557   1      14.154535444512252      6.0837838914285101      2.0114179830198533
   558   3      14.172932402544578      6.1395534854010752   -0.077361593045829236
   559   3      12.130294948749178      6.1895886987977642      2.0047588254349304
   560   3      14.114240874159718      4.0294845511257664      1.8684981450370481
   561   4       11.95090842019016      3.8533122530896091      3.7957178375660008
   562   2      14.129737794037514      5.9783980879649627      6.0388130366539619
   563   3      14.223894531220022      6.0853147918726611      4.1244872733052196
   564   3      12.158061909827317      6.2893898924951745      6.1312510358263435
   565   3       14.09811333852895      4.0947495678631736      6.3455703274563113
   566   4      12.306671387656948      3.7977697364065515      8.0936469162244435
   567   1      14.156605374333997      6.0477532982800506      10.129206946265175
   568   3      14.087968498818102      6.3853381873774824      8.0788542946745103
   569   3      12.086717434459905      6.3264914033487418      10.132939918582176
   570   3      13.895180400359981      3.9950706373396159      10.001168059963605
   571   4      11.917757746548862       7.812428251787483     0.22012095320297204
   572   2      14.065216849223075      10.115235691153785      1.9808479573964821
   573   3      14.258554705982297      9.9972434015279319    0.079058014158667742
   574   3      12.181213441884143      10.182361004794352      2.1702130140621101
   575   3      14.205632151461405      8.1767979908049533      2.3033046736513079
   576   4      12.043143388969266      7.7466977383614219      3.8125229978398223
   577   2      14.040413743565946       10.17475371651793      6.0488163492453708
   578   3      14.295026901716508      10.296654991019158        4.12665257266484
   579   3      12.172967893021223      10.094256941985897      6.0866957310268708
   580   3      14.389922587191824      8.1701268301940004      5.9952461480228854
   581   4      12.138143193792407      7.7981515956993714      8.1434244056502596
   582   2      14.179475777093996      10.013070410328705      10.103014484753949
   583   3       14.17787545065025       9.913029885926786      8.1240024300565796
   584   3      12.193604090811922      10.155358446050798      10.279262576404468
   585   3      14.313072682116875      8.1472880529521312      10.326408651915399
   586   4      16.032619659638041    -0.18858710011561167   -0.018844354635247827
   587   1      18.175497843379166      2.0428448637226411       2.013785722905967
   588   3      18.458222742186766       2.010980722525205   -0.042058355367858541
   589   3      16.143487966330891      2.0918673974220612      2.0516447002156162
   590   3      18.423117177205079   0.0058900403810741419      2.1039934791009349
   591   4      15.830565046205777     0.14610957845204414      3.9585925616352653
   592   2      18.210099267398558        1.89815973538853      6.1311412288316101
   593   3      18.140016207756101      2.2590817705549955      4.0898125750448537
   594   3      16.242422171958371      2.2535464409718764      6.1530128386324403
   595   3      18.133492583585305   0.0036376315966693373       5.920883666793471
   596   4      15.925314491317664    -0.28467416509301979      7.8464806204619411
   597   1      18.186558398042848      1.9785948846616004      10.099752319063198
   598   3      18.434556408788239      1.9988347849903627      8.0746891970590902
   599   3      16.169812831652145      2.2311698400240618      10.147610749908068
   600   3      18.261581944044298   -0.043266362938006113      10.256562544060849
   601   4      15.782681065215082      4.1412141255320671   -0.026151139398831364
   602   2      18.074614217216325      6.0572615253089861      2.0339236641067608
   603   3      18.379159130014656      6.1607854444732109    0.052459565507879446
   604   3      16.206171940946419      6.1295307845766578      2.0365186157043129
   605   3      18.370328002379289      4.1375978873400499      1.9516079090720031
   606   4      16.096694186079549       3.690027306525463      3.9533886894794592
   607   1      18.179640205467248      6.0855992810161998      6.0677648301215319
   608   3      18.370190683566623      6.0493703319960552      4.0111324539547377
   609   3      16.133728834279868      6.0300043176919296      6.3038097899004768
   610   3      18.379806816771087       4.061916547225251       6.245884158748054
   611   4       16.20460277212398      3.9914750454420949      7.7609811561743181
   612   2      18.068664652680575       6.007912887465916      10.046624049603313
   613   3      18.403834977086085      6.2145568135683655      8.1630476596135129
   614   3      16.213653103964507      5.9196904877741314      9.9975450393494611
   615   3      18.542397036200779      4.0930696304226348      10.052488712167053
   616   4      16.048477124876054       8.344326956690578    -0.36356010438140063
   617   2      18.109480834591832      10.153185717951104      1.9577027841748496
   618   3      18.218926625318499      9.9005604575093926    0.084425352696214859
   619   3      16.231261718054064      10.037345496693105      2.1596811364813338
   620   3      18.334595711689559      8.1007510312482083      2.1912636030162571
   621   4      15.903147416841591      7.9649976517179031      3.9432812150360261
   622   2      18.072763762476878      10.130062392006041      6.0746518275429837
   623   3      18.406951304454807      10.169388231377621      4.0803289529614259
   624   3      16.215632732400536      10.212716787861554      6.1540849957697805
   625   3      18.307551309779701      8.1587945445838681      6.0388305908986784
   626   4      15.912565547907299      7.8762705998574027       7.947798965942888
   627   1       18.18934264100848      10.062782652914169      10.052288157540938
   628   3      18.446123758422775      10.051457696612259      8.0279363088796121
   629   3      16.159754969479668      10.342372742141565      10.140336972477648
   630   3      18.203977971379885      8.0006789747681779      10.380971242030718
   631   4      19.916597711106306  -0.0029219432005822242    0.068527241027062938
   632   2      22.195354524807719      1.9938822017061155      2.0735612258309692
   633   3      22.358190878987774       2.202804296120275    0.050805974811086202
   634   3      20.328767591801757      2.0889020500920261      2.1438157154192679
   635   3      22.410272266283577    0.072623101885752814      1.9912521107451642
   636   4      19.926735430426564    0.013405295623702853      4.1095032261458675
   637   1       22.22292243216728      1.9957660842973635      6.0435630791339889
   638   3      22.565003720854694      2.0377821424485556      3.9823840808078446
   639   3      20.190414889760863      1.9684195921034009      5.8545720837916573
   640   3      22.605848462769963   -0.020993005155108282      6.0347172317031506
   641   4      20.046250322956631    -0.27856912335996015      8.2533614381138456
   642   2      22.260945681121299      1.9448376947552501      10.015612407188341
   643   3      22.289020320413904      2.0259698907290589      8.1240019627568483
   644   3       20.34566902137114      1.9383719453258357      10.401086868283961
   645   3       22.53339525259528    0.042374874249883399        10.1943951641908
   646   4      19.919607965457153      3.9736284641826316    0.042194982306004838
   647   2       22.20196222466722      6.0439520711848775      2.0620325966554223
   648   3      22.446525891077016        6.13890560809938     0.07786829889583885
   649   3      20.334531117457594      6.1800238535616518      2.0399708209142715
   650   3      22.365832389330006      4.1181032890647389      2.0634705793227588
   651   4      19.845719544035024      3.9275697803202889      4.1774736199511358
   652   2      22.202934283039472      5.9603918863629239      6.1068658273735901
   653   3      22.378677878736578      6.2092561906666113      4.0539367154025152
   654   3      20.338534235908035      6.2756426939873515      6.0813279893629737
   655   3      22.234224357017517       4.093985811084571       5.995822833342217
   656   4      19.956815372579189      3.9274403908309901      7.9975688481917144
   657   2      22.217562545504084      6.0689613898959331      10.237210413422455
   658   3      22.377630261347019      6.1433964796538829      8.0462351437646831
   659   3       20.30861581167704      6.2276662616008558      10.241035207363527
   660   3      22.188876617009317      4.0592636996053271      10.142398788778561
   661   4      19.969977798317633      8.1401840938884522    -0.12606259022484431
   662   2       22.18509295514885      10.099569889165625      2.1088432592272683
   663   3       22.47489650117722      10.057024470045317    0.030264146917057852
   664   3      20.296753261003655      10.041618387904141      2.0101318013035572
   665   3       22.49885365493753       8.134896708357493      2.0217254787659247
   666   4      19.898422116693713      7.9733547129698916      4.1384338906069891
   667   2      22.260407762730797      10.067478208437285      6.1974119635793654
   668   3      22.429042661807642      10.225517382993274      4.0257663696550825
   669   3      20.360573122209583      10.001168034137672      6.0494926329291534
   670   3      22.554924586193739      8.1498051474841162      6.0300438270941008
   671   4      19.945706972727621      8.1058230325616787      8.0057344570665432
   672   1      22.295904862641926      10.085622057438339      10.132518582353525
   673   3      22.430915505621719      10.133842060675196      8.0814895529285184
   674   3      20.266046717160485      10.004101196802399      10.299466494213114
   675   3      22.501261917188412      8.0193898309704732      10.080863382871682
   676   4      12.073386589119872   -0.032508256004814981      11.744982133557729
   677   1      14.139794684364501      1.9871249356600378      14.185643148800049
   678   3      14.268179472265514      2.2886255293175424      12.154376369119563
   679   3      12.079521694130458      2.0698331281460831      14.173189432349634
   680   3      14.375416914455226   -0.031426344629786829      14.028303144288136
   681   4      12.128489556888841    -0.31477518592069603      16.114959107359315
   682   2      14.248669667057525      1.9665272612288396      18.156222166150581
   683   3      14.002810186928942      1.8298630175238284      16.258796359427762
   684   3      12.060915631907978       2.111470119193589      18.404696654304434
   685   3      14.168937145492519    0.097682008127226716      18.573233344222366
   686   4      12.258492269647489    -0.15933317968239974      20.407769643705869
   687   1       14.08292672997058      2.0446254242026032       22.25674791111981
   688   3      14.165931717846039      2.4354310665066357      20.179780299677553
   689   3      12.048242102618419      2.1664554724462457      22.039454349046775
   690   3      14.120528417820136    0.026206606768938261      21.919953486100631
   691   4      12.366276835219434      3.7367084891120985      11.918629558415054
   692   2      14.152442403515098         5.9572035484332      14.056858302770502
   693   3      14.193027504733886      5.8558879552600187      12.192475004953684
   694   3      12.204722504212931      6.2304947802882547      14.207026361099858
   695   3      14.090279745018323       4.087141293368445      14.493104062592804
   696   4      12.135252168460685      3.8605146642200898      15.923642590673303
   697   2      14.242131753207188      6.0706758276721056      18.142906755997814
   698   3      13.999357762096743      6.3430763028030022      16.233696114939775
   699   3      12.087307658960762      6.1457583224783647      18.377220192584527
   700   3      13.995962240051171      4.0989216778305035      18.019937871057017
   701   4      12.225871787341047      3.8509074585136629      20.190452562754224
   702   2      13.974187378888097      6.0732552042686656      22.280238201316212
   703   3       14.26849787097515      5.8283526090734092      20.249907203983007
   704   3      12.094651400210591      6.0572692103755363      22.215470205940019
   705   3      14.369342507961749      4.1150606010685751      22.363963421650443
   706   4      11.947921827695117      7.8191770022685771      12.064943815731908
   707   2      14.170299591973547      10.017393371923893      14.157842022115416
   708   3      14.267058380170324      10.423562587163467      12.153113055928708
   709   3      12.209868146977804      10.283803699260242      14.062236027170043
   710   3      14.232895642871192      8.1251667390853672      14.043430498468345
   711   4      11.989030077790378      7.8934661268759294      15.993996284811114
   712   1      14.158683467653125      10.035093935490066      18.161502633968741
   713   3      14.125548291343877      10.153682947704658      16.108336943959188
   714   3      12.128894297601848      10.146586780098744      18.333294601161505
   715   3      14.116596034343022      8.0159551172447046      18.502595516838554
   716   4      12.092356398263641       8.218833035484904      19.825225720982129
   717   1      14.060136310356279      10.060463273468418      22.286814138658674
   718   3      14.248954740021263      10.223681824461094      20.244233431400133
   719   3      12.065539615492352      10.363968381980618      22.295780503505771
   720   3       14.26511913236742      8.0089339725816462      22.132998004958708
   721   4      15.861536533083083    -0.12062491840276186      12.121579823534583
   722   2      18.128490504218391      1.8813640512973682       14.14883128093067
   723   3      18.186379180241381      2.3238649822902686      12.220315102691211
   724   3      16.241674039894988      2.2028449253877618      14.310672704541906
   725   3      18.146336564282173    0.024576623868143833      14.040732965928443
   726   4      15.894933345302302    -0.22614143141510973      15.964399347360031
   727   1      18.127963502431555      2.0645257991746453      18.220203081419228
   728   3      18.507635148651733      2.0079738825516187       16.12511263707777
   729   3      16.124545816927899      2.2105978197548515       18.14231245616438
   730   3      18.335047453641046   0.0021096168414826643      18.319834594721279
   731   4      15.899547788489482    -0.14713265106044457      20.374666643515827
   732   2      18.076483352953151      2.0286288898444713      22.298837694470347
   733   3      18.354001048722715      2.1550915370751995       20.32562973424151
   734   3      16.212728826920152      2.0666914280941211      22.251604061664711
   735   3       18.34902749501628     0.11126918681262726      22.237471623513844
   736   4      16.141999650028964      3.7596660120580445      12.063528035511796
   737   2      18.412262040929754      6.0455677424113627      14.111138126301887
   738   3      18.088132713503548      5.9008954113015237      12.167688839383072
   739   3       16.12062463264628      6.0226953849005325      14.453443398046128
   740   3      18.255067095292748      4.0968367700338613      14.428832583816064
   741   4      16.237644985440511      3.9902884983830127      16.067443199408928
   742   1        18.1728634424158      6.0653953115754096      18.246504128077049
   743   3      18.292051509774716      6.2949516037335389      16.155377545290207
   744   3       16.13610078010943      6.0314143603718611      18.038060792578445
   745   3      18.475397726863456      4.0739897560455987      18.107353783409156
   746   4      15.908370991970514      3.9602674637054238      20.331290073513745
   747   2      18.135799164306803      6.0868122574883579      22.177858324232446
   748   3      18.338813204837578       6.007000483488615      20.304804656449733
   749   3      16.250095606829991      6.0849978290405389      22.340463438395879
   750   3      18.299761713051065       4.077003307795378      22.458166216399132
   751   4      16.538995595451382      8.2371360893171808       12.14599241187431
   752   1       18.23092950344785      10.067514471103081       14.19597577130313
   753   3       18.11636027153552      10.195483013926768      12.164665322887549
   754   3      16.150656902155269       10.29675984639416      14.217062749270243
   755   3       18.01579206901577      8.0256296947857173      14.071801664968511
   756   4      16.377428259725495      7.8116365770829663      16.082067282007976
   757   2      18.076097074997286      10.165999744895327      18.285082561651361
   758   3      18.427030340300291      10.052041702077982      16.246746035753066
   759   3      16.211264319181556      10.152840229840796      18.128987607617137
   760   3      18.391594517838609      8.1454196933200027       18.22389356455092
   761   4      15.830525759829195      8.3799267330639982      20.342350252623621
   762   1      18.227911714930347      10.127763864029669       22.26786399666565
   763   3      18.309267486278234      10.057919945158901      20.201940496421624
   764   3      16.195465471484631       9.958294933937939      22.212222290027739
   765   3      18.385413746152032      8.0077181160710627      22.319315904301281
   766   4      20.070164191524565     -0.2113637670413879      11.876502681289564
   767   2      22.201782094460178        2.08985393434748      14.170436051153898
   768   3      22.563085855571615      2.0492477341800903      12.199322885103516
   769   3      20.295348158237566      1.9944043012373378      14.004224434953654
   770   3      22.448139723260216   -0.041948291085691911      14.195551460766485
   771   4      20.170746405815848     0.35093283751133597      16.507999156980834
   772   1       22.33142055648193      2.0513135447846169      18.211367414059531
   773   3      22.226687817633668       1.830707458022794      16.149518785173843
   774   3      20.313971639202592      1.9281930643557916      18.317263516819374
   775   3       22.51776962577906   -0.034598569276237209      18.269364764575798
   776   4      19.994240997066626     0.28258502220741011      20.045201915585299
   777   2      22.226760930757866      2.0090255279144129      22.254357101001045
   778   3      22.546654709320133       2.063636200149594        20.3630309584183
   779   3      20.354286942729999       2.166937976238791      22.247570326833596
   780   3       22.42110522270988     0.11385501839120679      22.402481977899122
   781   4      20.045221785332174      3.8181526723853048      11.927464964234298
   782   1      22.265358980650987      6.0342823271702004      14.163574766628765
   783   3       22.51685883896608      6.0486543403392119      12.110591865217073
   784   3      20.254523713222707      6.1404113548598644      14.097834347292194
   785   3      22.430595082905811      3.9722039672017986       14.25363132234326
   786   4      19.943284517857403      3.9457704464087264      16.387493883653171
   787   2      22.241219056138888      6.0247838649823171      18.147758587769285
   788   3      22.412692863205454        6.14201478455883      16.272458275832559
   789   3      20.357162576019117      6.2112125398181544      18.262254216409591
   790   3      22.341745604944329      4.1211109691371508       18.37165936230463
   791   4       19.95889802636027      3.9107414655468213      19.891313363898817
   792   2      22.203380158968784      6.0638145111233399      22.217507786122052
   793   3      22.383369633453974      6.1458295501708857      20.336838327083949
   794   3      20.326187320452856      6.0275538768156451      22.398093674283768
   795   3       22.51514207524605      4.1207592901638366      22.374804507525777
   796   4      20.122012026927642      8.3027347926491135      11.814430842248285
   797   2      22.199524719581252      10.018960708713946      14.062131645187883
   798   3      22.395402901904308      10.206741242627254      12.188826105127388
   799   3      20.305584441274107      10.117351879659141      14.187183681862006
   800   3      22.485177287024189      8.1545934838824916      14.206694704986429
   801   4      19.930771241203121      8.0326774766033644      16.351379526500125
   802   2      22.325311031543194      10.095256937000427      18.087098493717829
   803   3      22.360888855344836      10.201822841141061      16.199877129609153
   804   3      20.374415302263145      10.030566460934798       18.27942474874191
   805   3      22.470106643824231       8.115544180842635      18.348773735274996
   806   4      19.928556308707691      8.1936993060015162      20.095327768489533
   807   2      22.141932234436037      10.146277427236946      22.224620586322665
   808   3      22.318299844243018      10.069903705204373      20.334264032176559
   809   3       20.28432141031746      10.034170444657702      22.406957406147345
   810   3      22.367803746591978      8.0754788216593187      22.447066211645318
   811   4      12.250841572206681       12.08693014391239     -0.4135720409254105
   812   1      14.193708492573711      14.156179375398393      2.0658075870312698
   813   3      14.352566846927783      14.317248112395456    0.038475219882648105
   814   3      12.133726186095492       14.25110743610731       2.056544788656641
   815   3      14.359743472300144      12.070241342110291      1.9862957870635054
   816   4      12.081264598273155      12.281479659944379      3.8488077341179516
   817   2      14.228772887102082      14.258649352371645      6.0699788689347658
   818   3      14.042648680254326      13.839848497581917      4.1121494213242515
   819   3      12.181310863059371      14.289543006867172      6.2512003042515065
   820   3      14.145920779902315      12.122419321197803      6.3505339131782277
   821   4       12.30555518930108      12.265796697355901      8.2533048946697267
   822   1      14.173166944475856      14.143876146735947      10.127264446290468
   823   3      14.246980651874381      14.396784437058306      8.0437565462517195
   824   3      12.142897976700455      14.385517906231145      9.9823899135834075
   825   3      14.118642208111027      12.123381921589484      9.8157821977555688
   826   4      12.401238982237198      15.774449583472917   -0.037600655193099762
   827   2      14.212054781065476      18.146260183179958      2.0895560853668087
   828   3      14.080617089220194      18.145768234068115 -0.00083284415234590641
   829   3      12.201033146059839      18.361937151418605      2.0946914938355117
   830   3      14.182909870376863      16.239542947779903      2.2270474496195436
   831   4       12.06732943967825      15.988944273361801      3.8509962162232569
   832   1      14.193123103365194      18.159649934500699      6.0362565490613225
   833   3      14.232075600600568      18.535357528059969      4.0035537849211495
   834   3      12.133509975227023       18.27830118327293      6.0061667687788214
   835   3      14.280738947810505      16.151277941344546      5.7445590189375331
   836   4      12.239350038719198      15.944614815354308      8.1169246113566569
   837   2      14.226882682532104      18.196750901176308      9.9356354839590999
   838   3       14.16486184140892      18.071847812203917      8.0654224632631273
   839   3      12.200000598762431      18.070098696221613      10.275144404400427
   840   3      14.255516911359111      16.237710262720061      10.343211822014784
   841   4      12.271783358198842      20.016800919582138     0.25174118663097089
   842   1        14.1525413890745      22.246421716640988      1.9892059827949791
   843   3      14.136365518765915      22.680208250404679   -0.063185392478761343
   844   3      12.107149899942174      22.429356923954508      1.9562644979071726
   845   3      14.160538614695124      20.245629976045976      1.6886169376138025
   846   4       12.11101579460488      19.896508536419724      4.0331663582196953
   847   2      14.110034625433126      22.242508060856366      5.8989112422686061
   848   3      14.234046017243303      22.161498678913865      4.0275159904268234
   849   3      12.186181494635669      22.341925955389375      6.1662291677487246
   850   3      14.104953774403143      20.289767712308542       6.316065149570993
   851   4      12.135112144555148      20.151726524011178      7.7732430006199014
   852   1      14.130775189205368      22.220268107818999      10.080339970717235
   853   3      14.122440609838707      22.568002336834645      8.0800835253874066
   854   3      12.106817285118655      22.511534372392806      10.136943895174527
   855   3      14.023943899689669      20.187986261409197      10.063657982516666
   856   4      15.825558126404928      12.274991829822309    -0.10414487059927231
   857   2       18.21662763117617      14.313598028515646      2.0513730755135331
   858   3      17.968851913293534       14.27562022875914    0.047457121631595371
   859   3      16.262591223023566       14.13318889777387      2.3169693440875463
   860   3      18.319576599261943      12.073005152415748      2.0292585776703884
   861   4      15.970237425765339      12.338281199374856      3.9183569035672634
   862   1      18.207870157741468      14.111864800632587      6.0678805518287673
   863   3      18.530201118428966      14.043480137292299      4.0130002427503113
   864   3      16.179599448662835      14.133071337178777      5.8414377006895517
   865   3      18.529340927684981      12.075167074127672      6.1130992971786249
   866   4      16.147357778284022      12.272077592908866      8.5366539786134723
   867   1      18.235864317720985      14.140503061948211      10.140391224429882
   868   3      18.263664479465348      14.352216849478767      8.0816344281985995
   869   3      16.201532224202371      14.197642153352614      10.064757766833038
   870   3       18.38129415830813      12.138545116967451      10.028567493261729
   871   4      16.081992657330272      15.845398037904944    -0.10759648578562639
   872   1      18.216390972079811      18.199689467525424      2.0021929600350474
   873   3      18.345199339864276      18.341996929217956   -0.074326070934189928
   874   3      16.170831667963725      18.400425428225773      1.9694497039221479
   875   3      18.270063883094714       16.18640235865827       2.231638178413665
   876   4      16.219925377895969      16.105625480187694      4.2088979149570909
   877   2      18.216928207866484      18.178013068135339      6.1518854370523952
   878   3        18.1506960768581      18.540105314266405      4.0402586368861906
   879   3      16.248288825919175      18.471731167962297      6.0090098025083458
   880   3      18.129726606221169      16.243617440167132      5.7829370259881463
   881   4      16.437432214253693      15.821486821476654       8.340010514192608
   882   1      18.187854969604864       18.23866069877154      10.109910292892039
   883   3      18.338681668098594      18.159527408132469       8.063906048145224
   884   3       16.15637106471176       18.32623832017266      10.246598382657087
   885   3      18.135574624565429      16.217339911925993      10.289693523323974
   886   4      16.151376866654662      20.112147899331251     0.26435839079478085
   887   2      18.090212663674567      22.329160592498585      2.1160203894253908
   888   3      18.251985869962681      22.589166116893175   -0.019029593722946291
   889   3      16.212217160342018      22.385266037246605      1.8777571581195094
   890   3      18.272722623274539       20.40469711075659      1.7721106168176282
   891   4      16.226245092776672      19.960303346935898      4.0509327035470726
   892   1      18.161786707079404      22.254768736292114      6.0517212583949664
   893   3      18.312671704440731      22.193318904154044      3.9976789369295038
   894   3      16.144295318942209      22.133873494183927      6.3058050722596537
   895   3      18.429315163917511      20.239030295604259      6.2083735240685982
   896   4       16.01823789007582      20.242352540557654      7.7627718347918266
   897   2      18.040988960754937      22.283381802081763      10.144298352280344
   898   3      18.406674915905651      22.343186637858889      8.1446170421070594
   899   3      16.173643707253799      22.222226313692101      10.087801417441231
   900   3      18.482688935062498       20.30642900681072      10.039416749139795
   901   4       20.42511803675411      12.359187879717044    0.087337260074416764
   902   1      22.249332523746819      14.148027522694914      2.0700580804236894
   903   3      22.315048028513786       14.25135668590965   -0.014681611137920977
   904   3      20.186497247547358      14.123194844514311      1.7111134372094525
   905   3      22.244630642256741      12.073907458385525      1.8024722386561953
   906   4      19.970037388273543      12.153395012988613      4.1287367624598135
   907   2      22.213332934924939      14.124439864707801       5.970526397251418
   908   3      22.128104990117492      14.188786566559003      4.0902028450324162
   909   3      20.315795187279623      14.425023834693013      6.1827701532471915
   910   3      22.199016953525518      12.184247801160501      6.1304568343806567
   911   4      19.844663772227925       12.06150982917775      8.1908641297660605
   912   2      22.280910747016456      14.058273720052281      10.114043778772649
   913   3      22.378110544078758      14.349400748218914      8.1566945887557463
   914   3      20.345205215887894      14.472251140253771      10.107717322990451
   915   3      22.147246502363341       12.21586670255555      10.151139018703896
   916   4      20.436886222790566      15.844736847417622   -0.060330106671084342
   917   2      22.160479612814729      18.128466673177488      2.0360655922028941
   918   3      22.285901636292067      18.432392151129882    0.019741172255071125
   919   3      20.287668128089912      18.442663865491895      2.0398678326987976
   920   3      22.237817797638293      16.259124366596563       1.931636718428303
   921   4      20.086668047990372      16.089994287094914      4.2686665216042519
   922   1      22.193310262646765      18.195455782114006      6.0614165003332765
   923   3      22.422396479704759      18.299166165351345      3.9536334942602758
   924   3      20.196807103483163      18.139068665174538      5.8181404936521552
   925   3      22.541709212125603      16.168435210688919      6.0861496519105822
   926   4      19.982841760194827      15.905935153399927       8.167614375177175
   927   2      22.156920800067436      18.289521304504461      10.050705947359287
   928   3      22.416019278838235      18.257515997577134      8.1395487760160172
   929   3      20.302298696922861      18.112451042502201       10.23501374205196
   930   3      22.591481081612436      16.316304965048968      10.175469956526042
   931   4       19.98560329770466      20.068367875362508     0.11032802202006911
   932   2      22.215663475074635      22.199731286573069      2.0075717042073005
   933   3      22.487492009072074      22.338253252155152    0.079720388680630333
   934   3      20.330174417056934       22.35644690759792      1.9736168103065974
   935   3      22.397298694165546      20.318624753593291      2.0438078233283492
   936   4      19.965000641411745      20.008986502993139      4.1812922804095392
   937   2      22.143983863768877      22.266162876992684      6.0856704784906155
   938   3      22.391229705532641      22.441960735335361       4.027573120397725
   939   3      20.281775044611134       22.48368299621324      6.0492810443413667
   940   3       22.30471486531183      20.331958766622055       6.008241853671616
   941   4      19.874212198152691      20.318831816647986       8.108981040497456
   942   1        22.2917296342629      22.232275230982584      10.083881268165284
   943   3      22.364732615898347       22.40776790251974      8.0238822416290958
   944   3      20.285473475798554      22.492748693429956      10.135244587458628
   945   3      22.247028704203796      20.213082582070175      10.261228251621754
   946   4      12.082163790005627      11.908397687258496      12.078950264487936
   947   2      14.152058213654771      14.163817856843975      14.030712960655494
   948   3      14.152763860005402      14.086378134964322      12.174878446953317
   949   3      12.163872844240695      14.215394144895539      14.343649292462297
   950   3      14.234760053168115      12.232223901681733      14.389256013219686
   951   4      12.091017406242591      11.710472220664579      16.279107354976457
   952   2      14.192072159796943      14.026019916158175      18.200669587689319
   953   3      14.242890625107233      14.408907766033456       16.27332210445908
   954   3      12.175615956001472      14.359520632342594      18.227216258874904
   955   3      14.146575417962351      12.164614150653259      18.110096534385299
   956   4      12.250682062083623      11.693633936203074      20.051180856253932
   957   1      14.164424481857525      14.150610977443161      22.229454492736963
   958   3      14.155649543253466       14.23724451422618      20.201069065781464
   959   3      12.129229534247534      14.140070680442145      22.543887592053263
   960   3      14.313392834778465      12.136758762321476      22.440424953475979
   961   4      12.278848467307597      16.206528073652258      11.792002270901182
   962   1      14.164085948245608      18.164154178943065      14.142763129742582
   963   3      14.135670299077224      18.478777981360128      12.156976165732287
   964   3       12.09404527615942      18.270549497413757      14.331145016357645
   965   3      14.101035768935793      16.133665037389665       14.20187667856715
   966   4      12.294318205007773      16.159253937986698      15.863960590272242
   967   2       14.17652000738299      18.273443581372216      18.098699730023636
   968   3      14.142765795444665      18.137277864918094      16.249320978557154
   969   3      12.169414418495059      18.297557734796662      18.439508278228125
   970   3      14.177835801762061      16.327772867308123      18.488409375538534
   971   4      12.284740714421911       15.94757042185133      20.078672696717479
   972   2      14.162795466054847      18.147303871206436      22.275366906395547
   973   3       14.22033908777407      18.509561559456028      20.370185334542157
   974   3      12.191968562710629      18.476437995757387      22.228994383959613
   975   3      14.081622578885158       16.26814608021963      22.240266995912389
   976   4       12.31408300768191       19.91818788815355      11.862253188180487
   977   2      14.068042811855539      22.239569858403428      14.078118357163451
   978   3      14.251240170420127      22.165938298239144      12.173184147875359
   979   3      12.144767692203807      22.350119595301553      14.295619358054863
   980   3      14.108385626790565      20.303946873930677      14.431091282324346
   981   4      12.101631118816128      20.126697372292245      15.859215005788766
   982   1      14.117699925752483      22.276838315598514      18.223063875413839
   983   3      14.096915703248834      22.615543131622125      16.200624533498978
   984   3      12.082838292405157      22.440531300723489       18.29879666286342
   985   3      14.217365168300349      20.225735937663277      18.254610830147662
   986   4      12.093692054408439      20.030632347592103      20.217195791329711
   987   2      14.133248727737884      22.202522288901395      22.293255751306845
   988   3      14.328713688698459      22.173981786935109      20.318688269912705
   989   3      12.193525062963623      22.379052993882699      22.249351849890353
   990   3      14.277059170169773      20.305603498769649      22.552032194361349
   991   4      16.378774022441334      11.829506516378251      12.074371356111135
   992   2      18.261396001536582      14.094471271613616      14.170249638539204
   993   3      18.273769447842216      14.177308494414346      12.233078117665217
   994   3      16.213990743067804      14.237759866186263      14.302245932796316
   995   3      18.289455142911642      12.204673880337616      14.374541167476906
   996   4      16.021391257044286      11.859450931225956      16.048165306232967
   997   1      18.174882440496969      14.108263020891536      18.223962319876591
   998   3      18.213252356878851      14.412474409128313       16.18000505442345
   999   3      16.141141752281662      14.351981292193507      18.252497070294172
  1000   3      18.460039552373157      12.078263782681383      18.137072063794779
  1001   4      15.877783727490664      11.812214175367082      20.651369395015688
  1002   2      18.215113713992451      13.995366626398646      22.196938093191193
  1003   3      18.303757992544181      14.173701583436108      20.305144103649823
  1004   3        16.2435546232701      14.410710329178672      22.261625300282077
  1005   3      18.088329988226842      12.149791519711318      22.380854278016859
  1006   4      16.257017621103504      15.965760630161963        11.7570639164125
  1007   2      18.086367934809466       18.22279759575482        14.0852824028649
  1008   3      18.269461725704907      18.470548625329528      12.212632760119611
  1009   3      16.205080065372215      18.422583352772836      14.228786814884073
  1010   3      18.170666458202586      16.290330811778098      14.134625110343141
  1011   4       16.23322887558847      15.876350107972854      16.145723197989451
  1012   2      18.239470038862155      18.138020811420532      18.197009604768429
  1013   3      18.247575226793735      18.262207892867437      16.285775048246322
  1014   3      16.201238356039266      18.331253480601461      18.373489841829297
  1015   3      18.173922794087392      16.276443396972343      18.377239255294327
  1016   4      16.133827330950353      15.835032832897822      20.124760963289898
  1017   2       18.14257441261374      18.103792381548679       22.30313157118124
  1018   3      18.193727276426031      18.508147147415382      20.335555469142065
  1019   3      16.187672944381806       18.25612703110059      22.378077247783448
  1020   3      18.303943910502742      16.255475652878406      22.251094529517694
  1021   4      15.929310817969293      19.982855405987774       11.99178976744936
  1022   1      18.188074409422271      22.278879791088936      14.164738755785159
  1023   3      18.353027394494276       22.14796439660196      12.101976249373239
  1024   3      16.135385795486322      22.215901498686367      14.411790580530498
  1025   3      18.295676075240152      20.218788743068266       14.42445106029521
  1026   4      16.109047052310462      20.318523219308272      15.865495040265772
  1027   2      18.065833264687807       22.36213204832157      18.152656640459156
  1028   3      18.354931396849516       22.30341778655821      16.273684071484116
  1029   3      16.192901939114989      22.323851512934919      18.194161160059927
  1030   3      18.320144428285577      20.354856339776177      18.296528721199262
  1031   4      16.006667399953081      20.239408968945583       19.99530539347662
  1032   2      18.318298541356018       22.22548371264919      22.239935683934288
  1033   3      18.187960471610012      22.317488611964972      20.285493942931989
  1034   3      16.198774723177447      22.585759240108949      22.369630854205059
  1035   3      18.145959781730792      20.353848331319131       22.42041215489747
  1036   4      19.962112596441763      11.781431931072534      11.794039615104825
  1037   2      22.319294641591853      14.067451215751662      14.155472690035126
  1038   3      22.257999101144083      14.403454773224089      12.151375563030344
  1039   3      20.229561773220791      14.378137111036654      14.268543634653163
  1040   3       22.15734879610697      12.195460268133642       14.22281521823283
  1041   4      19.982700116101253       11.88502320436853      16.144866399665542
  1042   1      22.308585425983356      14.119067446492409      18.152432135996314
  1043   3      22.260543803130055      14.407953692461826      16.124209862032568
  1044   3       20.24216571768768      14.261514263632396      18.242209971156715
  1045   3      22.276173088447091       12.07438578262367      18.422588769096436
  1046   4      20.348065255856557       12.40440689153311      19.863518512657077
  1047   1      22.246246952008729      14.099120415702444      22.253143878406217
  1048   3      22.161640498506291      14.258952228030896      20.275182852604679
  1049   3      20.146363424164253      14.165965612720903      22.565071754135548
  1050   3      22.337269290887452      12.056531876999133        22.4174977080608
  1051   4      19.934036613383778      16.077633654208142      11.885788264423637
  1052   2      22.138133410404002      18.207966707419267      14.184587310276191
  1053   3      22.478314139438943      18.266825152478305      12.208609242719973
  1054   3      20.266279454720319      18.300214314751603      14.229489434280884
  1055   3      22.439696499611571      16.302142462426414      14.170229442640181
  1056   4      20.227907201680164      15.783508801539293      16.387037942334846
  1057   1      22.223605325023986      18.261405263762814      18.217524275501869
  1058   3      22.440946220358448      18.263546633541296      16.155628003087376
  1059   3      20.173587670796163      18.327089843861195      18.424159108749151
  1060   3      22.383738197643737      16.234550508109141      18.270046785362869
  1061   4      20.464109297897014      15.885256813232489      19.920281010435318
  1062   2      22.152799392760887      18.252273066839972      22.213915539939684
  1063   3      22.395770274802086      18.332736625603086      20.322024488004956
  1064   3      20.241645924061981        18.4656951765161       22.24258652297025
  1065   3      22.235867411987769      16.327252736488553      22.407830158581785
  1066   4      19.964915839907082      20.340778692554505      11.940246760857582
  1067   2      22.168771938068023      22.310193560742114      14.119574957652524
  1068   3      22.380665031835509      22.258506704189966      12.229448107279746
  1069   3      20.307882037338274      22.220880196309071      14.236647350609433
  1070   3      22.392650770597818      20.284964313455813      14.290540771808107
  1071   4      19.927363124735134      20.360274019603839      16.049544897324289
  1072   2       22.18370426604297      22.287192678603724      18.245750729919717
  1073   3      22.448253242214314      22.298197719656724      16.251702404250015
  1074   3      20.299693385638339      22.351467546431959      18.334055709036157
  1075   3      22.407966751508287      20.334242900581799      18.277784943644804
  1076   4      20.043282025068823      20.094842487226082      20.055651053424057
  1077   1      22.210869851769196      22.308115996718477      22.271664178635728
  1078   3      22.514800516503747       22.32168431230663       20.22199997375402
  1079   3        20.1945690755222      22.321455759954468      22.320459749231755
  1080   3      22.534939964529805      20.261502678147775       22.29119227010073
