(written by ASE)

1080 atoms
4 atom types

0.0      24.299999999999997  xlo xhi
0.0      24.299999999999997  ylo yhi
0.0      24.299999999999997  zlo zhi

Atoms # atomic

     1   4    -0.19139783458048215    -0.20782179199315703    -0.11571319215267843
     2   2      1.9988515507396372      1.9371124914895173       2.054660720916714
     3   3      2.2487150350736971      2.1114686740649362    0.067196622053581276
     4   3    0.091538919798858309        2.23046270837939      1.9071543807818983
     5   3      2.0482596929442334     0.07488894223680248      2.1272716890761147
     6   4    -0.20746950564992725   -0.093613699805820696      4.1792461841951933
     7   2       2.054790397435883      1.9193574212182518      6.1958826774251099
     8   3      1.9737499337165638      2.2681034916306864      4.0097577853081674
     9   3     0.10331957454266355      2.2991129674358448      6.0905731909243288
    10   3      1.8626974385355759    0.052338516553071084      5.9937602866310993
    11   4    -0.30236884825659854   -0.064840019103072327      8.0208380898153067
    12   1      2.0571506866953619      1.9734863892575603      10.084363581232317
    13   3      2.0603523594819779      2.0718944828359462      8.0572159523280753
    14   3    0.012162845057432316      2.2881062200948707      10.103985721641058
    15   3      1.9060159546335542    -0.08243838461608706      10.360486984375454
    16   4    -0.15077551711389392       3.890481442835044   -0.034632716571694769
    17   2      1.9689146242825879      5.9936683283376198      2.0539571040731963
    18   3        2.15436335689136      6.3173391467439437     0.05718351472316726
    19   3    0.073236671804049913      6.1256486905828265      2.0703264506773622
    20   3      2.1810204592410543       4.129140616779984      1.9251609240143797
    21   4   -0.046931582672916368       3.777350134564657       4.239155132958178
    22   2      2.0385272634087195      6.0814215174490265      6.1861217127392836
    23   3      2.1496404934311397      6.1213708185072191      3.9926669299004587
    24   3    0.040991219341955092      6.0666996116168885      5.9318398799078809
    25   3      2.1961746863379767      4.1396940810855423      6.0062622307220392
    26   4   -0.044364388265643956      3.7304576057904741      8.2056664556562406
    27   2      2.0564610321574159      5.9258726342033503      10.234427711917665
    28   3       2.019355993776133      6.2206879404127626      8.0820001932774748
    29   3    0.047831909418836388      5.9413539850457271      9.9950209920869053
    30   3      2.2207359074408304      4.0621781211453154      10.121919290569194
    31   4    -0.27598420145091107      8.0808031517278209   -0.019683077762567228
    32   2      2.0321263611058749      10.051099515779212      2.0501944517315582
    33   3      2.1280903597736938      10.214081395250435   0.0072929125223645001
    34   3    0.069696746657068404      10.342448874655432      2.0123137126173734
    35   3      2.0269952630104644      8.1702536085580899      2.1197711892491902
    36   4   -0.013174815193237177      7.9791097525025583      4.2806012246685796
    37   1      1.9957308993622977      10.099203682991428      6.1171740417067877
    38   3      2.0121746537116416       10.42192699528926      3.9791334179465676
    39   3  -0.0067642844313910702      10.431089881514394      6.0319749608883608
    40   3      1.9175536323578657      8.0858720710226279      5.8139307765766031
    41   4    -0.18149506876936033      7.9121315422507621      8.2966218546790138
    42   2      1.9847805217930268      9.9838223611861387      10.121606059514821
    43   3      2.0125750038610009      10.298612426450617      8.1778066638429312
    44   3    0.069497817527768416      10.459116571054373      10.156312425440932
    45   3       1.807261907843466      8.1249616519851031      10.142332076312547
    46   4      4.1371094009550831    -0.33138452018972153    0.062729599639147302
    47   2      6.0611605124868317      1.9432478795202248      2.0213096891209696
    48   3       5.997804522711065      2.0815086208597879    0.059979853156791982
    49   3      4.0811152725137649      2.1566420525511698      2.1391214218968697
    50   3      6.1148904164706668    0.085769032656739061      2.1487477726771695
    51   4      4.1644390186659317    -0.32971122943658054       3.962369380376539
    52   2      6.1493391953527841      1.9952439314065269      6.0830206819125783
    53   3      6.1201459273941161      2.2411163569035324      4.0613641570233892
    54   3      4.0257349981290202      1.9944549116517312      5.8880296018413514
    55   3      6.1175123236592857    0.062868027878989083      6.0863938781827684
    56   4      4.2199940786449082    -0.29564571294828534       8.054698641135511
    57   2      6.0817467181925604      1.9112486584864443      10.141859984390742
    58   3      5.9402777689602662       2.095471438736733      8.0819976698114697
    59   3      4.0884634711632195      1.8514787618039077      10.345012377791395
    60   3      6.2372274830457686    0.021202225605259792      10.119356509342101
    61   4      4.0039912647986249      3.8517071370486478   0.0041355754891008595
    62   2      6.0307754656222974      6.0747059338204279      2.1328578520456949
    63   3      6.0348263780414575      6.4184191069434098  -0.0036918263406407587
    64   3       4.074850494231633      6.3205201213345337      1.9759462930144045
    65   3      6.0199740021652195      4.1485618402396369      1.9097456173546543
    66   4      4.0720442298298938      3.8937447245082959      4.2961944205782272
    67   1      6.0695859765169793      6.0306116794444486      6.0571283899625223
    68   3       6.132212083191618      6.1552330345379884      4.0307369097907877
    69   3      4.0026986078725244      6.3385079941732103      6.0252066098961166
    70   3      5.7889912222999893      4.0176609226039339       6.127681068755817
    71   4      4.4265019293221766      4.1385512829468301      8.0989159268316335
    72   1      6.0815166374386953       6.003800792692993      10.111845164371621
    73   3      5.9619969563965975      6.2123155694189718      8.0841309625470004
    74   3      3.9588621575515988      6.3326860145403305      10.087618611303858
    75   3      5.7662194401161591      4.0087262897488225      10.036488530796381
    76   4      4.0199603309058549       7.886326981922938     0.06341021388697532
    77   1      6.0285424139944528      10.135989249327462       2.050274225383971
    78   3         6.1621859056343      10.230756393323807   -0.040494613016562285
    79   3      4.0004001630728929      10.273796167194467      1.9951264897916146
    80   3      6.3017094751000746      8.1208198779317335      2.0742042798390949
    81   4      3.8784855516793635       8.007783046201455      4.3312750654436183
    82   2       5.948910666468711      10.173070553965719      6.1160495523735507
    83   3      6.2785731515623553      10.137825284444572      4.0875259124117385
    84   3      4.0443464153667605      10.061325504047263      5.9431811146250961
    85   3      6.2731004663910301      8.1890273600189509      6.0493113819618971
    86   4      4.3187570127217079      7.8127320840870516      8.2282100768943138
    87   1      6.0614804522040098      10.134481532140391      10.084764215560165
    88   3      6.0503626780421413      10.210508416554473      8.0590926783141263
    89   3      3.9643399483555863      10.157960912540872      10.177192777030919
    90   3      6.1172038546748366      8.1062641390749057      10.228821824792428
    91   4      8.1716550820376703    -0.35340302436231863    0.065272467210868323
    92   1      10.087957543954753      1.9954065017674429      2.0125118290287443
    93   3      10.150885383324187      2.0245498893042795    -0.03906066533620934
    94   3      8.0229667356672447      2.2746796346474096      2.0719371499415171
    95   3      10.114633859476674    0.010143140278883285      2.2944323782456557
    96   4      8.3114835530910298    -0.26440995765666203      3.8804309470075613
    97   2      10.264795273401806      1.8739667158752902      6.0863647547015507
    98   3       10.00771771487269      2.3225289498476074       4.147942847909321
    99   3      8.0403356671914015      2.2671283137177061      6.0829526648496728
   100   3      9.9373347153605387    0.019887830632889427      5.9353745382130398
   101   4       8.417880937778337    -0.25229497183739363      8.2256729272235543
   102   1      10.122263023321034        2.00339377334618       10.08335183403554
   103   3      9.9609497616260576       2.002535576597531      8.0239865600297069
   104   3      8.0334907090102288      2.3164837360440367      10.063028189585548
   105   3      9.9443481248195109   0.0019529267299106077      10.243102452620594
   106   4      8.2123893886659225      4.0260294948868802     0.35063048298221883
   107   1       10.03504151719391      6.1097661324390318      2.0808806485686913
   108   3      10.295090112109568      6.1789933396280663   -0.062692000941973844
   109   3      8.0395274232565459      6.0373629446072021      1.8179463897294019
   110   3      10.206699253108489      4.0727600110485129      1.9554610396545118
   111   4      8.1910882671845311      3.8182954161068459      3.9666834577300198
   112   2      10.029947770578769      5.9846814886834325      6.0659192428840774
   113   3      10.210893020611662      6.0232833380102253      4.1324152541536767
   114   3      8.1463142711275633      6.0879641191798148      6.1802485681377677
   115   3      10.220484480668913      4.0972188550815423      6.2502985188617028
   116   4      8.2944283020900791      3.8147611695973849       8.222019601025675
   117   2      10.076054481231644      6.0066462098854894      10.204129059911416
   118   3      10.207528310725055      6.3049542071602049      8.0764754922836008
   119   3       8.130374462517878      6.0580428632669738      10.042152823208554
   120   3      10.224591307951419      4.0834390021319793      9.8530162133585701
   121   4      7.8411201035482261      7.9655992693159625     0.23587046889727692
   122   2      10.016839822241895      10.142014561419289      2.0212609433613289
   123   3      10.245392825743394      10.158804510261293      0.0766865102681695
   124   3      8.1537913450673916       10.26152157733422      2.0072633380590985
   125   3      10.199378985096713      8.2074217131042246      2.0906795409686136
   126   4      7.6994419220173347      8.1654176309856634      4.0680366731090922
   127   2      10.066847601510506      10.021220570266557       6.118572198996409
   128   3      10.183079390809624      10.344415295783868      4.0738757045223561
   129   3      8.1596487379238312      10.351605831852755      6.0816069136833422
   130   3      10.070507093056861      8.1515393182487781      5.9647493195793446
   131   4      7.8060132042166543      7.7290510948944799      8.0601060892537539
   132   1       10.16480907829934      10.077082926349492      10.120830438327323
   133   3      10.124041403765764      10.181005870238204      8.0397422820364426
   134   3      8.1090736231834359       10.29744904372224       10.19539007759788
   135   3      10.069230875133306      8.0728403373604642      10.339353108066968
   136   4   -0.068519402199127402    -0.06908329156821838      11.861481454005009
   137   2      2.0637131830312088      1.9952843966539591      14.058109238049161
   138   3      1.8975469901420166      2.1067060860893472      12.189723794757905
   139   3     0.07360250359869748      1.9994424704284486      14.403997019537449
   140   3      2.1331635878228261   -0.014055730205228791      14.222697811379856
   141   4    -0.27440772464853835    0.086982010106333829      16.143506724148768
   142   2      2.0153775106427805      1.9522813319726668      18.157983726961294
   143   3      2.1733464381502872      1.9420067456878778       16.29558421189347
   144   3     0.11301796907794137      2.1334141761242447      18.298541184731118
   145   3      2.0950749389695118    0.053055942283585796      18.469306871310781
   146   4    -0.25146988558466771    -0.11337071540012468      20.124665848178438
   147   2      2.0590591734565646       1.953870494448531      22.262312459345061
   148   3      2.0091185260519131      2.2091013122249876      20.374608222107238
   149   3     0.12249483060609591      2.1284116546562442      22.521363824210457
   150   3      2.1750687244766165    0.067625016922172571      22.317267212560274
   151   4   -0.012222684014908993      3.8013406949158055       11.93444025680742
   152   1       2.086332173059358      6.0162994337032893      14.128646802486754
   153   3      1.9206186724790288      6.0830820567150896      12.112903626471443
   154   3    0.027801666727453711      6.1244177579616403      14.283846236891314
   155   3      2.0174903989826696      3.9692949390329835      14.410730432458994
   156   4     0.03806238517571691      4.1806792991338302      15.774849087066581
   157   2      2.0610482622540394      6.0643417953413152      18.148555987516701
   158   3      1.9816063702183619      6.1792185700115887      16.267953825552535
   159   3    0.049777316738792848      6.1078646239202916      18.409281065916488
   160   3       2.114806583890338      4.0781498899168778        18.3372438551573
   161   4    -0.10375162216226978      3.8972550476742303      19.997713645177978
   162   2      1.9546787797265215      6.0170481759827679      22.270595903113506
   163   3       2.071528835776796      6.0497972461000966      20.377756795601986
   164   3    0.064918106748564255      6.2068619943684045       22.41470195662173
   165   3      2.0725632217017895      4.1358938803132785      22.522931091120309
   166   4    0.023951876628890624      7.6787172669904695      12.372199598209324
   167   2      2.1189042475018045      10.051714504413621      14.227470808293887
   168   3      1.9623268630931499       10.33803804648598      12.148776561007972
   169   3   -0.021920762222683333      10.405345106133563      14.129611948445659
   170   3      1.9025207598949729      8.1527036048114425      14.107748049861467
   171   4    0.052054641331801321      7.8032807936726742      15.908596665860008
   172   1      2.0116717585215924      10.088978950248094      18.177170917539009
   173   3      1.8702498773962712      10.131366116861599       16.15012073423604
   174   3   -0.036657340566081033      10.180112480322752      18.453564196274829
   175   3      2.0111196654573003       8.056148850344055      18.490315699541672
   176   4    0.030963277296915673      8.1500275129721675      19.935131844526992
   177   2       1.943573833945861      10.041183969365425      22.257377054959647
   178   3      2.1353668840679481      10.306941055979417      20.369091169086246
   179   3    0.057984260312150766      10.091951606855336      22.327295408113912
   180   3      2.1909508022496214      8.1571263268092409      22.294893904718382
   181   4      3.9073782976545557    -0.11025239555432439      11.796035271004532
   182   1       6.088279837193185      1.9673690534042882      14.131127076707573
   183   3      6.1717045559533714      2.2503779241111346      12.098956401622381
   184   3      4.0202826267262859      2.0869080140910152      14.199316847117785
   185   3      6.0478376850410323   -0.060023701032210899      14.260984706807223
   186   4      4.1745418623178914   -0.049825600120949685      15.868500352164114
   187   2      6.0880092868994318      2.0246903755039525      18.104418872676614
   188   3      5.9835875907267368      1.9801510066212527      16.250647058737691
   189   3      4.0661039649193587      2.0683698914898994      18.505324617428151
   190   3      6.0236612333464761    0.081243237375941704      18.455488699566452
   191   4      4.1532486295079245    -0.13767500093122678      20.081731775635866
   192   2      6.1144471310737556      1.9728367839340439      22.272173812924972
   193   3      6.1147836084595406      2.2586948839146124       20.36755402298413
   194   3      4.0872869612560878      2.2834222810425899      22.344973138169831
   195   3      5.9682854487644788     0.09885359763928786      22.251607693406509
   196   4      4.2538058928783178       3.828589704449755      11.904970099488875
   197   2      6.1197851866672757      6.0384180621150483      14.033253367877016
   198   3      5.9864675228919708      5.9644658308444329      12.137778425309174
   199   3      4.0918581866031589      6.0256361248923573      14.379619324780974
   200   3       6.058457814428821      4.0816039444119783      14.355930689230959
   201   4      4.1154593886356894      4.0174113108167377      15.807128815395311
   202   1      6.0668901238451864       6.047802947042948      18.219769513641189
   203   3      6.0793956684812924      6.3507068293047704      16.206981275396288
   204   3      4.0078950142392102      6.1636832101744936      18.363717168616834
   205   3      6.0048308669212762      4.0049487197987501      18.324430532766637
   206   4      4.1543370649747358      4.0129101158746963      19.951656103971377
   207   2      6.0006101146988886       6.001455002208278      22.236047616607184
   208   3      6.1110686719372742      6.0422415680365527      20.352953942043026
   209   3      4.0794484243076869      6.1828225948942794      22.407115387363476
   210   3      6.1283759945620409      4.1378306523014299      22.504150657700766
   211   4      4.4960604119457326      8.1253179511066573      11.949799173593449
   212   1       6.084914845967794      10.083361146120698      14.154214954660858
   213   3      6.0241763788950209      10.277107316478995       12.13997644322273
   214   3      4.0178552659786355      10.207855512307241       14.20382945982867
   215   3      5.9634561840295506      8.0449024276513192      14.084664541929364
   216   4      4.2752862435451036      7.8142079355033989      15.942826265393769
   217   2      6.0447883044236788      10.113003925395931      18.057328306660654
   218   3       6.112205278288779      10.015038983163286       16.19270420782663
   219   3      4.1005248962383982      10.170411139323486      18.390604673798023
   220   3      6.0408838302553125      8.1762398051316616      18.489027973273696
   221   4       4.018605836906846      8.0565551604700349      19.905295911380435
   222   2      6.0123012036425738      10.053275682543825      22.267274372541497
   223   3      6.1108869526413949      10.388372206580364      20.333598151100063
   224   3      4.1058825544997379      10.336393703876013      22.341007599614841
   225   3      6.0801256174945166      8.1785898156869621      22.211566819753955
   226   4      8.3229525899339372    -0.27488404884479312      11.924543537276159
   227   2      10.128203057478721      1.9766690959696207      14.047895941921842
   228   3      9.9787449046402283      2.1842675353865699      12.150523021272425
   229   3      8.1146680909958633      2.1882665484938757      14.255806152936538
   230   3      9.9570551529423863    0.046507866662432173      14.164761301170911
   231   4      8.2398816893201108    -0.19919174497762981      15.919701912028787
   232   2      10.134596896970839      1.9479349430780504      18.223029073117981
   233   3      10.101703515446728      1.9619441832338578      16.288350081107758
   234   3      8.0562832741958221      2.1385307715231292      18.307079898017154
   235   3       10.02495504937607    0.072438095714467771       18.41754866089363
   236   4      8.2665076290697339    -0.30093702589962729      20.326612122487017
   237   2      10.151100746001358      1.9670601961856002      22.370265484864099
   238   3      9.9658156182987501       2.312747195576387      20.246304353526178
   239   3      8.0629294234053965      2.1103693535087826      22.326617219435292
   240   3      10.121904682345251    0.084010922924281181      22.105450673516298
   241   4       8.070318869754578      3.7339010351898501      12.105119105384452
   242   1      10.110966027029422      6.0140680207103268       14.12300432134637
   243   3      10.225383814623681      5.9425960062262311      12.102520034011537
   244   3      8.0627181836780739      6.0636780621703545      14.330210374098842
   245   3      10.111060644461698      4.0044517087676059      14.459913937225908
   246   4       8.112425564785033      3.9465774814316821        15.8328741956052
   247   2      10.068024315796645      6.0479908258303201      18.160912697568389
   248   3      10.148147860007688      6.3048082452646819       16.24648016332117
   249   3      8.1204694507660609      6.2516055129406496      18.235846045875334
   250   3      10.026411329862068      4.1024885723578572      18.165034975456368
   251   4      8.0482636071589013      3.8876137276671043      20.057070303873481
   252   2      9.9580946483350328      6.0277208247801379      22.232422746185648
   253   3      10.053705002205415      6.0365685771625879       20.29118883180039
   254   3      8.0781829044247395      6.2576142491339422      22.426625940546678
   255   3      10.024043172519335      4.1275186143046989       22.37464061341155
   256   4      8.0171664138498109      8.2260766750797512      11.634758500751749
   257   2      10.007730597992509      10.009527639783256      14.178923630353351
   258   3      10.178544428058823      10.398991992516635      12.200948341779625
   259   3      8.1340931249708532      10.206826046718941      14.136635988650699
   260   3      10.231560462325906      8.1369322724090996      14.044447528937829
   261   4      7.9663250443767799      7.7571177853457787      16.081029523914644
   262   1      10.072387876680169      10.097860973482781      18.169410417629269
   263   3      10.294229380686144      10.098134085322293      16.107268227769474
   264   3      8.0433449153019829      10.081225415655091      18.414492218008387
   265   3      10.147055351295457       8.074251087722331       18.45324565740502
   266   4      8.0535021837050653      8.0911141392383215      19.868183682511766
   267   2      10.087723511836453      10.026983497606579      22.230265022572475
   268   3       10.14266845829634      10.309669043272185      20.346869445316671
   269   3      8.1401414139277772      10.201077831024708      22.364544069566893
   270   3      10.233634442052352      8.1339022619947912      22.287145156471247
   271   4    -0.32429300834744035       12.05568249101038     0.10735353135022097
   272   2      1.8870084000808256      14.130352940392815      2.0532302410318226
   273   3      2.0333246695585703      14.455914754443279   -0.017530187430301335
   274   3    0.032135666904247108      14.224156733853656      2.0050865795675819
   275   3       2.129206966341632      12.259704447033409      1.8329111493889771
   276   4    0.033628072437360622      11.899776263706649      4.2213700140265402
   277   2      1.9999769292077447      14.175750040557276      6.2129046262955105
   278   3      2.2258970038228227      14.133415069316518      3.9543753705131883
   279   3    0.039449401494095843      14.084188232911794      5.9475314843262543
   280   3      2.2426309397183313      12.256318580552344      6.0417038120724396
   281   4    0.012761668862348884      11.818006703282602      8.1063108262542141
   282   2      2.0600384460856844      14.173833630830432      10.328111876564062
   283   3      2.0042458980344469      14.377401754215835      8.0929702826659398
   284   3    0.027156428145328652      14.165562034648966      10.216991265621592
   285   3      2.2180673624990908       12.28376251930662      10.041005216184821
   286   4    -0.32572432112874899      15.880059149842781   -0.078329620134799646
   287   2      1.9279070017948161      18.142699888048323      2.0200571881782654
   288   3      2.2749499135826885      18.234047069361523   0.0057867297412956768
   289   3    0.043949789084951597      18.294708423987821       1.901747710603138
   290   3      2.1361519065132035      16.241391157678969      2.0258449323971734
   291   4   -0.068647002376193783      16.382625780223325      4.4278871547377019
   292   1      2.0716201308843338      18.214400134257168      6.0560668800687498
   293   3      2.0521282082169083      18.406269153704038      3.9240272512495951
   294   3    0.025507477419462039      18.405239468304323      5.9855850064095328
   295   3      1.9003392187127761      16.177550075593373      5.7821546298124842
   296   4    -0.28108976159482441      16.206868467921034       8.045497815316919
   297   2      2.0124744184246723      18.189760589564443      9.9576689466264927
   298   3      2.0298351426788965       18.26003660472805      8.1009537981815836
   299   3    0.079095456280936421      18.512761806264482      10.185210773565952
   300   3      1.8282989317212512      16.288383840135207      10.209256477529891
   301   4    -0.29309967908514656      20.220839138123775    -0.17807551957504303
   302   2      2.0136724082376554      22.154682173123433       1.966124622869095
   303   3      2.0938540387199525      22.498191790140989     0.04637001807417078
   304   3    0.090533562387984864      22.394479527845618      2.0916473578494061
   305   3      2.1518890691973365      20.277491780594467      1.8905875761718873
   306   4    -0.18685779616222584      19.991259436793946      4.2507775180685652
   307   2      2.0403158086128679      22.142513957729761      5.9800747190424097
   308   3      2.1527062457362081      22.328503297877386      4.0343627451998181
   309   3    0.090085479011660571      22.199672872086825      6.0016106738570754
   310   3      2.2242383257328235      20.296539189289653      6.0668940927813928
   311   4    -0.14267135053969304      19.957685017172754      7.7747798758800055
   312   2      1.9915679970378179      22.235393723684446       9.975086269871877
   313   3      2.0414725926277684      22.415689355927011      8.0637950980323971
   314   3    0.086694184982725422      22.130237830543319      10.260922246165336
   315   3      2.2865849262380906      20.289914582118161      10.154302506596336
   316   4      4.0213244520225775      11.849667026697086     0.15878291303592698
   317   2      5.9662771042339733      14.166965796569226      2.0848533068464072
   318   3      6.3795641754221615      14.262047114582597   0.0062622093939139131
   319   3      4.0922830177009031      14.308063559024241      1.7866239895289091
   320   3      6.1654063157516266      12.240407692932274      1.9351250598379515
   321   4      3.8810270611571438      12.014247189020852      4.2440730569426419
   322   1      6.0927714365883228      14.144985933603765      6.0636076796087819
   323   3      5.9891739563407604      14.169453235456821      3.9765749531139503
   324   3      3.9952876344052242      14.480542017031524      6.0964371309303038
   325   3      5.9674139189194433      12.125541607622043      5.9346350133978563
   326   4      3.9805886303638309      11.879839034291551      8.2602402657927758
   327   2      6.1609222766165299      14.135986049653207      10.001058316421211
   328   3      5.9753853491003976      14.303556148502125      8.1275265751457919
   329   3      4.0010034642230412      14.519950922617268        10.0530425879034
   330   3      5.7828956658128687      12.241736065612423      10.111467644920811
   331   4      3.8654768116574374       16.09820570059598   -0.025714279736068092
   332   2      6.0870725288535894       18.32478899413011      1.9167786023359592
   333   3      6.1179155088467709      18.135229686959899    0.010427719534934082
   334   3      4.1099736952765005      18.242816017434919      2.0749607008108719
   335   3      6.2985456277354261      16.196718279200176      2.0442266891587155
   336   4      3.9064015354782811       16.09570542735737      4.3123592203777417
   337   2      6.1061678749107138      18.056628022721107      6.0670425918803677
   338   3      6.1606872164634661      18.365491428459602      4.0457009280799454
   339   3      4.1168307848262522      18.121159594960446      5.8253902639515873
   340   3      6.2011930040412793      16.204574778734127      6.0035286080562678
   341   4      4.1807730778605121       15.96102789710571      8.0324492607638138
   342   1      6.0662915805978921      18.195928877199993      10.013545127309039
   343   3      5.9770214896986094      18.288632009084669      7.9940950497615324
   344   3      3.9950901373800907      18.115012289512279      10.241255162416261
   345   3      6.1376149227497088      16.155286632667771       10.29384034868789
   346   4       4.026264235033489      19.968356728517875    -0.18152899033480044
   347   1      6.0833523687293338      22.223844809614462      2.0260935057768377
   348   3      6.1075312897682448      22.546752436692156   -0.019046873164940317
   349   3      4.0046296496079599      22.508715807300902      2.0305285261867865
   350   3      6.1151011382880904      20.218346933756134      1.9520435980601394
   351   4      4.0804394894009839       19.89698535293978      4.1208570209368709
   352   2       6.204463104024919      22.183844537505571      6.0287054027852669
   353   3      5.9975674908146228      22.386689510639854      4.1084408205646001
   354   3      4.0025597580924481      22.577256102622155      6.0720388309318949
   355   3      5.8445131649097499      20.296923331051502      6.0733621403199338
   356   4      4.4514156234925615      20.191901810770506      8.2165593372933543
   357   1      6.0948108223219961      22.269316206473178      10.059516169841443
   358   3      5.8649762953549516      22.323089775280962      8.0142174635957897
   359   3      4.0093443902814405      22.541772191564739      10.109675284228629
   360   3      5.8826672593342684      20.251434320254535      10.126571397832592
   361   4      7.8167884503312566      12.004716560901802      0.0147447442247214
   362   2      10.092853638088199      14.178154429417688      1.9058796863417329
   363   3        10.0738490746742      14.392262460473493    0.025184233126562598
   364   3      8.1722283871986061      14.179508179655103      2.2279926846578593
   365   3      10.292590129201431      12.210650402572652      2.0667225457884331
   366   4      7.7468980140959491      12.074640934639374      4.1121151595283871
   367   2      10.000668056405003      14.079882511667211      6.0871246729472679
   368   3      10.427755248549705      14.097655555460754      4.1177447562903771
   369   3      8.1530593580016255      14.042183348172927      5.9204168587939749
   370   3      10.343409547192302      12.198437278879657      6.1614513796094466
   371   4      8.2233481077579587      11.752079738049003      8.3454776220035658
   372   2      10.228462401196017      14.187495345081343      10.147278961833338
   373   3       10.02368919109816      14.430908750010236      8.0711175050966428
   374   3      8.0587753388651926      14.023854275460238      10.151425930244978
   375   3      10.195678747737894      12.250464802261181      9.9206884904865422
   376   4      7.8125977057023288      16.176323361620156    -0.15977996971131447
   377   1      10.162208038239013      18.135417464880586      2.0161479748547153
   378   3      10.143532118354345      18.200789367202187   -0.021150726077640996
   379   3       8.109484562311696      18.263618792298391      2.1439465666680966
   380   3       10.11322962444024      16.135239573180019      2.3618380685383027
   381   4      8.0993853278150194      16.219007823479949      3.7511644567751894
   382   2      10.257427943706926      18.160898090083069      6.0123900964028394
   383   3      10.119668313969894      18.505282472650855      4.0886402879345125
   384   3       8.072921385862541      18.477447595611551      6.0411536808287414
   385   3      10.022416911373364       16.22353351862969      5.9022276578667086
   386   4      8.3523247642124385      16.339111040595981      8.2607000972864544
   387   1      10.180535520649171      18.166381243642252      10.080572018299067
   388   3      9.9510433062370112      18.046804709653003      8.0259092093915214
   389   3      8.0908757812486467      18.261075239607173      10.164946468346354
   390   3      9.8277661300428036      16.131922259872521      10.171798159278703
   391   4      8.4026675341790096       20.06408200852686   -0.052776299659288754
   392   2      10.136726405682104      22.174414388389387      2.0705085995483636
   393   3      10.096469068449526      22.524796785404991    0.031637553740200497
   394   3       8.141877545822986      22.425832837771399      1.9782927426320784
   395   3      10.140368709645907      20.265628910518888      1.8368280586911496
   396   4      8.1994024484659391       19.95930490441522      3.8995882507458126
   397   1      10.146066279513475      22.210226660204029      6.0416571610825445
   398   3      10.033375806465832      22.152317713793419      4.0114183378422767
   399   3       8.067349875304906       22.20509514729925      6.1553232042589627
   400   3      10.200913075859662      20.190832209493234      6.3919918348735392
   401   4      8.4135739166532559      20.028492178355251      8.0038030708838726
   402   2      10.152335839469925      22.099506656163598      10.168930423258013
   403   3      10.155710623226383      22.490528150062158      8.1449093346389549
   404   3      8.1488582210434419      22.250368865646163       10.06727929617473
   405   3      10.221587814150867      20.218857846479196      9.9534624703050678
   406   4    0.048046385181295836      11.877037355590639      12.133816033122882
   407   1      2.0014311235742976       14.23474171303304      14.166242100421371
   408   3       2.079610656913395      14.197391448056376      12.159927137617261
   409   3   -0.062035464005438169      14.115082504927086      14.163334247189532
   410   3      2.0680666810315174      12.171255772958174      14.396763542991215
   411   4     0.26213031875333759      12.033312064717705      15.925499290590382
   412   2      2.0586221705027898      14.121956160173713      18.110933485739238
   413   3      1.9643564814143644      14.267417428529505      16.260761972509375
   414   3    0.083326253071300385      14.180135035125485      18.453931408754404
   415   3      2.0464096974265571      12.207960963605133      18.301047493658448
   416   4    -0.15340941513026418      12.112524910432494      19.920796010931983
   417   2      1.9140388206276522      14.059849883798254      22.268099955707793
   418   3      2.2108500286585873      14.212162920153808      20.364778941289824
   419   3    0.049189579616489655      14.322021392201583       22.26976950036957
   420   3      2.0502518956655935       12.19836325060148      22.426295778180862
   421   4    -0.21606829175375469       16.19624618087936      12.061213592884377
   422   2      1.9894241493550067      18.177598163734732      14.067700028261022
   423   3      2.0683823358887716       18.36869015372157      12.193577046481661
   424   3    0.088696574086888524      18.379237065619726      14.294556185692645
   425   3      2.1024760097026918      16.296636394295426       14.26835389371608
   426   4    -0.41370092652471352      16.218763785010854      16.352040718487533
   427   2      1.9394822054906753      18.188383313616825      18.190662713296852
   428   3        2.16090937048808      18.233942330506068       16.31210077251329
   429   3    0.082325118333846162      18.325066692855962      18.250341288819818
   430   3      2.0776869605246788      16.260896505507112      18.453654084721446
   431   4    -0.40070501468566694      15.926616717273959      20.051322786052697
   432   2      1.9744785541360048      18.118097973446019      22.212462935923611
   433   3      2.0711609096819115        18.4232466555952      20.317147081196076
   434   3    0.067357658747793828      18.245610647513896      22.444030321171478
   435   3      2.2118877815236648      16.248425543995804      22.272560851861634
   436   4    -0.21346351780834022      20.261974789389615      11.920295682407483
   437   2      1.9924049926009797      22.205496406789685      14.104100655497634
   438   3      2.1560964652157013      22.226718617190013      12.214479572220664
   439   3     0.10314922297577553      22.242179839244081      14.263921740607518
   440   3      2.1772895617953973      20.296426974288906      14.402118284793483
   441   4    -0.29882777011312117      20.132607554348894      16.159495050943466
   442   2      2.0601387319774056      22.183433740244542      18.139985236105751
   443   3      2.1315837334928434       22.41854776485129      16.274075290958809
   444   3     0.15241715457308144      22.314345079675352      18.331865132702266
   445   3      2.1837369856285984      20.285872118509005      18.273307896920429
   446   4    -0.36244029393005689      20.277185768165921      20.221009640781503
   447   2      2.0103582290241535      22.211379498468631      22.200598304367038
   448   3      2.1501771862967116      22.302103453142262      20.321784428921415
   449   3     0.12442777992091723      22.453919070512175      22.369837405627308
   450   3       2.035267377168545      20.320448901229916      22.490534903796028
   451   4      4.2781578767718917      11.825281937695427      12.057499858941608
   452   2      6.0231762706878369      14.202005660972429      14.087691297571292
   453   3      5.9446387767076985      14.134528513778717      12.163771132692087
   454   3       4.112013324486969      14.210247897779288      14.437029564610722
   455   3      6.0706703013656922      12.212899005372716      14.370648141033065
   456   4      3.9789400616153867      12.222606604350968      15.841707814249373
   457   1      6.0862187719964762      14.162440119971329      18.184800007758049
   458   3      6.3817507441190449      14.221163635349475        16.1701712457625
   459   3      4.0200318252075782      14.285496497794593      18.302690039860401
   460   3      6.2274879700395465      12.115997171105787      18.175150395314486
   461   4      3.9103321046820909      11.937121945618928      19.991993189694483
   462   2      5.9798231278271317       14.14458707434099      22.249518000639235
   463   3      6.1028861685151785      14.198732083174376      20.324137052292077
   464   3      4.0928565917802073      14.224415690950639      22.469073410314149
   465   3      6.2807280283551243      12.226910097372313      22.400847418563092
   466   4      4.3644180404735344      16.428773753457374      11.925890056005874
   467   1      6.0913964605719073      18.246029064340096       14.16681577621063
   468   3      6.0657932777418466       18.27865102927057      12.151681186282801
   469   3      4.0351799147667196      18.260322078348249      14.360965235563473
   470   3      6.0917671589334335      16.180067352545429      14.266221147857003
   471   4      4.0100185801204224       16.25522206745574      15.844503504680384
   472   2       6.071302897436575      18.139194693546767      18.231757851812009
   473   3      6.1072972124302609      18.213665963476643      16.315640336663797
   474   3       4.111985953582173      18.252117491564945      18.435501281171291
   475   3      6.1688573843425196      16.246406267952619      18.404474308609061
   476   4      4.0227219778898169      15.942479705945225      20.026178047819425
   477   1      6.0758258444478157      18.171719196726556      22.263069976014421
   478   3      6.1658728614911738      18.444209987952068      20.247884298673537
   479   3      4.0220684999062213      18.474745955918767      22.266629175311852
   480   3      6.1942516930503713       16.13985339466284      22.301719565424879
   481   4      4.2712601250560462       20.03296736905336      11.851296544392936
   482   2      6.0982141480557228      22.299610443422701      14.008094292289119
   483   3      6.0885726606612236      22.239568069349573      12.143471600590225
   484   3      4.0914264686487467       22.30188329333879       14.36386046753708
   485   3      6.0820283998752682      20.323676008652367      14.390149369437767
   486   4      4.1739796938360536      20.089122874702067      15.884194945834444
   487   2       6.118722085215528      22.213375344923943      18.199615289927383
   488   3      6.0424557582574439      22.431920733250305      16.316134013854292
   489   3      4.0879504335805343      22.457793100155978      18.372644484510626
   490   3      6.0595837856411796      20.318960868887835      18.254084581897203
   491   4      4.1996988541233211      19.911618433524243      20.301606700235354
   492   2       6.121897955076256      22.161910109293906      22.335567533558642
   493   3      6.0275297582985106      22.361398524919867      20.339841740627506
   494   3      4.0758959686266714      22.316121143745693      22.452676176946646
   495   3      6.1848280335916943      20.288433776369963      22.400318996005101
   496   4      8.0040449458943801      11.732776872113275      12.048481278100011
   497   2      10.130723184227906      14.122732701005598      14.088918992106457
   498   3      10.229133281148465      14.117682138464861      12.139339543765747
   499   3      8.1575772623844305      14.249464906199885      14.150320231977176
   500   3      10.158159018893242      12.232243082138153      14.290411080253079
   501   4      7.7522057601938874      12.241460700590995      16.095756031423029
   502   2      10.091189622359789      14.082204947341543      18.118763572527932
   503   3       10.04498821101525      14.328241524926078      16.224743556864521
   504   3       8.220816885276971      14.238928275936836      18.454584506585643
   505   3      10.178304236341617      12.203285749446414      18.156801305609523
   506   4      7.9337006236165077      11.974696403337109      19.980824132429181
   507   2      10.132195385115976      14.086450927772781      22.158083373035797
   508   3      10.355549471728732       14.14685032715316      20.275373232447347
   509   3      8.2071995263188793      14.354675989823315      22.196815908728706
   510   3      10.106810571039425      12.215200856612588      22.506194966272467
   511   4      8.0057319801758702      16.537631167690499      11.836125306757371
   512   2       10.11295902408294       18.21734408660938      14.042154259265306
   513   3      10.115061440766507      18.288667357275511      12.168898984529909
   514   3      8.1580397042101982      18.230445342180758      14.352549669176231
   515   3      10.179523555616919      16.214850690315789      14.216369251135102
   516   4      7.8906499418130354      16.138157497675294      15.928168544236815
   517   2      10.096771235672776      18.104318902863298      18.194467649426198
   518   3      10.191389549890422         18.155173459958        16.3146882957796
   519   3      8.1536727214357398      18.307028684423816      18.341046680093672
   520   3      10.190809700143554      16.232446543724674      18.449429242067254
   521   4      7.8561856015197424      16.000600207617744      20.252981476260427
   522   2      10.140994217650997      18.126470206172609      22.367631685845257
   523   3      10.182508294295117      18.473402850912397      20.278863174313333
   524   3      8.1826869567600813      18.177238387223625      22.232533045985868
   525   3      10.338799657427764      16.217892242336021      22.192782376695735
   526   4      7.7816612133363634      19.994603330628664      11.694539747020384
   527   1      10.108745617800267      22.213906360277154      14.119230205316258
   528   3      10.031489076634081       22.27329435512021        12.1014984284569
   529   3      8.0381307411210354      22.263416916084054      14.368739932315883
   530   3      10.112648098031379      20.189329706002653      14.448944705033895
   531   4      8.1012470681149455      20.200373368842314       15.82489194955583
   532   2      10.198535890783544      22.161957868214756      18.261646424241231
   533   3      10.064466632383045      22.503766810608024       16.31328429734673
   534   3      8.0532144056763677      22.411388069592736      18.303878088056784
   535   3      10.162832868575023      20.265742715251601      18.195833389891654
   536   4      8.1820281433691289      19.944592809711093      20.465073675993462
   537   1      10.124240676244112      22.215215241663632      22.281148507817583
   538   3      9.9855861921493698       22.29324741290732      20.224259265526559
   539   3      8.0445857237685949      22.501728284613417      22.323629935169372
   540   3      9.9551520644416769      20.206592827512509      22.400838949315141
   541   4      12.070141135250141    -0.31920137925188441   -0.004580250543515978
   542   2      14.126190186417256      2.0420361161367611       1.896049637898414
   543   3      14.166306513533421      1.8953747204496239  -0.0051515629148163712
   544   3       12.16294518951862      2.0231463957752509      2.2390389248173164
   545   3       14.14138669125027    0.048571929757466367      2.2591850026803559
   546   4      12.111324958787156  -0.0053595068382650815      3.6824876667214745
   547   1      14.138159133361142      1.9930412179517525      6.0482692588161813
   548   3      14.365458245791437      2.1328361619128273      4.0337647132693766
   549   3      12.118516751615735      1.9495354027762066      6.0531134311277519
   550   3      14.418408010329243   -0.054423231755894905      5.9245616028233465
   551   4      12.178067742324316    -0.37859819605446776      8.0519788453423118
   552   2      14.250824335235654      1.9949500333439214      9.9947463990170302
   553   3      14.175931340191118      1.8181497472536761      8.1111810648544296
   554   3      12.172088110138889      1.9460391465494724      10.266079481571079
   555   3      14.211982915624915    0.050035520993674455      10.461324763424054
   556   4      11.855967181859665      4.2667687574714153     0.32842832026693214
   557   1      14.157798473692868       6.081943506269484      2.0097921894429387
   558   3       14.18842194592164      6.1372868251810271   -0.078637779758977081
   559   3      12.136154840346368      6.1885689645768576      2.0063234496412821
   560   3       14.13549158150791       4.030116215999997       1.875692677326261
   561   4      11.875252674142097      3.9253433982443733      3.7565843469647362
   562   2      14.113735568591373      5.9399406615683654      6.0579365618838583
   563   3      14.216753383229854      6.1020519682642433      4.1346595241852278
   564   3      12.162178151322799      6.3083299438421072      6.1227765500251063
   565   3       14.11576152807447      4.0738815771499333      6.3250142232824551
   566   4      12.175514387529127      3.9131649772296315      8.2846694945575621
   567   1      14.166317065648867      6.0388459314534773      10.148171323818628
   568   3      14.104340589673996      6.3890811927566551       8.073105566659903
   569   3      12.109666829375604       6.249868714898148       10.06130113150966
   570   3      13.911658605136369      3.9896265768582464      9.9859911363466729
   571   4      11.910292049017762      7.8401808092376033     0.24251574999905287
   572   2        14.0773005859236      10.115636468889056       1.983619123000393
   573   3      14.289986671587533      9.9999400479899574    0.078611088440602245
   574   3       12.19646092890922       10.18006864147512      2.1401914968657456
   575   3      14.219750893715144      8.1798432849790608      2.3011657634131688
   576   4      12.055820157724952      7.7211865881316601      3.8402789600613794
   577   2      14.077342444321687      10.140515646569082      6.0583853573090174
   578   3       14.28902506494412      10.320453589015136      4.1344896753067317
   579   3      12.180701009660961      10.107640975275697      6.0786308672378793
   580   3       14.39239680218844      8.1899186536037512      5.9928404311434171
   581   4      12.127174844839368      7.7828071226406754      8.2205480621313374
   582   2      14.185205068970991      10.000935146820284      10.137949923325607
   583   3      14.220841140060051      9.9484347626081995      8.1280509666265335
   584   3      12.229397247085412      10.211092291520233      10.181837762752503
   585   3      14.280026723032053      8.1445926198095062      10.347106795869934
   586   4      16.015138965901521    -0.17088627128330114   -0.017303492294053542
   587   1      18.180428074372969      2.0386775176549241      2.0132400492822766
   588   3       18.46173033733697      2.0161943442985044   -0.043348012742394817
   589   3      16.148381020387031      2.0838139632214232      2.0569052349023091
   590   3      18.428044525923973   0.0046953080415871457       2.106394355631334
   591   4       15.85606809129558     0.19123669717874955      3.9371992277206975
   592   2      18.217135627325121      1.8938837446718355      6.1197220828887016
   593   3       18.14673842320919      2.2552985312441236      4.0872988982824259
   594   3      16.244026004219677      2.2345771361848432      6.1430707176894339
   595   3      18.142760944501035  -0.0012529863209173402      5.9095368327404731
   596   4      15.917572893574981    -0.24748972071128642      7.8444926068100989
   597   1       18.18960938626708      1.9941974908482829      10.132337272217718
   598   3      18.407365560031028      1.9761066535501166      8.0768103834105247
   599   3      16.161049835519403      2.2050870827499218      10.201225306738831
   600   3      18.252453014526647   -0.045343707114017147      10.236299471068921
   601   4      15.791634161872398      4.0920634756678043   -0.029930485538295873
   602   2      18.082549318181016      6.0517930733373593      2.0211034683750047
   603   3      18.365862653598736      6.1568979267028263    0.062084864327240606
   604   3      16.212376697297003      6.1323512614139419       2.063071923089097
   605   3      18.377912398777035      4.1372875319519906      1.9701180707162904
   606   4      16.084349098061267      3.6975087627501053      3.9464406554170992
   607   1      18.168876470517059      6.0683765214295304      6.0676176623528368
   608   3      18.386548261702725      6.0666454672166532      4.0206199889389671
   609   3      16.127864027546483      6.0371689500514476      6.2867395464184535
   610   3       18.36977557888666      4.0527221616032474      6.2554643325495194
   611   4      16.203478010921124      3.9627590949254086      7.7535417210116382
   612   2      18.072420140953277      5.9454326371749087      10.078523858430176
   613   3      18.370082881048052      6.2146224326028143      8.1530385159814909
   614   3      16.209824314168777       5.957560440972717      10.059413762446002
   615   3      18.459497226196085       4.075713681409499      10.020010377413268
   616   4      16.083655735323887      8.3557847395260829    -0.37252990795040686
   617   2      18.118489802140402      10.145369143808558      1.9480594781623912
   618   3      18.206536226583079      9.9297376133734989    0.080243526978102983
   619   3      16.245591423224891      10.040671831595727      2.1928863681856585
   620   3      18.334687560061713      8.1088755803838559      2.2001943834490705
   621   4      15.917044241530395      7.9177526984443372      3.9306512514606147
   622   2       18.09652305285714      10.127086544884428      6.0486057717525847
   623   3      18.407637698964528       10.15978236452305      4.1084754272823396
   624   3      16.235469129711799      10.232009650534394      6.1457163380456352
   625   3      18.311931060462527      8.1691216716584734      6.0958840603455666
   626   4      15.972150425586397      7.8264125309270458      7.9531503439468327
   627   2       18.31259766010308      10.013308967209085      10.114631250088712
   628   3      18.370531912656748      10.112059139184915      8.1002124718712452
   629   3      16.220612598018036      10.371361281279194      10.121287086349895
   630   3      18.141131881086096       8.097265663071143      10.191563115753398
   631   4      19.917913716618575  -0.0072055094468521288    0.070380147483557337
   632   2       22.19958647348626      1.9819363353468826      2.0777587550558767
   633   3      22.347812548656663      2.2187383978151338    0.048984133581626448
   634   3      20.332167446754603      2.0978761810906534      2.1428862551924288
   635   3      22.404898794944209      0.0702281768208321      1.9709975980869088
   636   4      19.926563352817354   -0.031518999999714178      4.1129551740829049
   637   1       22.22653611140478      1.9922549165597092      6.0527153576037103
   638   3      22.562888239811887      2.0325741695255046      3.9835611972529001
   639   3      20.195294351059101      1.9796543564285873      5.8806689874201457
   640   3      22.601750120859382   -0.023075169915274758      6.0572800818532091
   641   4      19.991881890627329    -0.21052317118875977      8.3461781164821218
   642   2      22.196312210391476      1.9898028746682435      10.077220456010471
   643   3      22.373750996575748      2.0170115659830019      8.1443992312025717
   644   3      20.320764588926007       1.882341839671791      10.260394146095134
   645   3       22.57931871696152    0.055857223740832344      10.147867507206714
   646   4      19.931942765055854      3.9498341280948708    0.030454022801345716
   647   2      22.206002593870792      6.0377634305943984      2.0489912628174292
   648   3      22.435893656938589      6.1535796073256988    0.084823667914464621
   649   3      20.333943604358364      6.2018964318135756      2.0546558611567378
   650   3      22.353432453364888      4.1232662502050967       2.076926281701613
   651   4      19.850494143680578      3.9122451636700712      4.1630977126334194
   652   2      22.232565349758637      5.9404985365153991      6.0858508986492854
   653   3      22.350724974500089      6.2245161201540427       4.063013207152502
   654   3      20.349238052318839      6.2879398865386857      6.1247978067473472
   655   3      22.232631380211782       4.081130763324115      6.0034739397349544
   656   4      19.942879615718837      3.8954561266264633      8.0227762910460765
   657   2      22.194319941144787      6.0945884812309714      10.227880732850879
   658   3      22.407764516029975      6.1492357683582028      8.0309626885682928
   659   3      20.307477913614303      6.2140898780241542      10.091196421658157
   660   3      22.258787298209302      4.0612282254794785      10.103392717284159
   661   4      19.988548691261329      8.1303623703343515    -0.15738408859008099
   662   2      22.185049580965099       10.09756658469659       2.112505412122069
   663   3      22.483962165163501      10.058203758045508    0.045026541857824891
   664   3      20.294916810865519      10.045410222069522      2.0291051794896369
   665   3      22.501743119826077      8.1434768265898896       2.043430769615977
   666   4      19.919395432691079      7.9294210218995298      4.1114753173115028
   667   2      22.239984984099756      10.080019110010557       6.205993256139597
   668   3      22.418898556116911      10.243965945712242      4.0427395573337934
   669   3      20.345111914361237      10.033681400715269      6.1088132486335587
   670   3      22.544571370951246      8.1655387538342286      6.0400558662165738
   671   4        20.0081228389834      7.9027993926059823      7.9621037188828137
   672   1      22.275344689834764      10.047568053832672      10.145619120213027
   673   3       22.47395960664819      10.143216709036006      8.0924255821320852
   674   3      20.222132607733961      10.103100993550875      10.255200324428786
   675   3      22.548978677618646      8.0157570913862823      10.049669472071326
   676   4      12.095760080534987  -0.0073152868993661482      11.741215256032351
   677   1      14.123440275541341      1.9847109476437148      14.216869741113133
   678   3      14.229563364246147      2.2966190552448023      12.161285430612459
   679   3      12.061477469984926      2.0765419968407737      14.194918158663095
   680   3      14.327434142840623   -0.045388593687255799      14.006876774111497
   681   4      12.121784902175181    -0.31297629698351764      16.110807844397247
   682   2      14.202158243412256      1.9406012323417601       18.16031487120495
   683   3      14.009061433649816      1.7343537412738179      16.265784964338373
   684   3      12.076934116924757      2.1415630473826339      18.373185057285944
   685   3      14.182397339223291    0.084216029970239012      18.593567703839895
   686   4      12.221809596573431    -0.17278381194628098      20.449381066880175
   687   1      14.078713846685107      2.0372131757374579       22.25770971940938
   688   3      14.156951493140982      2.4456060634250849       20.16640418376965
   689   3      12.045768062321047      2.1539060785745616       22.04633638849149
   690   3      14.124747736023235    0.023826127246109417      21.925372400771451
   691   4      12.361709047151281      3.7746515416201216      11.959494950856138
   692   2      14.143397252683883      5.8989211208650527      14.121974753463236
   693   3      14.099861855162274      5.8355131959102744      12.218514114647851
   694   3      12.195124816028414      6.1889130591867669      14.302943666276027
   695   3      14.093834797211656       4.054541313359822      14.468325491631445
   696   4       12.06362406468938      3.8719688647764281      15.929806679874345
   697   2      14.176405337473629      6.0672968182104166      18.191140136028398
   698   3      14.128065250282427      6.4060093720260642       16.19918238940819
   699   3      12.123703162999591      6.1504970789060023      18.270433506269462
   700   3      14.102001693864835      4.0988403567566971      17.912533430167446
   701   4      12.145934829136186       3.801796596214293      20.273751074940414
   702   2       13.98920396008719      6.0826940518460413      22.304391441047066
   703   3      14.274180053257375      5.8233437704830902      20.214092039520317
   704   3      12.117872252316154      6.0546059361636733      22.209181445794755
   705   3      14.379388003054936      4.1138013707973657      22.347314585239072
   706   4      11.942232737016312      7.8061451198509069      12.028166885495233
   707   2      14.178092275533556      10.011126847252196      14.188132968643014
   708   3      14.233604553217633      10.469523200314073      12.126443039436898
   709   3       12.20828561251065      10.314751838901028      14.063287924826097
   710   3      14.169663957691762      8.1510618425123376       13.93090934900898
   711   4      12.004618240968664      7.8436834993706812      16.032462315528857
   712   1      14.169614719199373      10.038745930508451      18.163429750716926
   713   3      14.175268920143917      10.113842904654932      16.102244261779575
   714   3      12.137601767931526      10.159774809273138      18.320058091232287
   715   3      14.154064576761783      8.0226632630714274      18.480101972463199
   716   4      12.082744110498998      8.2409162931892173      19.830003504272682
   717   1      14.073614574900423      10.062361722065438      22.286245811427218
   718   3      14.240202239683802      10.230150713522079      20.238880946437025
   719   3      12.078431435347381      10.356901641108593      22.303100989699995
   720   3      14.280214609434985      8.0056376904121684      22.109849222059687
   721   4      15.868934008115737   -0.079933074163309234      12.137631347836914
   722   2      18.069103448454207      1.9079061169027107      14.175935435507686
   723   3      18.214269700549654      2.2445689015276375       12.19475179699438
   724   3      16.198358527008669      2.0980612870485951      14.213274247225684
   725   3      18.221191027399062    0.016994311464303431      14.016914119694128
   726   4      15.880184980437463    -0.20844368891045734      15.977304823739585
   727   1      18.146103939550059      2.0164674349867959      18.224277879216952
   728   3      18.458267952460176      1.9803946851178129      16.128620004344171
   729   3      16.119030796838508      2.2118556952753075       18.14213282251221
   730   3      18.335771881070063   -0.015841657424638809      18.326098893905144
   731   4      15.903058913895364    -0.15152058816635453      20.374535780918077
   732   2      18.086464677372696      2.0258122381012984      22.286721979012892
   733   3      18.342156719048905      2.1399860009265237      20.322032514196728
   734   3       16.21571367422489      2.0666270401999993      22.255662511428039
   735   3      18.346480425718827     0.10795159090384671      22.248051077737887
   736   4      16.103337715411421      3.6995829865743883       12.13345001970966
   737   1      18.190186715704144      5.9754495904868659      14.165018542363351
   738   3      18.293339357438104      6.0549908541516153       12.07459356872338
   739   3      16.120645161703852      6.2185112796670854       14.20741549864327
   740   3      18.449922318433952      3.9738656309411864      14.237616939219649
   741   4      16.371631890862705      4.0321442090542314      16.548280573161364
   742   1      18.197690465029876       6.084024128851782      18.263660272297166
   743   3      18.267024415955238      6.1568559947563628      16.188222011566992
   744   3      16.145986482295832      6.0075981606744744       18.02976993369516
   745   3      18.362780342894833      4.0498635342871312      18.058642202750988
   746   4      15.902335832293232      3.9483057895526699      20.375778155370913
   747   2      18.145938208459867      6.0828462774588541      22.162430013411292
   748   3      18.355237804691175      6.0237260652441957      20.297068986816218
   749   3      16.255197596522233      6.0770519660715117      22.309788538630755
   750   3      18.297505253438743      4.0779913102670511      22.460144751162112
   751   4      16.423820024494439      7.8769355149762674       12.45475051673918
   752   1      18.221319604588732      10.099374432450004       14.15465500991866
   753   3      18.155377896896908      10.342471101615248      12.091553582502582
   754   3      16.148321099287916      10.298888356146282      14.108046476924148
   755   3      18.208370041994549      8.0976238335637092      14.018914656594626
   756   4      16.418981903527907      7.7032299324177336      16.190705064808025
   757   2      18.092195551053511      10.125932898119503      18.255515599352691
   758   3      18.293275173896394      10.188402595429666      16.214204308226126
   759   3      16.211138292046655      10.184678818188244      18.154614967594817
   760   3      18.331413231481637      8.1484906088099915      18.201518182698194
   761   4       15.85566949489878      8.3866290792693263      20.334616705799895
   762   1      18.241430610442038      10.123307345362166      22.244513650226846
   763   3      18.340584541431664      10.058962736940256      20.187427001675918
   764   3      16.207051986780861      9.9570944104176906      22.192838472549042
   765   3       18.36926289889092      8.0043765980528256      22.345067150107464
   766   4      19.946807711218458    -0.17648442022155578      11.992130046473765
   767   2      22.211085444706864      2.0752146247314869      14.183929026462607
   768   3      22.570982339564658       2.025519901330656      12.174774751313919
   769   3      20.332150767928844      1.9382341100378957      14.003793688362725
   770   3      22.470530671857212   -0.047422553280454006      14.183686453399799
   771   4      20.162992853543354     0.38712620910501344      16.470896901687176
   772   1       22.32083450500836      2.0516352728191918      18.203024382474457
   773   3        22.2474852017817      1.8223986289222596      16.146840570793337
   774   3      20.307996365796249      1.8997879187561477      18.353305880874029
   775   3      22.509628144459768   -0.038142906075721981      18.272433012873879
   776   4      20.012954602072597     0.25320243863921521      20.040457992050431
   777   2      22.223286208132873      2.0031257799459055      22.255516583375893
   778   3      22.535278061844707      2.0684882337375465      20.364410657847991
   779   3      20.349739982045556      2.1781627787115538      22.243294945134139
   780   3      22.408266792767559     0.11134887206038063      22.407102941270736
   781   4      19.881822205766419       3.978357959407083       12.31321740803665
   782   1       22.26680183149692      6.0058402613066351      14.171998464237353
   783   3      22.405142866729854      6.0764336359223128      12.108919270656132
   784   3       20.27943755649795      6.2254996291390974      14.150051500101512
   785   3      22.397958600612753      3.9631432028658806      14.242239303331854
   786   4       19.83591754402196      4.1554911918291246      16.183613282385892
   787   2      22.233938070482804       6.020279541056083      18.142779046194978
   788   3      22.408754340993784      6.1561109770157758      16.268983238851153
   789   3       20.34618103766249      6.1659217437786467      18.263301906041871
   790   3      22.357799563282441      4.1214722718384413      18.368120428960047
   791   4      19.971045589535446      3.8694801228616158      19.802505631187909
   792   2      22.201053937769274       6.060724145354393      22.207705084662557
   793   3      22.356384187058175      6.1508879444320188      20.332396066667787
   794   3      20.322089965602895      6.0434703938434451      22.417682031621815
   795   3      22.501344890930877      4.1283354613087972      22.374263142246289
   796   4      20.028160696263807      7.7713151686277087      12.479369242155769
   797   2       22.22214473134872      10.040227532465758      14.054514810875801
   798   3      22.343595303722125      10.303844617293519      12.179066314096396
   799   3      20.308758166116487      10.182566263100092      14.173397637552309
   800   3      22.447988117433056      8.1687511251877432      14.158226594384159
   801   4      19.916396332259634      7.7795197127467279      15.970068194023103
   802   2      22.301392149297904      10.076862295993209      18.058151721824753
   803   3       22.38216839755534      10.214065082395985      16.176005364019275
   804   3      20.354870818902135      10.068361465238615      18.250064973347936
   805   3      22.433450399547574      8.1164170967757077      18.366007336019429
   806   4       19.95949184234593      8.1794830600948583      20.005181828433113
   807   2      22.138991316222924      10.145625433403382      22.218923934883286
   808   3       22.28661592618888      10.078673376140248      20.329698247459842
   809   3      20.284606902669719      10.020354193751885      22.428505838743412
   810   3      22.360782345648325      8.0799323349816294      22.452951393664033
   811   4        12.2326730037922       12.06880360770028    -0.39371818215726939
   812   1       14.17774485741641      14.136163611027285      2.0544409779830946
   813   3      14.358581107788259      14.313512060676892    0.028708088346757671
   814   3      12.132296760297768      14.335329848193064      1.9756419423109119
   815   3      14.398236533485958      12.069832773271795      1.9703471331861659
   816   4       11.94046074758737      12.159853965070464      3.9719873370580681
   817   2      14.173898190322067      14.204539840548582      6.0550932013649597
   818   3      14.034747000064394      13.872548007633721      4.0986308374665565
   819   3      12.172708025127164      14.371590923951571      6.2451266092668387
   820   3      14.163311074062941      12.142034771222622      6.3532636808105849
   821   4      12.204431821367871      12.010323468226728      8.3477296757613821
   822   1      14.162236168176928      14.148181006770075      10.124600513287326
   823   3      14.265820306578433      14.471327456554402      8.0442281601632573
   824   3      12.108062620316211      14.332489234870469      9.9267011676544517
   825   3      14.140237862459522      12.137625149054077      9.8030257153259619
   826   4      12.372422025726602      15.762681055495959   -0.024536399846709311
   827   2      14.221428074921823      18.119146777514722      2.0606610879928273
   828   3      14.118185202655523      18.151502521620376  -0.0015568238330685544
   829   3      12.209274655447228      18.348815976255214      2.0746727949953692
   830   3      14.221277817061734      16.229856261457265       2.220837488512847
   831   4      12.071072114772472      15.919762703058483      3.8452542057593329
   832   1      14.206153095489329      18.156790611068192      6.0174647973677882
   833   3      14.221540554445589      18.550629855942841       3.988603107268565
   834   3      12.147623646024442      18.246773943100248      6.0671086182040304
   835   3      14.284146055354494      16.146266860910476      5.7553908729825025
   836   4      12.322496591362702        15.9965489327548      8.0641036517100382
   837   2      14.211284051704961      18.197510596922609       9.917676260207946
   838   3      14.188524553701594      18.056214976862453      8.0543844701738063
   839   3      12.204683189094903      18.117400985070901      10.232857351137817
   840   3      14.229282379536059      16.241843311667932      10.356268293791391
   841   4      12.264079105585841      20.015804038436475     0.22124718756901882
   842   1      14.151133584462098      22.260230646383008      1.9806914395237412
   843   3      14.132312563508401      22.679356961139984   -0.061774565158292223
   844   3      12.104554062828544      22.433056384354096      1.9635094470195436
   845   3      14.116286952299525      20.251158555623675      1.7156804678978785
   846   4      12.261326072094954      19.987274096140521      3.8833325779724244
   847   2      14.129941898775201      22.253016840112984      5.8885825267557133
   848   3      14.172891577909727      22.109375171817288      4.0192676993383971
   849   3      12.190338491491891      22.323408037522196      6.1997295328337811
   850   3      14.097173601022469      20.286349138133833      6.3209408609968714
   851   4      12.187929332799508      20.222973567489188       7.780367835028664
   852   1      14.136925241939313      22.237717823497185      10.089904739837387
   853   3       14.13058437586108      22.570096380252014      8.0857444687761202
   854   3      12.105894674469283      22.498835208739809      10.133291068721359
   855   3       14.06733086270552      20.188892299770483      10.098794769514257
   856   4      15.817508455909637       12.26701412900881    -0.10990344997646016
   857   2      18.205232984168248      14.319922982347693      2.0403816882488801
   858   3      17.978741969533392      14.261282201427917    0.042605847654270217
   859   3      16.266749611146686      14.135428565132417      2.3087564810635981
   860   3      18.324903303114333      12.071347420425287      2.0825286456771681
   861   4      15.950978377812234      12.321510366491555      3.8957930147335911
   862   1      18.194485926933453      14.129517761606236      6.0480983920515232
   863   3       18.54774623567786      14.072790650684016      4.0136298432271884
   864   3      16.168812104858866      14.161771976872117      5.8606183338327202
   865   3      18.525724743597507      12.087676925949379      6.1145807762699427
   866   4      16.060427422431804      12.268540515161469      8.4677583970737533
   867   1      18.231591156926704      14.121505601573656       10.14332945828326
   868   3      18.286325384518619      14.310191402233183      8.0788959671890446
   869   3      16.198843245980928      14.225279151484983      10.063299608414088
   870   3      18.387622914130453      12.121966393871668      10.005160049661882
   871   4      16.070857569932155      15.835393721176244    -0.12329422631302987
   872   1      18.220905609311604      18.202838390172442        2.00043163508554
   873   3      18.337252583360662      18.351364128015504   -0.071750321966700864
   874   3      16.173393106932728      18.426482487553759       1.977757206569114
   875   3      18.293676168292365      16.191456751300766      2.2143276491215258
   876   4       16.16028478809389      16.067155809610188      4.2552836467172517
   877   2      18.222421848622805      18.181860012686482      6.1484819986800101
   878   3      18.168297672367292      18.542102298857753      4.0410004650110052
   879   3      16.251269182277568      18.478784596501015      5.9998210552673381
   880   3      18.147193906214575       16.24537160592298       5.799959075982307
   881   4      16.362697674492487      15.770477116657256      8.2685374816909825
   882   1       18.18460103901435      18.244719761428737      10.104370021140465
   883   3      18.339117349573204      18.167623068800186      8.0633421104648253
   884   3      16.144683722664436      18.297575098131791      10.276320969298633
   885   3      18.197329019340671      16.218274996851829      10.261955613487119
   886   4      16.146972006632584      20.112486109939862       0.255838843939307
   887   2       18.08762999484415      22.326983273083055      2.1065559199684785
   888   3      18.253634177376462      22.582567699272285   -0.011251871748938555
   889   3      16.209862975740094      22.378298504865235      1.8903747077691033
   890   3      18.276901254124532      20.404259109808386      1.7764275477082034
   891   4      16.240895670983669      19.952101866809507      4.0293720022443367
   892   1      18.164924138696183      22.260962442847539      6.0532344616506677
   893   3      18.341396187548863       22.19672666832988      3.9930494551433093
   894   3      16.140108761810733      22.125003150578703      6.2726430378922702
   895   3      18.421729066640612      20.245610956593147      6.2148763659986406
   896   4      16.040186377363877      20.252093124698632      7.7373018408430534
   897   2      18.032466955871026      22.276198347894585      10.144768780334314
   898   3      18.376110715354844      22.345306543606622      8.1486540756977597
   899   3      16.165166498498298      22.216987066425286      10.125810058332908
   900   3       18.45653021103594      20.300140367687668      10.045553421859797
   901   4      20.440417135955375      12.367724452103078    0.079727970944885346
   902   1      22.253297066309266      14.149775633994617       2.069396774408871
   903   3      22.312586614187847      14.249366560410081   -0.012433699540977812
   904   3      20.188012989730403      14.115064340723034      1.7201059275772912
   905   3      22.244713982605116      12.077973480530897      1.8129225621622942
   906   4      19.973417759802487      12.191366915995053      4.0797138743975569
   907   2      22.208090001993472      14.146332660990341      5.9634347894164756
   908   3      22.134004021062999      14.182637461064784      4.0879055847770394
   909   3      20.323687791246755      14.394428157948951      6.2015417709652398
   910   3      22.212155025575044      12.196636981605433      6.1485013124496088
   911   4      19.844626293106082      12.268407890955601      8.0840825241266536
   912   2      22.297960938044696      14.075476004007948      10.095169011892063
   913   3      22.429189318125363      14.333801496239115      8.1552402845835967
   914   3       20.36137823920383      14.466844205117585      10.104224776159482
   915   3      22.159673263589163      12.228207305985169      10.168372427201575
   916   4      20.436598257188255      15.843527492458135   -0.056171497521984387
   917   2      22.164519514135371      18.128280571473308      2.0369213899857068
   918   3      22.284531918169026      18.437677774391492    0.021371064502355219
   919   3      20.292990418317494      18.444294469526373      2.0419121316905482
   920   3       22.24027079672868      16.257971979817654      1.9324696601651563
   921   4      20.044741998602472       16.10745864262444      4.2323230938677563
   922   1      22.192108463694662      18.199499584298223      6.0620853960206205
   923   3      22.431145307393184      18.287892399563631      3.9582168530984441
   924   3      20.199557208061456      18.152341034307817      5.8271819474261699
   925   3      22.568703176231043      16.165751488948207       6.092925617585407
   926   4      19.908407101368933       15.97924816776109      8.2218198690053139
   927   2       22.16408062505775      18.303296467795278      10.058392323846633
   928   3      22.430823090220343      18.262104321272318      8.1425982679471769
   929   3      20.309490054630061       18.11381734350849      10.219035136929719
   930   3      22.608871748204503      16.318201114842182      10.167888915523685
   931   4      19.989804296273395      20.071506669010351     0.10890865086432894
   932   2      22.219865283068135      22.198516182049875        2.01844078376247
   933   3      22.501777113896566      22.325347905725689    0.082782613403922983
   934   3      20.335418457430379       22.35709949493712      1.9631154608726777
   935   3      22.405253169028285      20.316652648818284      2.0585588643428649
   936   4      19.971964264111588      20.026825552712808      4.1898276176823908
   937   2      22.145750922991194      22.284583419783235      6.1174211735992383
   938   3      22.375540901601362      22.455262875999292      4.0278358090974162
   939   3      20.284663304727989      22.459552741699348      6.0575689056412694
   940   3      22.321211097349209      20.336962039206327      6.0087640177593862
   941   4      19.872054348582463      20.361657733866593      8.1130197413508434
   942   1       22.27456340190356      22.254053127987728      10.102031766456319
   943   3      22.402735531244712      22.378204332278052      8.0367214415930999
   944   3      20.263581385415794      22.463816299261079      10.152465286071079
   945   3      22.247613008898075      20.220765751893051      10.258529804072047
   946   4      12.080928678945821      11.827089205290488      12.128610612598019
   947   2      14.190313168859383      14.136575840502385      14.041408065452503
   948   3      14.090622265840286      14.093136225652783      12.178427983666316
   949   3      12.136659585930943      14.199852992032353      14.341009022869281
   950   3      14.242859570221569      12.232835291617137      14.366122227415381
   951   4      12.066913307904914      11.709231902190236      16.323294624875086
   952   2      14.185425558276542      14.030028609731426      18.182073766528607
   953   3       14.22052830250076      14.475921960578736      16.245731499687398
   954   3      12.175752832205509      14.355954019932581      18.205303282661429
   955   3      14.152879850818071      12.174199978715597      18.056367426785872
   956   4      12.255998664520101      11.695962195710914       20.07701508109583
   957   1        14.1590921895358      14.144608721622323      22.223919931301495
   958   3      14.158507765449524      14.215661976372944      20.180822798799383
   959   3      12.127232643287607      14.142174546844538      22.548637934195948
   960   3      14.319213829413874      12.134212119365666      22.430305868464657
   961   4      12.548674610588952      16.390693134272325      12.072837679032954
   962   1      14.172185760355932      18.201019950298587      14.187037785911459
   963   3      14.065047072679592      18.422089290340857      12.177480880008282
   964   3       12.08820088617626      18.299329625065862       14.31312520532242
   965   3       13.98650629535218      16.162451386720921      14.110346884900281
   966   4      12.309309023186431       16.14478696971273      15.888041417168958
   967   2      14.167617546691424      18.277782312167425      18.101993616442918
   968   3      14.137832315811469      18.106171634585539      16.253498288919534
   969   3      12.167766496522042      18.306406801912264      18.443392086449364
   970   3      14.170902926851962      16.328789847638529      18.501670085322775
   971   4      12.272024679646995      15.940392003157445       20.07293344875848
   972   2      14.163887693101177      18.143121594189846      22.260218220069817
   973   3      14.219514404195015      18.521718476001659      20.365966673771929
   974   3      12.196352964568458      18.460716245542869      22.237892049211375
   975   3      14.113997947994983      16.266634503435633      22.218056375752859
   976   4      12.311981635005758      19.965685045204626      11.849523608882778
   977   2      14.068551567372808      22.244078707974076      14.081530468333613
   978   3      14.214346082474211      22.123289584877227      12.179995762039374
   979   3      12.136734118326768      22.314343193718489      14.324439704368642
   980   3      14.114156520240551      20.300671095261254      14.455620685838266
   981   4      12.090642910274806       20.16253353451113      15.858328106679613
   982   1      14.114538292647964      22.273991508279074      18.230657537677367
   983   3      14.100343153997152      22.625909060839291      16.209703425798555
   984   3       12.08071116098872      22.428044688706898      18.291651668147274
   985   3      14.235741402553064      20.224759303120013      18.228953667572508
   986   4       12.05996332542273      20.033894329557214      20.233870818686722
   987   2      14.140729006152329      22.200197199512324      22.292043012637535
   988   3      14.334745914807565      22.159019334780126      20.323744417959055
   989   3      12.192944966674004      22.387552371642698      22.248122050103923
   990   3      14.270647729408882      20.303933318319896      22.563634777591783
   991   4       16.29411334350004       11.88014263311918      12.132106628660354
   992   2      18.285658739026275       14.12971473687808      14.157561444466033
   993   3      18.277967215426397      14.205839573596167      12.216684712235494
   994   3       16.18779274088903      14.292368650260164      14.261483569221623
   995   3      18.259900418238708      12.233588776196575      14.305658673497753
   996   4      16.148267590398831      11.781843576908786      16.097159925764799
   997   1      18.176915431791638       14.10748105609091      18.220232591741713
   998   3      18.186563877036392      14.401207709948782      16.167630719554982
   999   3       16.13646212242093      14.362896382746957      18.221160576097311
  1000   3      18.466612858716292      12.090080871928867       18.16199857480715
  1001   4      15.885349779886207        11.8138205762066      20.637244794572585
  1002   2      18.219183435160971      13.993494208833747      22.190719590156039
  1003   3      18.311254824644703      14.191921580293968      20.298802215108129
  1004   3      16.249500720721965      14.401776562783075      22.250780155576102
  1005   3      18.109095985121613      12.146566049015059      22.345974644144256
  1006   4      16.313826711269684      15.987254626816558      11.716484221979641
  1007   2      18.084500145670244      18.234854495314234      14.074515752910015
  1008   3      18.274607461559096      18.459674103061438      12.205097586443369
  1009   3      16.204351904504612      18.422030106050233      14.222701007229739
  1010   3      18.173794733173061      16.298154057058408       14.13947127515258
  1011   4       16.27677277279107      15.889116955016682      16.187189663779062
  1012   2      18.239634171663358      18.141639420003614      18.194926315408196
  1013   3      18.243395361264636      18.273490612120725      16.284672964971893
  1014   3      16.199275100616671      18.317379937153543      18.379837263730231
  1015   3      18.173573282036781      16.274560153561318      18.354336326711579
  1016   4      16.126349432080822        15.8359823692176      20.118812619590184
  1017   2       18.14218973117498      18.102673071321952      22.305851978687397
  1018   3      18.201409190756173      18.498140987275463      20.337213418443696
  1019   3      16.190323532871986      18.268497081578634      22.369666950808334
  1020   3      18.303794275951439      16.254976041201232      22.259469939857027
  1021   4      15.915295532603507      19.990716966587023       11.97010424651763
  1022   1      18.180923081058491      22.287482763311722      14.176261384607885
  1023   3      18.347727204162851      22.154770978544498      12.111751355193809
  1024   3      16.127196781279284      22.217783216586525      14.407022365392585
  1025   3      18.294631449764641      20.220215559726849      14.414696745332446
  1026   4      16.110321982916606      20.329800175248842      15.873669545860032
  1027   2      18.066189919329148      22.353968716513947      18.149845913582624
  1028   3      18.350776344197186      22.282485740597611      16.273069779112699
  1029   3      16.192512886596703      22.331657218417789       18.19641209886645
  1030   3      18.302176462683338      20.347017667204433      18.310819761827126
  1031   4      16.018462094920352       20.23546403861144      19.991059227911151
  1032   2       18.31723216718677      22.224914299156183      22.241885384397325
  1033   3      18.185794305842229      22.311022748995804      20.291279945860467
  1034   3      16.197603430768552      22.580965284385304       22.37971042662689
  1035   3      18.143705759244451      20.354267215823789      22.424939384553717
  1036   4      20.156701578590866      11.849727957072146      11.935470368902145
  1037   2      22.352543081706454      14.098577395537989      14.160161738709093
  1038   3      22.263631585625195      14.399290585488071      12.149999854171138
  1039   3      20.230622985513278      14.376404184877362      14.258657836690242
  1040   3      22.152853698389986      12.225445891903201      14.205012606826759
  1041   4      19.968893741001558      11.873909575928062      16.150217882834426
  1042   1      22.300469323159064       14.10961125702393      18.158642840177148
  1043   3      22.269623663634853      14.412371806387318      16.126406391456872
  1044   3      20.241301539290479      14.266919140317885      18.232687172919736
  1045   3      22.270229828625734      12.065158470617048       18.41034682138708
  1046   4      20.283796399087976      12.340948968306131      19.826296291024448
  1047   1      22.244738658672475      14.093055867371506      22.251026223569305
  1048   3      22.179604090794371      14.274595800386551      20.272690818326627
  1049   3       20.15050905015579      14.174474509121275      22.560548368369322
  1050   3      22.330511884621391      12.054387391716793      22.430221553457812
  1051   4      19.954923682587861      16.092324145387071      11.880836691080727
  1052   2      22.141870387703559      18.210648268650026      14.183078256113875
  1053   3      22.479469446860442      18.265739450230456      12.202891804875565
  1054   3      20.271242032323862      18.308756841221605      14.231318657555036
  1055   3      22.437785611113771      16.301721485553976      14.168253559090136
  1056   4      20.247480026788711      15.789923092636503      16.406935604075599
  1057   1      22.219829992932404       18.26309241286237      18.222489779400377
  1058   3      22.441029499739383      18.261045524479432      16.155974021032463
  1059   3      20.172273888699724      18.334741045931658      18.415358806474948
  1060   3       22.37803115253395      16.236763734208512      18.257097297427233
  1061   4      20.456404078331232       15.85799840296235      19.938086074223751
  1062   2      22.153288594716706      18.251033116247633      22.215124142869527
  1063   3      22.388821883687779      18.333463364536922      20.321429567594468
  1064   3      20.241468146398173      18.468265898546797      22.248811528941232
  1065   3      22.235429449001185      16.328362528028688      22.412941861545232
  1066   4      19.978172027885929      20.381677859659419      11.928657738841215
  1067   2      22.177862532500754      22.310592420835174      14.112799633572289
  1068   3      22.386429743915993      22.245999100633078       12.22764154897872
  1069   3      20.315346668679574      22.211786086000053      14.231569598687818
  1070   3       22.39873056489623      20.281743666730161      14.290765161717733
  1071   4      19.932560139793363      20.354576003181485      16.039344700661569
  1072   2      22.181197834118798       22.28662160714806      18.242732204115395
  1073   3       22.45197956422896      22.299862077031129      16.249647584883274
  1074   3       20.29804960470965      22.334048675309976      18.332052043011807
  1075   3      22.423124578182087      20.332956272741249      18.268840445101898
  1076   4      20.042979373294898      20.089356766695698      20.060902455104699
  1077   1      22.211808114985679      22.304462380033591      22.274855639386026
  1078   3      22.511244185281598      22.315818808782385      20.220895209075731
  1079   3      20.194575818833702      22.318930362842234       22.32892426747345
  1080   3      22.536068256981363      20.260705756973895      22.290678104772095
