(written by ASE)

1080 atoms
4 atom types

0.0      24.299999999999997  xlo xhi
0.0      24.299999999999997  ylo yhi
0.0      24.299999999999997  zlo zhi

Atoms # atomic

     1   4    -0.17758654712868532    -0.20785780900015499    -0.13090992653006897
     2   2      2.0106762303965997      1.9310992679755024      2.0412741622602777
     3   3      2.1915513676641396      2.1052080945309517    0.082020043013802696
     4   3    0.089630533549412694      2.2339823452139895      1.9759695469925782
     5   3      2.0525909692860496    0.074405472947087423      2.1540306920610863
     6   4    -0.23064380672927579     -0.1030740843891432      4.1694723317109901
     7   2      2.0757631233551579      1.9047098561467006      6.1653331995623297
     8   3      2.0199004061733508      2.2793057381790525      4.0440038494215793
     9   3     0.11222752208994397      2.2890738449080468      6.0981947396058676
    10   3      1.9073020912527776    0.037620680717385023      6.0249711772810253
    11   4    -0.30541541531129945   -0.083823687819666579      7.9960679216267829
    12   1      2.0512366591247755      1.9617851145028968      10.082710280950005
    13   3       2.087942377158484      2.1204357133080989        8.05471642932803
    14   3    0.020299979577492158      2.2659951450787097      10.098303392216105
    15   3      1.9513898081944787   -0.087045914428223778        10.3389964341234
    16   4    -0.11498709856314913      3.8762163884183449   -0.041760423138213154
    17   2      1.9841797619600872      5.9914635870251853      2.0713925768949637
    18   3      2.0851999118032021       6.342245712596319    0.088653163919825848
    19   3    0.084978746284185072      6.1519470097411322       2.167723772865914
    20   3      2.1525928089141559       4.129075385713473      1.9480613599562053
    21   4   -0.074250141600884376      3.7455148860595942        4.20059923245209
    22   2      1.9894238538958497      6.0705312947465053      6.1475294089489747
    23   3      2.2195114529864655      6.1155180162461624      4.0261122031178278
    24   3    0.071006392098976343      6.0948666788415577      5.9745512658307218
    25   3      2.2253424260439099      4.1675690873449671      6.0721015483162324
    26   4   -0.042714703957986426      3.6931905797685856      8.1649480811095021
    27   2      2.0720662062382376      5.9295450954707656      10.200407748014484
    28   3      2.1421405306637662      6.2645810934470862      8.0615639274352091
    29   3    0.096058152620827134      5.9993210398631076      10.016725484795055
    30   3      2.2535654509430931      4.0744366611416627      10.093586874429874
    31   4    -0.22999516903874184        8.05302867262394   -0.057903159349767107
    32   2      2.0231263457664004      10.053937996183201      2.0325495115600658
    33   3      2.1545697634885683      10.199749971796432    0.023079311639293117
    34   3    0.073404668967804135      10.328514272192956      2.0397704289139948
    35   3      2.0551235524818239      8.1774894573981687      2.1760564978216275
    36   4    -0.06520574770646613      8.0015725664409416      4.2293802072360958
    37   1       2.002160107738991      10.103762750147064      6.1077213443777341
    38   3       2.021378453598067      10.437966880837321      3.9863684880028689
    39   3 -0.00076086382161984244      10.429459457222471      6.0332089860286828
    40   3      2.0053213447989378      8.0910635698802551      5.8150802154027765
    41   4    -0.20365652369704476      7.9591961015888275       8.295179622903424
    42   2       1.996591049818728      10.023257463347363      10.146687987782578
    43   3      2.0232260255759278      10.322630024268348      8.1679876528806261
    44   3    0.081283102417942218      10.432001507759772      10.154912615677594
    45   3       1.888465933236829      8.1601045261174292      10.111817223508696
    46   4      4.1613448231714107     -0.3158787499774669    0.063064548165940537
    47   2      6.1208137729238361      1.9699576898923588      2.0476654892680908
    48   3      5.9464149619316435      2.0467784003688423     0.03047384575546392
    49   3       4.062257037196459      2.1782231973505719      2.1268808177393583
    50   3      6.0811942396299843    0.088015015951321968      2.1638983004087118
    51   4      4.2275338027397193    -0.32110578890396047      3.9493924973827954
    52   1      6.1151637144596735       1.963634596022813      6.0533825185079042
    53   3      6.1117292856098562      2.3012390347694813      4.0109385759120935
    54   3       4.030665750165622      2.0886053707679948      5.9758240688166469
    55   3      6.0755981591685515   -0.064441431798535134      6.1248570480988151
    56   4       4.377298215295796     -0.1929598776589406      7.8754442273282521
    57   2      6.1097970517895446      1.9010972949676399       10.09625442682341
    58   3      5.9910189167277901       2.086917326750692      8.1239026944855475
    59   3      4.0885365726014165      1.9049110531144384      10.307884621447455
    60   3      6.1620460739253673  -0.0059998265675769687      10.155759298438868
    61   4      4.0909762926065367      3.8338771189652316    0.037203864961257833
    62   2      6.0414388422350083      6.1004683093516743      2.1289125477243083
    63   3      6.0454293498810108      6.3805030702280661   0.0068265332005358406
    64   3      4.0795445382651696      6.2714481515221108       1.959018689540212
    65   3      6.0251001251830871      4.1496026638451307      1.8519109296016634
    66   4      4.0889823660727034      3.7518585644910809      4.2124951860641611
    67   2      6.0800196613026198      6.0799735526756677      6.1965405168763716
    68   3      6.1816358338647941      6.0720766799376626      4.0559980114203027
    69   3      4.1168244962054281      6.3541241568895535      6.0141674952828561
    70   3         5.9764093849597       4.181763917328813      6.1722404968594349
    71   4      4.2467065545698306      3.7741459409958273       8.146808316592324
    72   1       6.085433485614578      6.0233110139456949      10.115973008886028
    73   3       5.988692702997108      6.3106452226620124      8.0807794264021311
    74   3      3.9972652023085651      6.3967604878185682       10.09841954949607
    75   3      5.7828448991070891      4.0188884460163274      10.058186528767701
    76   4      4.0510369924382621      7.8477027070336209    0.010412179323908808
    77   1      6.0255451540010219      10.122433818804744      2.0262576091696256
    78   3      6.0844970910581058      10.292382821298656   -0.039872536585768864
    79   3        3.99954136873406      10.333813060483187      2.0478028283700422
    80   3       6.240693577598968      8.0962644810705626      2.1477012455598068
    81   4      3.8471916979914202      8.0883187408950921      4.2891287690903672
    82   2      5.9829701980781698       10.20546987342904      6.1370526122599118
    83   3      6.2590391494593041      10.207622338590046       4.083970784058466
    84   3      4.0709910585198159      10.075840944604199      5.9398036895555046
    85   3        6.23398502468494       8.163848470438138      5.9051607131579589
    86   4      4.1324244032752198      7.9102469617269771      8.2987090750862897
    87   2      6.1301874813813324      10.114821690244925      10.238263825334478
    88   3      6.0085258257483352      10.122662482117811      8.0910334094545924
    89   3      4.0112395404773666      10.137916015198506      10.074231054840189
    90   3      6.1357285203832275      8.2107616203377116      10.211260035086722
    91   4      8.1815858018952721    -0.33436011408589328    0.041162534691269625
    92   1      10.091058327533716      1.9903723163313765      2.0284466613003076
    93   3      10.150324037688273      1.9163750377019959  -0.0080142034055748854
    94   3      8.0447750221798628      2.1963245629365602       2.049765145730877
    95   3      10.114912615142545  -0.0026069556176448491      2.3282228193732721
    96   4      8.2617013516387026    -0.26150754289782691      3.8209250950912663
    97   2      10.136232383037058      1.8138938522139774      6.0575238616172804
    98   3      10.056015366425047      2.3009561026689531      4.1267332955753862
    99   3      8.1495848567098523      2.3042215990528554      6.0828806356472693
   100   3      9.9908518591312401   -0.038681661429978087      5.9311736206223529
   101   4      8.3898651108256388    -0.30735314094828303      8.2495345631045804
   102   1      10.128760568511156      1.9847940895056329      10.088190176082444
   103   3      10.055183873540958      2.0522169131085302      8.0404144360448928
   104   3       8.055894875296266      2.2494996656194313      10.083593517471407
   105   3      9.9558702054282335   -0.018288370059477286      10.237648440608485
   106   4      8.3416427053364757      4.1301239985079521     0.34598183158739287
   107   1      10.046495769092713      6.1071914673007059      2.1048361895389021
   108   3      10.178622399280846      6.1854802866237621 -0.00012163468028446585
   109   3      8.0453204251321679      6.0512365013923413        1.82914302171966
   110   3      10.217158508856729       4.061302257184181      1.9228178677419128
   111   4      8.0690099507207904      3.7264961165051051      4.1265377023590339
   112   2       10.07579015854594      6.0193702354107819      6.0201633095054481
   113   3      10.221443149298725      6.0515384360767959       4.133853563860967
   114   3      8.1277769099590564       6.080666748103134      6.1484999075378104
   115   3      10.242399669954818      4.1520735888476503      6.2693095198174493
   116   4      8.1391206454274805      3.6587668425374642      8.0544360274455453
   117   2      10.123349937461271      5.9154418992506868      10.155852313581992
   118   3      10.142384984552683        6.33580288695729      8.1326947102841345
   119   3      8.1332459086300535      6.1222489379750105      10.124048204407901
   120   3      10.232354810158638      4.0498962460215218      10.051432929184125
   121   4      8.0733438309814431      7.7415272923201064     0.06140038930542123
   122   2      10.018296300870341       10.14484753395803      1.9906193509008008
   123   3      10.249078903195475      10.132485191512794    0.059588551543676968
   124   3      8.1514180661041653      10.238109987592766      2.0246018234360879
   125   3      10.212190729725359      8.2188115923661407      2.1126507515986033
   126   4      7.7355220671710185      8.2808553843175385      3.9858623853172501
   127   2      10.066617522983343      10.035877201920146      6.0830259938756752
   128   3      10.174941694389107      10.351120354007927      4.0757822664512275
   129   3      8.1392635585575821      10.314121481124639      6.0550593480764237
   130   3      10.055350082410875      8.1561307202019808      6.0104736562623291
   131   4      8.3112595677460366      7.9814063270281084      8.4178728866414403
   132   1      10.127043941946962      10.148023520883912       10.13043258640541
   133   3      10.031654878913569      10.153450480327001      8.0317455987298647
   134   3      8.0142837054144103      10.421722957908306      10.059673453466361
   135   3      9.8803499626727653      8.1489847441370902      10.225416759200657
   136   4   -0.061704492872758719    -0.10120329568975006      11.843811358743448
   137   2      2.0642011153081903      1.9861744985276961      14.041971065337158
   138   3      1.9030414023052233      2.0970165899867568      12.175986594231912
   139   3    0.069430443998184502      2.0074127143120224      14.387449416199688
   140   3      2.1105573068123129   -0.011694174861491879      14.224949118767961
   141   4    -0.26684469307751696    0.075227224700888995      16.130513961772706
   142   2      2.0261962198443859      1.9460210355804093       18.14668357231411
   143   3      2.1721007594643456      1.9624277093436093      16.284556453512121
   144   3     0.10711053513700838       2.155886499997179      18.292269667494178
   145   3      2.0397456742407458    0.043823411884002961      18.465208842822694
   146   4    -0.22371472881340182    -0.12034385254223565      20.089221148026763
   147   2      2.0595085923319978      1.9503159886346326      22.258452909088231
   148   3      1.9623087296572581      2.2099294797230553       20.37890165266662
   149   3    0.094742250532262012      2.1106721114926379      22.542285709862085
   150   3       2.155162919957252    0.061488569821777958      22.327301588001397
   151   4   -0.032354506068721957      3.7835488183836627      11.922154132328597
   152   1      2.0708836375847235      5.9943687324494128      14.129975919904744
   153   3      2.0233461669795125      6.1453198352337663      12.093766408334149
   154   3    0.030982436602342438      6.1234361768776777      14.240158619879228
   155   3      2.0157483186640173      3.9625397546662926      14.392450314338454
   156   4    0.039638481251702072      4.1561708123727614      15.761910056902753
   157   2      2.0747584678692204      6.0652390455429837      18.133247744167935
   158   3      1.9532727878403535      6.1672500186048085      16.254033388882114
   159   3    0.050087890974976276       6.093881661127881      18.433443347257946
   160   3      2.1097009055885039      4.0845771201095955      18.343970401961059
   161   4   -0.060230354553811816      3.9008405054300535      19.964925875323665
   162   2      2.0015347849134328      6.0041936926209436      22.269879773654655
   163   3      2.1020932624445385      6.0582800164163482       20.37723886251797
   164   3    0.074366659847883237      6.2419843512201343      22.396935750220919
   165   3      2.0059443189444055      4.1272409832464536      22.523960103542187
   166   4   0.0064443660350084345      7.6593224601918024      12.343698871669615
   167   2      2.1083142077871906      10.063384887597421      14.269746144707543
   168   3       2.018911914275026      10.388479407698808      12.128299628400995
   169   3   -0.008500782036248572      10.428653191914876       14.11129525045189
   170   3      1.9079344721251543      8.1649916676315986      14.077917265426171
   171   4    0.052987414327373285      7.7887951531816766      15.895843170345737
   172   1      2.0072412925577892        10.0893655987934      18.190582322128897
   173   3      1.8872489846755602      10.125410188529679      16.164414550922494
   174   3   -0.036152014211569564      10.186499259804812      18.453463637766458
   175   3      1.9891655054710862        8.05331196869877      18.484410936906851
   176   4    0.053698505361961649      8.1348475832368923      19.931250789236245
   177   2      1.9489608642627463      10.049863633753807         22.248582834617
   178   3      2.1011819506902105      10.315728411050589      20.367513108127831
   179   3    0.057154385979565278       10.08045246129303      22.361530809547766
   180   3       2.192903312684805      8.1691098246373972      22.304205025548697
   181   4      3.9654929914701018   -0.099020450793654374      11.763653796232697
   182   1      6.1009572313327096      1.9593330517160434      14.137861846724864
   183   3       6.172804358948353      2.2406384456860775      12.107789002072449
   184   3      4.0216351222371722      2.0850211768806584      14.197627187755918
   185   3      6.0503520462776219   -0.065304788466596403      14.271604687062789
   186   4      4.2285238345547844   -0.037936014500475138      15.905920791691278
   187   2      6.1598345856588503      2.0638631134417613      18.140238584336085
   188   3       5.924477001087614      1.9758738084336449      16.273868063205835
   189   3      4.0202745796127521      2.0270262072940164      18.520547237005871
   190   3      5.9988249449247961    0.073733799621189727      18.443788061801282
   191   4      4.1840815039035366   -0.088117073332903362      20.046583498515087
   192   2      6.1124053435457446      1.9516991298750122      22.271549194323427
   193   3      6.0250173195490637      2.2195862227781746      20.351883413590716
   194   3      4.0393520286876763      2.2702281721337654      22.345380296732035
   195   3      5.9084275584638064    0.076303204539629313      22.227105470325224
   196   4      4.3008816266389731      3.7970627629713118      11.921255603825362
   197   2      6.1477284159381167      6.0224639572032981      14.097074767119553
   198   3      5.9645260336350328      6.0417206480030732      12.163375540199247
   199   3      4.0746932657033232      6.0961470184582662      14.306135901254221
   200   3      6.0618978632688378      4.0836730899124278      14.348028219086677
   201   4      4.1243784119424216      3.9580261906255885      15.826193729388619
   202   1      6.0737596303554193      6.0174271532883461      18.197322065212774
   203   3      6.0906984818632512      6.3308079113703029      16.175546619937716
   204   3      4.0109185117609911      6.2102335897379728      18.302344087513198
   205   3      5.8903539189961283      3.9952483008384263      18.257098382234791
   206   4      4.1871384365949913      3.9593780191890362       19.97317828704935
   207   2      6.0884343362944691      5.9797387230449592       22.24876601781224
   208   3      6.0548670877678061      6.1095081055497529      20.332268643895627
   209   3      4.0563745773383291      6.1610024703651236      22.474226270641694
   210   3       6.091911723531755      4.0952959447656001      22.451658034427204
   211   4      4.2534091679809665      7.8115806220816628      12.223010209704299
   212   1      6.0769222947747776      10.090869141564369       14.15105883438183
   213   3      5.9496811745435734      10.342088703556001      12.110645813292781
   214   3       4.005315941306776      10.204760807921641      14.159715583554412
   215   3         5.9087381612862      8.0586419633245132      14.072539646697617
   216   4      4.2968759740302849      7.8396238463327057      15.956669320413754
   217   2      6.0133830979590526      10.141859611906757      18.071715090413214
   218   3      6.0515477233435879      10.029212668413331      16.216198434088682
   219   3       4.096296052466089      10.160013668578593      18.404897278230031
   220   3       6.074879745227979      8.2043972214129983      18.480016445508863
   221   4      4.0488977086202471      8.0058216520570564      19.920924568423121
   222   2      6.0019534686866907      10.051314433174058      22.281244230415442
   223   3      6.1665878507247891      10.342587489393001      20.342229706126009
   224   3      4.0926911062556641      10.374537309629368      22.308254046703819
   225   3      5.9899826917574881      8.1773101797330696      22.239311829753561
   226   4      8.3294137027831674    -0.27495886983551093      11.927025268265973
   227   2      10.132502233691808      1.9485017857321318      14.062302887961502
   228   3       9.963357038476417      2.1401879738725023      12.167731088592813
   229   3      8.1190270370466067      2.1584442585985761      14.300149855938461
   230   3      9.9624807791431937    0.021620799408850658      14.163521760983189
   231   4      8.2488914625223444    -0.21219948134964758      15.930523744289665
   232   2        10.1569004261536      1.9178810254564216      18.230054155601348
   233   3      10.118223266964197      1.9573401999304962      16.266286138953827
   234   3       8.074321512489993      2.1275485442824573       18.22324464793142
   235   3      10.034970254521335    0.048107548536050669      18.403198681739923
   236   4      8.3283746056599579    -0.25333497341219613       20.40629270453439
   237   2      10.200501506110159      2.0436120981477375       22.43125155391153
   238   3      9.9913016064054396      2.2955372917374453      20.189637696341336
   239   3      8.0447671595968764        1.99559419352877      22.258424134506974
   240   3      10.147065302525606       0.105744653887442      22.025044399043285
   241   4      8.0724454293752643      3.6971248464152202      12.058092626666141
   242   1      10.138665903380891      6.0201423029120935      14.176078450443564
   243   3      10.130336915121482      6.1551380507334361      12.118564779414966
   244   3      8.0889317703821213      6.1461145399857671      14.234476520831763
   245   3      10.107663236471268      4.0066811808120208      14.449534121763818
   246   4       8.189375668213783      3.8828340801930099      15.877449762452418
   247   2       10.09022499692648      5.9538281012187673      18.246411563443804
   248   3      10.113965562404076      6.3808915212558635      16.264561355630981
   249   3      8.1232356445555727      6.3146668845981058       18.17627259457921
   250   3      10.053625951298308      4.0754281584963961      18.041680524035996
   251   4      8.3363857950497593      3.9860563397569759      20.459781929928571
   252   1      10.065830861913961      6.0782239077598845      22.236471195586983
   253   3      9.9621329829629754      5.9518162099008407      20.186383799976827
   254   3      8.0008989815228162       6.243829313856696      22.374563823072044
   255   3       9.911990071094845      4.0052923325498924      22.304850315362405
   256   4      8.3449075508401656      7.8270908924825671      12.022380623404507
   257   2      9.9725197317136001      10.138785282421479      14.069411179394207
   258   3      10.166454513881767      10.409217343808173      12.168391475659822
   259   3      8.1059657212751048      10.233674659070031      14.158450781011407
   260   3      10.214732577255829      8.2196258889013318      14.080541076547178
   261   4      8.0582870590506133      7.7410798524509135      16.157981805683427
   262   2      10.091978772303998      10.085257776696114      18.125213305759239
   263   3      10.207923933676925       10.06064828815259      16.236123904412988
   264   3      8.1208498615062705      10.168625038451387      18.343822841416195
   265   3      10.105632694563862      8.1785562462747414      18.452723641552538
   266   4      7.9513042241251544      7.8721537941791313      20.015048566381079
   267   2      10.059164723197243      10.017558009172642      22.206144690147557
   268   3      10.081049452368827      10.351394699166544      20.321701575775791
   269   3      8.1171875456458693      10.188692349455389      22.420421272091314
   270   3      10.191270767232851      8.1647307393399959       22.24576116431167
   271   4    -0.34107023518446755      12.092613517803041    0.099174209949042288
   272   2      1.8798158058234884      14.137182903503666      2.0644568473791685
   273   3      2.0156845251563289      14.468507941944724   -0.013215766049952664
   274   3    0.025380541065418566      14.245514919299568      2.0185174869453948
   275   3      2.1017529044256187      12.268842179775334      1.8395793947928636
   276   4    0.020654677387267555      11.884688240956558      4.1959171551670504
   277   2      1.9961498548354504      14.180105887718099      6.1908631414224935
   278   3      2.2176300487727043      14.137852276837128      3.9643871219387634
   279   3    0.036545050898242913      14.084776475298126      5.9461362780627036
   280   3      2.2535260158962398      12.259822959403278      6.0628070321631915
   281   4    0.016036776639232253      11.814315884990336      8.0796960369408914
   282   2      2.0450710064618551      14.198512168723656      10.317151028586478
   283   3        2.00381326112214      14.374273603589224      8.0792932734956846
   284   3    0.034473563689810492      14.173054988296133      10.220218552887877
   285   3      2.2315322174663939       12.29047791698332      10.027298468583501
   286   4    -0.32308992121383706      15.883270649060028   -0.073305411083816788
   287   2      1.9257956451111959      18.160330594504792      2.0380750147975411
   288   3      2.2707294043812256        18.2238834638875 -0.00040021922442159589
   289   3     0.03838169600912842      18.290329939451677      1.8929926865585558
   290   3      2.1444902822995675      16.249838339573202      2.0188994761565309
   291   4   -0.071609706317949495      16.392442981565331      4.4248552841715325
   292   1      2.0639412116698845      18.219894881350296      6.0501674288405178
   293   3      2.0355745064652071      18.393205265500303      3.9267602329685314
   294   3    0.016716776611593081      18.399198437991309      5.9842417226900579
   295   3      1.8957052308997993      16.186384288965346      5.7835532055672356
   296   4    -0.28072098612525803      16.220378936166938      8.0332533663065124
   297   2      2.0163354498469843      18.206552465395802       9.944844597640202
   298   3      2.0165169012389037      18.248395855093413      8.0924299571902392
   299   3    0.068724812713006192      18.451198792893404      10.205253019520326
   300   3      1.8502962505577372      16.280916516385567      10.208105092185894
   301   4    -0.27973330846996791      20.208865687579937    -0.19403335320396192
   302   2      2.0136774217690925      22.160288833587519      1.9689068195354305
   303   3      2.0737278753652855      22.508616084325595    0.057244269181302029
   304   3    0.079582065475780964      22.405814276481184      2.1011674778188678
   305   3      2.1381725256330957       20.27879801808464      1.8725942536927205
   306   4    -0.19278766446595288      19.996071486562464      4.2557136417419228
   307   2      2.0422441456686071      22.140475305125378      5.9699983305968294
   308   3      2.1319504995114951      22.324497363880134      4.0312353668458174
   309   3    0.079224146232600323      22.223041031544152      6.0103042928995833
   310   3       2.193040000483478       20.28658137715313      6.0555163434044905
   311   4    -0.15084080187340809      19.975859744340596      7.7623993177728705
   312   2      2.0182234909639036      22.262121867916097      9.9503096060215181
   313   3      2.0270195994893681      22.371580875132246       8.060077251650398
   314   3    0.092267900889658847      22.163848767872096       10.27298409943187
   315   3       2.212267456618545      20.269154048706696       10.19329385809217
   316   4      4.0345377839027066      11.849886857102517     0.16327483799791342
   317   2      5.9549255206815772      14.179320636292603      2.0902549579993801
   318   3      6.3686194715420443      14.274408221115792   0.0029097220624605203
   319   3      4.0830725920690849      14.298167655464566       1.793859979515783
   320   3      6.1969055926398076      12.253733009240797      1.9328469858697228
   321   4      3.8833229950016319      11.966751471192033      4.1928582658903029
   322   1      6.0872383723147188      14.162132555484112      6.0608572892101904
   323   3      5.9898221943757992      14.129750788110794      3.9807844341464715
   324   3      3.9976761041125899      14.503400760530157      6.1091086818408185
   325   3      5.9911101550986583      12.124468068512764        6.02944226839272
   326   4      3.8769488692050942      11.955841745985051      8.1961643512920936
   327   2      6.1055436462661108      14.135963248694624      10.001448264894551
   328   3      6.0139614271396038      14.347764796549566      8.1281993752458241
   329   3      4.0032790762213706      14.491110884014741      10.018505688615381
   330   3      5.7411538368703079      12.208942093691313      10.034603096372857
   331   4      3.8242273284325528      16.132010624009819    0.010661740233150786
   332   2      6.0678137572981958      18.336194118857939      1.9180741935386008
   333   3      6.1395092868224284      18.103860388788522   0.0088493593090668791
   334   3       4.103711814831934      18.240854177319935      2.0437891691327046
   335   3      6.2822463745133055       16.19508515716532      2.0650892796507985
   336   4      3.9096347724464522      16.124601979472601      4.3235467468525774
   337   2      6.1091066074942901      18.081215712356933      6.0716602489109581
   338   3      6.1403311875622215      18.398453503914883      4.0324216286232613
   339   3      4.1085236656606909      18.117991899049599      5.8278711761409472
   340   3      6.1954313112349411       16.22390872473553      5.9661379881286232
   341   4      4.1642738633786669      15.984167331353701      8.0163012337168791
   342   1      6.0523063145018625      18.197902834499615        10.0082235452078
   343   3      5.9877053541561711      18.263353409004264      7.9941949866400801
   344   3      3.9895343679982722      18.113420110670862      10.247868122673776
   345   3      6.1361727838691511      16.134441798303623      10.313108732565807
   346   4      3.9947839653686614      19.987524371660161     -0.1863661475310506
   347   1      6.0810669740275198      22.220524355077753      2.0000842138724049
   348   3      6.1087546488249025      22.557894710552119   -0.028546604044959883
   349   3      3.9990949765512105      22.507366213935548      2.0311786771267482
   350   3      6.1194660795370579      20.222102279790693      1.9013075967924884
   351   4      4.1419757139812718      19.960838975086304      4.1952730723846434
   352   2      6.2445479644244735       22.26994660686124      6.0103213780051785
   353   3      5.9983771541317381      22.304938862225594      4.0764855392893624
   354   3      3.9897938055014777      22.501592816133066      6.0617518958288903
   355   3      5.8047548581012203      20.294094660376611       6.082214110417576
   356   4      4.4812813106521627      20.253238519700524       8.143929761794487
   357   1      6.0888223206446792      22.255446380425667      10.059292297737555
   358   3      5.8575515272076801      22.258658757835178      8.0299439246212874
   359   3      4.0015153785027406      22.406965676676553      10.221155610868914
   360   3      5.9075590550201369      20.239751657037253      10.124134793153175
   361   4      7.8057671808140618      12.007138037719477   0.0013932997394826574
   362   2      10.089958003212022      14.188769459873624      1.9171338776506264
   363   3      10.081035744634889      14.415282538762142    0.035965467712879833
   364   3      8.1704994958784845      14.197385339928436      2.2315532275589138
   365   3        10.2741324269871      12.206141323726333       2.045367952946219
   366   4      7.7428426065679306      12.103369711242161      4.0518742208178953
   367   2      10.000188235783883      14.109383940403236      6.0802620394925837
   368   3      10.435174792459911      14.073177542587416      4.1033371285495939
   369   3      8.1499460590651491      14.078524085572722      5.9009886128879403
   370   3      10.295959606360853        12.2100116511831      6.2149637610430881
   371   4       8.349204288830423      11.984055924146865      8.2398671600648665
   372   2      10.233674966323443      14.200295848447615      10.237442169476658
   373   3      10.008072048921978      14.458988053045859      8.0409618572630617
   374   3      8.0257806033763615      13.952178885227003      10.186058422869989
   375   3       10.16352093580584      12.258913050813177      9.7924085680942543
   376   4      7.8081729542675697      16.205912641602588    -0.13477563223262706
   377   1       10.16022079773257      18.140082473066336      2.0190285494440312
   378   3      10.120735185964968      18.177986409861621    -0.01807690568369439
   379   3      8.1032412729297185      18.254839388171607      2.1489016000033279
   380   3      10.126542227280389      16.138977600430739      2.3719511548373431
   381   4      8.0936402000771146      16.239966514722276      3.7573656015098145
   382   2      10.264101092897731      18.161625492151742      6.0142643722389142
   383   3      10.131307753192546      18.537432755383914      4.0843002710276588
   384   3      8.0769715628125862      18.478282323172269       6.020831657060798
   385   3      10.043067267525245      16.224956014807056      5.8393617631994061
   386   4      8.3295525697260118      16.332120967960957      8.2692208809893959
   387   1      10.171409429177956      18.162326286185277      10.071438068969181
   388   3      9.9559796693851048      18.005310791960348      8.0134214010892055
   389   3      8.0856060370485388      18.228367932053956      10.162332022893462
   390   3      9.8294120453391027       16.11312880820709       10.17740339591067
   391   4      8.3755739180298114      20.057286901084048   -0.037741983240567871
   392   2      10.139874477860383      22.173468986235484      2.0717388578746001
   393   3      10.098124567562666      22.551510941536549    0.027600596220150819
   394   3      8.1397772579176628      22.446639188010742      1.9764783743001666
   395   3      10.130930437275429      20.269086022350976      1.7965765605086546
   396   4       8.200517307034124      19.966820389910875      3.9051432958097991
   397   1      10.153628337923463       22.17954891538789      6.0323999146234435
   398   3      10.047397040091703       22.10123301131275      4.0036492905947156
   399   3      8.1002756085520051      22.137483590734007      6.1683310333825432
   400   3      10.204960001479243      20.174569682327043      6.4088845002788748
   401   4      8.4062040292777986      20.048202486541218      7.9915825958418969
   402   2      10.157615382618035      22.089721039035016      10.170023212054407
   403   3      10.160214239563457      22.474565431220412      8.1405004172090702
   404   3      8.1427357105823024      22.271887500149177      10.031278221078246
   405   3       10.20186802659342      20.209790558759188      9.9378991344585632
   406   4    0.028190735656957046      11.892278834993569        12.1267709993149
   407   1      2.0004989028160316      14.253278002162638      14.166691085305693
   408   3       2.118021732070138      14.163866216770083       12.15379349652925
   409   3   -0.059808185370640761      14.073688882512533      14.165426246868952
   410   3      2.1037682038394241      12.177921644934047      14.377280567715045
   411   4     0.26836447253034723      12.105335659884636      15.905919270840343
   412   2      2.0567503540922636      14.123804885305256      18.116488644690488
   413   3      1.9365712365020737      14.270786191773604        16.2651080239938
   414   3     0.08070646448330665      14.167814359278101      18.463392294018618
   415   3      2.0535988792516062      12.210957361037854       18.31180386423696
   416   4    -0.15196052965672341      12.115928330390201      19.920374354105778
   417   2      1.9075395359777472      14.064690671307423      22.271259721057511
   418   3       2.205585249088752        14.2043660481662      20.367316883854549
   419   3    0.042318998980278556       14.33138723020789      22.267223025264027
   420   3      2.0218936679101569      12.202549735070471      22.444534162379274
   421   4     -0.2235556234221234       16.25048478181774      12.037310224523818
   422   2      1.9819375893729294      18.190274475848845      14.067444529335686
   423   3      2.0667868450354967       18.33491926993872      12.196969537064941
   424   3     0.08052586421112376       18.39896140207528      14.294360752454365
   425   3      2.0638879276499265      16.303811094915631      14.284717161919515
   426   4    -0.41732720578089522       16.22585602525632      16.340792894543018
   427   2      1.9284513706808786       18.19524309694393      18.195705837315053
   428   3      2.1673454637191854      18.225760565637135      16.318702674378667
   429   3    0.072998522308409849      18.333410141957838      18.247319799013521
   430   3      2.0635533328987621      16.261687812473092      18.462856455568648
   431   4    -0.39867869623592428      15.921332247057929       20.05018013443194
   432   2      1.9730486307582571      18.122370870067286      22.211181359528382
   433   3      2.0548655859236744      18.427848996096674      20.317223327025918
   434   3    0.058131300090096656      18.242468325264642       22.45122581363243
   435   3      2.2073034990440088      16.252151128828096      22.265554215112832
   436   4    -0.17306705637177916      20.286215324828962      11.874892957469388
   437   2      1.9923518162118119      22.217248343667059      14.108542400306398
   438   3      2.1065683048032415      22.225829850833506      12.229074832928438
   439   3    0.093976367877004377      22.232676880947373      14.283587663912833
   440   3       2.185626538527055      20.292259078596587      14.402209666396717
   441   4    -0.29976910302351822      20.143518076981184      16.148016295170599
   442   2      2.0692512524789968      22.183376773130334      18.139143135794946
   443   3      2.1212582689713404      22.406777905983557      16.275703074515892
   444   3     0.14182214076646987      22.292792083323107       18.33464707207191
   445   3      2.1867288516862846      20.279128727832244      18.275522844374184
   446   4    -0.36358588694949306      20.289961613129606      20.211782335899638
   447   2        2.00556123133777      22.217042419578064      22.198863447684452
   448   3      2.1168818627729267      22.282564388343559      20.325997034816925
   449   3     0.11328588690400289      22.458400161274806      22.384668422821182
   450   3      2.0076401153270602      20.322146787459069      22.514424820861588
   451   4      4.1126727354316523      11.990806629445251      12.245947021246842
   452   2      6.0370058900044867      14.247578113865055      14.102196110490324
   453   3      5.9239720041232928      14.043907755405726      12.151741563366121
   454   3      4.0856009947107923      14.240174426857541      14.421005919991838
   455   3      5.9615564557447582      12.197338009622172      14.340816358994754
   456   4      4.0618173637772195      12.269727268348289      15.857139611772157
   457   1      6.0848578085638252       14.17458601872586       18.17458686034124
   458   3      6.3140192307988459      14.213150409264678      16.154266320361074
   459   3      4.0145783814615852      14.297789157156581      18.306602436383276
   460   3      6.1703699159443666      12.118878423995355      18.267123851696187
   461   4      3.9055487815261536      11.961498613310729      19.993537782739619
   462   2      5.9566863263573282      14.167624120677701      22.273108044937182
   463   3      6.1159661064287896      14.182183867584843      20.338061902630042
   464   3        4.07733903980919      14.218741087163265      22.466073740819478
   465   3      6.2974119520966827      12.242553979070076      22.370494925195207
   466   4      4.3491396258652326      16.503213571351218       11.96215454207594
   467   1       6.082297434985021      18.268317602691639      14.166809712892814
   468   3      6.0865051033125797      18.252804002368428      12.150349250631672
   469   3      4.0327166940179895       18.22822631718897      14.357506630138658
   470   3      6.1465727588121037      16.197391264495156      14.208946494616496
   471   4      3.9766155372848093      16.262396382700746      15.850464150827216
   472   2      6.0720390039206915      18.133277342523741      18.218449433085635
   473   3      6.0986038019079896       18.18985419535446      16.309852742425875
   474   3      4.1071701773067781       18.23890078696742      18.450870910423898
   475   3      6.1589621440391262      16.245563916751234      18.434943634741252
   476   4      4.0164045953655725      15.968519984114783       20.01990355932616
   477   1      6.0631269047566674      18.186679989142711       22.26532480272401
   478   3      6.1739354865503389      18.453065751331145      20.247117528877894
   479   3      4.0135849477328112      18.489494844127741      22.260072068150972
   480   3      6.1956708448563766      16.150899718327864      22.264547805760788
   481   4      4.2312889298266754      20.142528406628351      11.778834235077692
   482   2      6.0966223613069452      22.290885777921513      14.017110895174255
   483   3      6.1149630383584919      22.222194221824445      12.151171517433907
   484   3      4.0867591427940049      22.302025396486634      14.341872243293723
   485   3      6.0717536553058871      20.322085464659491       14.39924224411182
   486   4      4.1694644170305404      20.098538521906271      15.884040335974742
   487   2      6.1363713059606093      22.224678903750867      18.208859700970546
   488   3      6.0195936508524683      22.431033663656894      16.317863817012444
   489   3      4.0669043258938906      22.454698834047623      18.374564658329042
   490   3       6.030534218930752      20.318357099690086      18.245990976010926
   491   4      4.2044815739661123      19.925760956373438      20.271273723785217
   492   2      6.1106546006981866      22.161569685439773      22.325053229178717
   493   3      6.0109598213447688      22.326394736951464      20.335514089226255
   494   3      4.0618919740431476      22.279164663172093      22.475251868818507
   495   3      6.2085724419987196        20.2896143523623      22.412828316670332
   496   4      8.2092393501830703      12.326056555177093      12.280743534427964
   497   1      10.133009051628852      14.197608642123141       14.14306087464977
   498   3      10.142431448966793       13.91574735884584       12.10219883420179
   499   3      8.0634757269049366      14.013922133263117      14.098095570408448
   500   3      10.183161774135463      12.124360539580907      14.383070587469422
   501   4      7.8493204971411688      12.367368365840166      15.954359740773443
   502   2      10.073636076850423      14.097004362116564      18.140407179871023
   503   3      10.057451788162505      14.258328353621229      16.273305072631672
   504   3      8.2063278900445997      14.187962337578099      18.458658868029172
   505   3      10.207270566790323      12.170683483840056      18.221263627553565
   506   4      7.8156598133000461       12.10030616171229      20.069353066624789
   507   2      10.125295054853153      14.101758453469612      22.173811782127128
   508   3      10.376775487553616      14.140277033697187      20.295993859913295
   509   3      8.2086893351524459       14.37185272524427      22.209447682112017
   510   3      10.102621136822188      12.229589218098504       22.53179588230444
   511   4      7.9709091375060916      16.558514744465079      11.853115510927063
   512   2      10.118408200601021      18.194657533534333      14.022806087200427
   513   3      10.119281841014883      18.281542585791964       12.15259095480884
   514   3       8.152808941838245       18.24645317468612      14.371845915068317
   515   3      10.131212937691831      16.247223141876916      14.279513381046447
   516   4      8.0036068430335412      16.201760443523501      15.839275628591219
   517   2      10.096193003120463      18.094936016970966      18.207484206600988
   518   3      10.184772894870285      18.145006888389467      16.326493211316407
   519   3      8.1511925424414251      18.294966809865134      18.328454048376869
   520   3      10.170221106996106      16.206052978519828      18.434543680965984
   521   4      7.8231271528178397      16.052664246665273      20.304978588229918
   522   2      10.142818356305989      18.133709430523705      22.375259656673819
   523   3      10.186116338456017      18.461977342427144      20.276718513689264
   524   3      8.1833723040898843      18.154829498992001      22.211743037977261
   525   3      10.358149313981954      16.221564917713458      22.193172483436271
   526   4       7.767176044582472      19.986179536837881      11.689598325435531
   527   1      10.113099886259736      22.197877299333253       14.11640204342843
   528   3      10.004863237161414       22.24792872776375      12.097942710109018
   529   3      8.0382632188234258      22.253667944503796      14.382060120154247
   530   3      10.117745171712816      20.183126541497931      14.461739136435217
   531   4      8.1248661015697703      20.208436846032207      15.829327046338927
   532   2      10.204589021999793      22.147741116997835      18.268008083446976
   533   3      10.073624334590464      22.489020997337516      16.314492857606623
   534   3      8.0560785455438637      22.373762844286656      18.282719671328586
   535   3      10.172151448110204      20.248280592382024      18.198760621375865
   536   4      8.1727860667991354      19.942052238776565      20.466825091259523
   537   1      10.126474589596441      22.206861552925965      22.287658849879065
   538   3      9.9936350717065885      22.281787815339612      20.225818360414188
   539   3      8.0406351886492526      22.524574270558265      22.319645213557251
   540   3      9.9420776333647733       20.19968362826236      22.413346432937168
   541   4      12.071315693102946    -0.31790647292277358  -0.0020485367802131667
   542   2      14.116891095915188      2.0498902777535148      1.8864932958670519
   543   3      14.211260925994994      1.9007724776442203   -0.011857041573213862
   544   3      12.169344580154386      2.0054334502481561      2.2289512907672657
   545   3      14.146694997107094     0.04842602039226046      2.2450334374520824
   546   4      12.116367912877363   -0.015682088228842983      3.6830462773657358
   547   1      14.114139247688732      1.9803741604982832      6.0220431260406251
   548   3      14.333560187265871      2.1391702189593351      4.0252334859164485
   549   3      12.063661384189333      2.0858607602966783      6.0862993198839019
   550   3      14.375190329977869   -0.056951464451263152      5.9298921931971078
   551   4      12.166617097413548     -0.3990219514104601      8.0345789173278401
   552   2      14.218350103928779      2.0250427777216049      9.9695460503640305
   553   3      14.104600688065467      1.8562875865604638      8.0891966850443371
   554   3      12.175348381112105      1.9182465937131046      10.327154378222907
   555   3      14.190574305931779    0.041530622816707309      10.429476302856299
   556   4      11.831735127180666      4.3851230633523901     0.31866224509667779
   557   1      14.166637395128308        6.08175972711655      2.0021395250246816
   558   3       14.24330462003638      6.1459683489696513   -0.077812720514937955
   559   3      12.146941808827085      6.1972860039777862      1.9712878633653776
   560   3      14.172265008177254      4.0296857784167432      1.8680320464455713
   561   4      11.878570635708179      3.8552850605628453       3.785087352651141
   562   2      14.114625328855196      5.9630921134742181      6.0698007485399375
   563   3      14.155600278309944      6.1042998660997103      4.1478423417936883
   564   3      12.126751487563364      6.2950478398813416      6.2052032424619501
   565   3      14.079853664182025      4.0867493974236089      6.3168984849335255
   566   4      12.101818694023507      3.6769282500682521      7.9529745947034858
   567   1      14.148278035863429      6.0214076423968228      10.145816300145071
   568   3      14.098188359544242      6.4084381317077286      8.0964530787938962
   569   3      12.076790235377786       6.316517127810541      10.128000262007557
   570   3      13.977484331829988      3.9772307211620097      10.089635614669856
   571   4      11.810302709973078      7.8058665232389908     0.13957502564799076
   572   2      14.075249808705465      10.111898546612633      1.9624750133083095
   573   3      14.282161057528926      9.9691690689807508    0.068409547539884222
   574   3      12.193541717706943       10.18883481640329      2.1460206036991645
   575   3      14.208340176112362      8.1780073244720732      2.3305130567490613
   576   4      12.123254552037045      7.7600984889485787      3.7630916843483435
   577   2      14.065076472541302      10.143738364131869      6.0642796628878068
   578   3      14.268803005752368       10.32208804499526      4.1380704045396737
   579   3      12.160896492617605      10.129525361196727      6.1094470773547807
   580   3      14.341082681911173      8.1901095297614255       5.993226415670784
   581   4      12.169637263387829      7.8109812022629859      8.2428856691608274
   582   2      14.157601522372488      10.024491586059764      10.146041508555147
   583   3       14.22209729071848      9.9460155626496398      8.1285920245331464
   584   3      12.209294310206642      10.253221957712222      10.137667116679914
   585   3      14.236957727672785      8.1613042838162819      10.352769232604034
   586   4      16.008831037390411    -0.16638030385233402   -0.025668176712055315
   587   1      18.184249104044127      2.0337285839415729      2.0122145787367769
   588   3      18.459985875386675      2.0157803784518831   -0.040559285718387995
   589   3      16.152283458121325      2.0627418869546412      2.0925069940873584
   590   3       18.42878934053088   0.0037492851608487915      2.1231625848360003
   591   4      15.848555818351995     0.18775542301073814      3.9087502606882829
   592   2      18.205708088199383      1.8810478695968496      6.0979825753068795
   593   3      18.160278735128085       2.271110834578562      4.0952628356926137
   594   3      16.225591306933364      2.2201478098884815      6.1295596257441618
   595   3      18.165411451102507  -0.0056370040838287956      5.8959099651931828
   596   4      15.908469526543666    -0.26655068094448825      7.8539995484015428
   597   1      18.181271326881063      1.9927084821197822      10.123234163361486
   598   3      18.373971018142662      1.9452419991828003      8.0718950793175459
   599   3      16.146831673909624      2.1342012096799241      10.204626282567775
   600   3      18.265041546124596   -0.046691311669402533      10.242893769731433
   601   4      15.811364137701942      4.0684044444540213   -0.036308119670538173
   602   2      18.085903965947882      6.0503811476207989      2.0239592314432322
   603   3      18.338086801102293      6.1826332090766263    0.070581062214454648
   604   3      16.215864197513536      6.1441804238607567      2.1052120090604198
   605   3      18.373452203450849      4.1367535142947505      1.9746912961935075
   606   4       16.07241977848814      3.6980788394558965      3.9394219758035125
   607   1      18.158118753223174      6.0767770903141223      6.0738588030079725
   608   3      18.403345512512018      6.0506492860184311      4.0296702857057491
   609   3      16.105038288197697      6.0546804808774519      6.2749785927844135
   610   3      18.286604547578182      4.0648424727574453      6.3132915962907763
   611   4      16.243034251658525      3.9533743618520409      7.7288807345866957
   612   2      18.064517682611729       5.944252721621174      10.074487802325507
   613   3      18.293237828336256       6.294701678810914      8.1605784754623247
   614   3      16.198279482619878      6.0134159647608252      10.106100896043159
   615   3      18.398123799397826       4.077129020083742      9.9790152417078968
   616   4      16.116313895652048      8.3412873507944081     -0.3777544827698423
   617   2      18.113680132489449      10.142136214306969      1.9474524394393253
   618   3      18.194561644430344      9.9054556601372941     0.08162496754880276
   619   3      16.236736484661314      10.022935321552202      2.1936361497439028
   620   3       18.32310954998901      8.1097666757368536      2.2329557146069101
   621   4      15.925163333348209      7.9333222595360695      3.9308515784990314
   622   2      18.086257852144943      10.128177700996135      6.0514384729976154
   623   3      18.401906167185487      10.174874679536382      4.1082661838428347
   624   3      16.224727761096013      10.213524474991907      6.1334620184616364
   625   3      18.323758948333634       8.170017920378891      6.0633542198120978
   626   4      15.968849416712844      7.8325598990907865      8.0013366694621499
   627   2      18.309123255391754      10.030610122549641      10.131564263769544
   628   3      18.362773393535345      10.072271740935612      8.0958304791708375
   629   3      16.211191669227439      10.352892807110068      10.131953222138391
   630   3      18.161920786743007       8.111847015598487      10.239829902786699
   631   4      19.933301324346477   -0.024685767589572239    0.050792585652992502
   632   2      22.195542054740315      1.9802740915460619      2.0764872667676637
   633   3       22.34406943884251      2.2331889789024304    0.077556830558626957
   634   3      20.327556858065886      2.1162189821530939      2.1612664289417607
   635   3      22.396678780293602    0.073293834514441367      1.9990227634618474
   636   4      19.924090965542597   -0.099859256268243449      4.0512752494732016
   637   1      22.219247580770926      1.9994587339301788      6.0529758178062405
   638   3      22.546959103100193      2.0410688184904417       4.002025819791216
   639   3      20.183126764266728      2.0807201658589602      5.9590143987792912
   640   3      22.569876608198605   -0.018840461578413206      6.0661245153138328
   641   4      19.971294470929742     -0.2036355670333192      8.3471015520028793
   642   2      22.195934220494564      1.9814179601707496      10.078733858634219
   643   3      22.383944447193151      2.0322360441977758      8.1423446966132929
   644   3      20.316898175806145      1.9151006861620326      10.236793498024239
   645   3       22.55320648589408    0.054801600410831222      10.142416176098772
   646   4      19.952153741678931      3.9336185625137379    0.014006445408267751
   647   2      22.217774202358548      6.0423343494029851      2.0494068698029615
   648   3      22.475551067152381      6.1531268929892118     0.11301729420635799
   649   3       20.34296250076574      6.2050106300406256      2.0606115152600135
   650   3      22.360917575470829      4.1331266803698927       2.127819645733195
   651   4      19.856763749344534      3.9169660224043934      4.1249923997486784
   652   2      22.200762597214329      5.9547217396364411      6.0934069040906644
   653   3      22.359065980245187      6.2350735442343685      4.1024139398344373
   654   3       20.32811298612182      6.2477104477745673      6.1767073536423069
   655   3      22.274462443605728       4.095588262157297      6.0273288658748037
   656   4      19.952998201739618      3.8211146751470362      7.9675123335393625
   657   2      22.178944196454793      6.0883377914162393       10.19550255239189
   658   3      22.452711751483491      6.1503167462266122        8.04224576646107
   659   3      20.299445674497409      6.1899148327065161      10.056386297758587
   660   3      22.303149559590906      4.0688967177629713      10.109518766375999
   661   4      20.015602301336141      8.1170862578380945    -0.18168035872125185
   662   2       22.17863656503653      10.094945288242881      2.0910862816973457
   663   3       22.47572562746198      10.053652964718866     0.06963195310436783
   664   3      20.288072133580084      10.037845742211246      2.0439212423216784
   665   3      22.512089991076547      8.1418751695927938      2.0951006254623175
   666   4       19.90193690813264      7.9416447672002404      4.1021232563306738
   667   2      22.237051579147078      10.081619103788105       6.192407184768534
   668   3      22.429108497027933      10.231070636433913      4.0515382512847085
   669   3      20.344047843111785      10.039373334863905      6.1146357571633816
   670   3       22.53699292771897      8.1581536305722455      6.0565901812107308
   671   4      19.972574792871264      7.9366501503704203      7.9736550385811427
   672   1      22.273308841297837      10.055997254932084       10.13901761361184
   673   3      22.486286477573508      10.136343941174641      8.0874042646181188
   674   3       20.22267887256827      10.139244240034634      10.243856251356142
   675   3       22.53460321922924      8.0208838419939994      10.044325327173198
   676   4       12.12368987757764   -0.024522153958643832      11.745906309170461
   677   1      14.128798644648745      1.9781219186942709      14.224986196210773
   678   3      14.253257470793576      2.2191088698551855      12.181649094863531
   679   3      12.066552888009383      2.0702001168437074      14.182168231825758
   680   3      14.326933717616475    -0.05636489005017626      14.020915029809617
   681   4      12.130092943652258    -0.35011662390733883      16.111387478049036
   682   2      14.198255765928494      1.9321810615532107      18.159873132192871
   683   3      14.014886364044315      1.7679366693813747      16.260491007735205
   684   3      12.090821017603899      2.1363518798165573      18.348900637171678
   685   3      14.216598961929755    0.080009558960060054      18.559531089959371
   686   4      12.163006261519861    -0.15929951686159341      20.511400092202958
   687   1      14.113556080424617        2.02553866745412      22.256886869358389
   688   3      14.169847380700597      2.4490464815522572      20.159106763564257
   689   3      12.085196484354327      2.1340587859896631      22.052630346876786
   690   3       14.13413544036333    0.015638532552603796      21.936870268871118
   691   4      12.358974820502262      3.7202995624784245      11.954057431720113
   692   2      14.159660500392755      5.9036283354938739      14.143126867128922
   693   3      14.034465374781313      5.9220532275449278      12.228706996516554
   694   3      12.186226717335304      6.2434456690207698       14.26623498284301
   695   3      14.081416587633983       4.059992663863401      14.441267128332118
   696   4      12.071869748258978      3.8209926162559751      15.951345821441963
   697   2      14.201539187256822      6.0566764243539817      18.185453082463134
   698   3      14.119741166648687      6.4235323227685655      16.185739356269586
   699   3      12.089763944233683      6.2387456049137882      18.241932666090566
   700   3      14.053937709126071      4.1188858981931142      17.894684460103079
   701   4      12.199533462851617      3.8308878585272534      20.338948226829839
   702   2      13.993630106571132      6.0678498234715086      22.323282791566101
   703   3      14.220955904915625      5.7944683613396677      20.190200323450519
   704   3      12.137227882055868       5.997361307169041      22.226173687539923
   705   3      14.401541630254368      4.1019930383012548      22.334438065376268
   706   4       12.09286820348315      7.7374263132127821      12.129799905556055
   707   2      14.175966363485605      10.022282067592112      14.236139148473336
   708   3      14.203143347880657      10.492411172169655      12.125557250587729
   709   3      12.216601774929888      10.340084709421562      14.121405129450459
   710   3       14.18010970171076      8.1677738199804768      13.904296596284404
   711   4      11.983238052881383       7.827701429925698      16.018156622803509
   712   1      14.135463092674263      10.056313430798756      18.156835163050822
   713   3      14.271099504101285      10.032607078646953       16.12088331747276
   714   3      12.058839257923966      10.082733135728823      18.467895728602205
   715   3      14.138965348264101      8.0264169506504537      18.526799110638215
   716   4      12.213327127428162      8.1358530910072773      19.983151908982119
   717   1      14.081237786734247      10.048839052657128      22.294923906807547
   718   3      14.215600992751684      10.243345157861031      20.239772036085235
   719   3      12.070069819268561      10.363349655620434      22.264336593727169
   720   3      14.236459506339099      7.9914861127174319      22.035005537449429
   721   4      15.834198162028313    0.016454471544541924      12.095300895178749
   722   2      18.065003260321994      1.9118508559276128      14.169808749081183
   723   3      18.198260048875543      2.2639190471149071       12.18985099345435
   724   3      16.199142372331085      2.1061672973232652      14.230439460382541
   725   3       18.22355898190413    0.021686010976895341      14.001942256223941
   726   4      15.875494971273353    -0.22690488870677919        15.9778874443654
   727   1       18.14958637687857      2.0161944188124528       18.22530180332269
   728   3      18.451044768356372      1.9820196133569639      16.125916635742506
   729   3      16.116960615682498      2.2509872017011747      18.144713089217237
   730   3      18.322201687928551   -0.016548618512944799      18.332434752734777
   731   4      15.901218866457874    -0.16898546589956318      20.366610271174974
   732   2      18.108344178330583       2.017684367491158      22.285260762099593
   733   3      18.354994736030623      2.1499223943095491      20.321508355828634
   734   3       16.23506369027362      2.0687637395316343       22.24298157757951
   735   3      18.362518925715506     0.10485933278394559      22.251062925985817
   736   4      16.075746489194973      3.6901825227118321      12.085142934839935
   737   1      18.189100527838676      5.9832531963801987      14.158523905128906
   738   3      18.318778468350505        6.03149660559765      12.072895713802579
   739   3       16.11600569241692      6.2148504373185922       14.18447548503635
   740   3      18.454807671240911      3.9796627840948839      14.246994508170676
   741   4      16.403735420691447      4.0140528068104802      16.532539988510194
   742   1      18.211492680133428       6.087708736642548      18.257041109524721
   743   3      18.252790602962072      6.1734748482598443      16.181535706341418
   744   3      16.142410397491354      6.0123090185107211      18.044033661305434
   745   3      18.371026154312251       4.053637826465164      18.044616448205677
   746   4      15.933298425685052      3.9368687885607176      20.372699249204363
   747   2       18.16780345328835      6.0789592065362701      22.153085701321142
   748   3      18.397955964310853      6.0118647393386233      20.291180489538295
   749   3      16.273203317677876      6.0995421149274955      22.262532220212353
   750   3      18.298158968675892      4.0836980783172443      22.470505608031182
   751   4      16.404033635731466      7.8847562303710017      12.425594942633486
   752   1      18.218943992032031      10.104095598141273      14.155799730409377
   753   3      18.172110757682358      10.374335175286474      12.094691140833401
   754   3      16.152942109282005      10.333998809012956      14.077536037722266
   755   3      18.196586199428701       8.101056508068039       14.00320357802663
   756   4       16.43938155345456      7.7386880167949803      16.174988497201799
   757   2      18.090529299456765      10.129262643681438      18.251712616287872
   758   3      18.299659689929527      10.164644389624188      16.217434343619647
   759   3      16.211647156495545      10.189650500517729      18.198344206141861
   760   3       18.31859095444139      8.1466777888737987      18.212793369685045
   761   4      15.891390683444589       8.380273071107899      20.321304698763779
   762   1      18.250577825927106       10.11926122051082      22.243653381087171
   763   3      18.359837229700851      10.068631248681545      20.189005495080917
   764   3        16.2071309070399      9.9335575658545725      22.182518864395234
   765   3      18.395386029935324      8.0041281300429965       22.33317922422248
   766   4      19.938306400424249    -0.18544977446679928       11.99945383413808
   767   2      22.206838572213655      2.0697928263846332      14.178956964825154
   768   3      22.563452298484556      2.0341617521754558      12.162069401516312
   769   3      20.327398113831428      1.9367179360052786      13.994036592376114
   770   3      22.474658415248438    -0.04566174109010717       14.17240594756883
   771   4      20.157094557885703     0.38570672279492252      16.461487359493177
   772   1      22.328425377088077      2.0523816760006404      18.195371349441306
   773   3      22.243843135523417      1.8262022992315838      16.136395992290719
   774   3       20.31030412584391      1.8918064417339613      18.343592647170524
   775   3      22.522297853535974   -0.035169132914072671      18.263702090520933
   776   4      20.026858531355106     0.24298823528977342      20.025766902172279
   777   2      22.241996668118379      1.9995677556843248      22.244528325343662
   778   3      22.513595984103134      2.0679469738664693       20.36106305030809
   779   3      20.358859224138083      2.2035711557938717      22.265598054922304
   780   3      22.378963658052811     0.11270962521711844      22.427741439459574
   781   4      19.875790212948896      3.9932702104404618      12.322061571803346
   782   1      22.270976023719616      6.0024619156184791      14.153612313722395
   783   3      22.399503947144947      6.0829881330107645      12.084745266657286
   784   3      20.282426456212708      6.2325500746707396      14.155733087638371
   785   3      22.390081826460886      3.9622014160889836      14.227354619527091
   786   4      19.850907779542098      4.1575637191317876      16.178020415715821
   787   2      22.245608126643258      6.0215212240443918      18.129077467102473
   788   3      22.441069439905156      6.1575935356088376      16.254044347233215
   789   3      20.354895626395063      6.1788561368003334      18.219431884691215
   790   3      22.343821812677614      4.1235761326056535      18.354641363100786
   791   4      19.994655063155861      3.8645416561767272      19.793270420533382
   792   2       22.23088534044895      6.0532473053061633      22.196830325543651
   793   3       22.32231633224508      6.1564372130862157      20.327434164130953
   794   3      20.343947676019116      6.0406199162962393      22.461942107875768
   795   3      22.509829098866703      4.1332846449733189      22.389550767640095
   796   4      20.019286469517521      7.7738096657787175      12.473713606246122
   797   2      22.233263091513521      10.039817059601573      14.059475587214592
   798   3      22.347528280808241       10.31890582273271       12.17767232236106
   799   3      20.317030167132206      10.171699036736255      14.148471268564084
   800   3      22.466790755671973      8.1699631817799769      14.141873551338756
   801   4      19.923625797292686      7.7810374995780434      15.975112821751461
   802   2      22.313639293836054      10.075178750320319      18.049478701189404
   803   3       22.39020132415467      10.212241523659657      16.165342180231935
   804   3      20.365532358343955       10.05404540623509      18.248981310584469
   805   3      22.450769625376587      8.1150248128212841      18.353517246775702
   806   4      19.972157260977884      8.1943759444309308      19.996291121619272
   807   2      22.151716883559676      10.140120297753056      22.220521494984155
   808   3       22.28580507272282      10.077711502861119      20.335965852320125
   809   3      20.294799053615399      10.031008502013172      22.446114683964382
   810   3      22.350861997836912      8.0816997674671889      22.478175489241416
   811   4      12.211540923377957      12.064599046241101    -0.39188519269332162
   812   1      14.184514343501689      14.133945260136608      2.0540025259470496
   813   3      14.375645956217081      14.300341120778928    0.030717924769283523
   814   3      12.137118903220959      14.308276239590779      1.9772936707243556
   815   3      14.398290820761723      12.059566386171504       1.963768654073283
   816   4       11.96734000240934      12.178017688018658      3.9324241421801163
   817   2      14.177808884835475      14.202672967535156       6.058607159808723
   818   3      14.035369081023862      13.860439776327141      4.0937565627342796
   819   3      12.172578281599511      14.372294790391267       6.222971596989054
   820   3       14.17176953386708      12.144781047218856      6.3414315086091353
   821   4      12.199636256733582      12.043138645303221      8.3494596997703994
   822   1      14.171940173331137      14.152973905839351       10.11665568620143
   823   3      14.253951696885412       14.47868212242701      8.0381965748391906
   824   3      12.113544319636786      14.314155999270625      9.9428363277777319
   825   3      14.146426547142537      12.146679124582485       9.808397875888808
   826   4       12.36994526455609       15.75584414204349   -0.017923835972570325
   827   2      14.217945164296358      18.114584830395625      2.0593701655593564
   828   3      14.137075055365598      18.152009407568372  -0.0037401842054995841
   829   3      12.209668113306737      18.357985900420516      2.0611712312031556
   830   3      14.214950487947194      16.224757750055314      2.2097363659044005
   831   4      12.082502937401836      15.912745557876558      3.8591266397038737
   832   1      14.209646445190137      18.149306326098063      6.0148039370348361
   833   3      14.218642330190546      18.538589579044505       3.984357803113749
   834   3      12.153619505953555      18.249269933628486      6.0548135958236626
   835   3      14.282958090791698      16.142138916738869      5.7397829872006136
   836   4      12.291088281365152      15.977705165134562      8.0740188220690055
   837   2      14.215635758567227      18.195530862052159      9.9098521136108584
   838   3      14.188667956039698      18.042174998590149      8.0511209178502305
   839   3      12.197579288609299      18.093301619078648       10.23125288605317
   840   3      14.222299449311889       16.23570787115391      10.368001053238928
   841   4      12.268365748193123      20.022404384174855     0.22576749385292133
   842   1      14.153571524375874       22.25513196811081      1.9735608498276223
   843   3      14.142453665578916      22.667832786404372   -0.064243752325363931
   844   3      12.104977604327324      22.428571457823509      1.9484475700605604
   845   3      14.128136633696631      20.248434648861984      1.7080966457589017
   846   4      12.251290431122296      19.977538209466694      3.8963076366430602
   847   2      14.133420046596884      22.248890045875619      5.8780218358630156
   848   3       14.17419102093238      22.116966863352783      4.0095069015774811
   849   3      12.192638810153191       22.28217205674229      6.1953140390254946
   850   3      14.114388067423262      20.279251687499787      6.3097841326427551
   851   4      12.209148806493308      20.226973257804694      7.7799953861069309
   852   1      14.138242293463092      22.230448224812104      10.084973255066627
   853   3      14.122513912840564      22.549467679465966      8.0797334068465378
   854   3      12.103748625877312       22.46114121823917      10.132747816916238
   855   3      14.057149258085495      20.175399451268223       10.08251783337354
   856   4      15.818157920378495      12.284240117480808    -0.11175692320597776
   857   2      18.202219447795024       14.31350452846482      2.0421225345674108
   858   3      17.969402754497168      14.257615239133326    0.044604059617599036
   859   3       16.26698937009856      14.125028032163259      2.3109780881406254
   860   3      18.319963795038198      12.065482062376589      2.0658782908947062
   861   4      15.944597318513518      12.317411374820511      3.9082434898025671
   862   1      18.199306800888895      14.127258370876737      6.0457124868114569
   863   3       18.55164442453404      14.060604809059647      4.0115767622527718
   864   3      16.171131192512934      14.166958560700968      5.8593655236708484
   865   3      18.516310548429505       12.08366149219901       6.127704170251663
   866   4      16.088186471611845      12.255030817270933      8.4861249488334405
   867   1      18.234230532408915      14.118649884309995      10.139155367000699
   868   3      18.285597483961897      14.326294178286668       8.073434930305627
   869   3      16.203473012922991       14.23809597841238      10.050522706932391
   870   3      18.334488550490665       12.11961805452062      9.9473042919871641
   871   4      16.074375854983646      15.838838680737904       -0.12425472183337
   872   1      18.221457671205982      18.197473058111264      1.9952817680528154
   873   3      18.341229298122499       18.34178266206272   -0.073761469669841567
   874   3      16.174504701771081      18.419174805408641      1.9804453175694272
   875   3      18.297698545272013       16.18574534679842      2.2148239199054083
   876   4      16.167421263989905      16.076069552377536       4.262156117747101
   877   2      18.229143650570322      18.182152637511379       6.149359923699385
   878   3      18.171336683912912      18.541259427744617      4.0354096547107252
   879   3      16.251451494683355      18.454502122514928      5.9862705354927197
   880   3      18.155065828324364      16.242606536324754      5.7859242302125935
   881   4      16.371315261676166       15.77195384659265      8.2532205661698086
   882   1       18.18898212003727      18.243403333048587      10.100441995151181
   883   3      18.329489639019407      18.141562251930921      8.0614628636397434
   884   3      16.142895577532556      18.282134453518488      10.280541094648143
   885   3      18.204787340959442      16.217565784527682      10.272566586616296
   886   4      16.132367997453599      20.092923535364378     0.24222281940875545
   887   2      18.083002078753225       22.31514974107251      2.0859455446300701
   888   3      18.258556882347449        22.5818470338147  -0.0025587604026873797
   889   3      16.208456469669759      22.384013162785291      1.9025953853262423
   890   3      18.284599250118564      20.398129430542177      1.7833270832390189
   891   4      16.239537345848337      19.936088959067348      4.0197519798409367
   892   1      18.164545115767751      22.258424799641322      6.0446472495514767
   893   3      18.364633546052129       22.20249486691748      3.9839692663470916
   894   3      16.140049221091623      22.144358025799558      6.2690037413565305
   895   3      18.391588630426671      20.242079684038007       6.228841280844069
   896   4      16.058092276493884      20.249083213969342      7.7188267068314786
   897   2      18.021923997529147      22.273350527987489      10.151406469137696
   898   3      18.358294572580185      22.358616348044265      8.1476135788475048
   899   3      16.158478192316203       22.22354388202471       10.11164839967147
   900   3      18.436864686266148      20.299148053670514      10.036661025371162
   901   4      20.427742696883982      12.366423304183114    0.068055666163927123
   902   1       22.24727292534725       14.14841848235808       2.072500187578195
   903   3      22.329597117194897      14.230056580049602  -0.0075159645215919953
   904   3      20.184780895692882      14.109035179722634      1.7110858134134317
   905   3      22.250628819663472      12.076793604347735      1.8400144068015274
   906   4      19.976255903606482      12.182100614026918      4.0757516741239268
   907   2      22.208741614808638      14.144586919413181      5.9622296312897278
   908   3      22.122207149849753      14.176935861211556      4.0881265619348905
   909   3      20.324590960759895      14.387016130366007      6.2086383588336131
   910   3      22.211872868564441      12.193056554029091      6.1563270269372907
   911   4      19.848978353883162      12.260359557627224      8.0874508457202516
   912   2      22.292622917719907      14.078959628635113      10.088260725499408
   913   3      22.434124739279795      14.331528492115121      8.1528013668997534
   914   3      20.356862125784165      14.441851424709615      10.096091832135874
   915   3      22.191294165202915      12.229067743503785      10.168721859259374
   916   4      20.430534866799889      15.844813865724023   -0.054683281458769308
   917   2      22.166279267879712      18.124188358618671      2.0339727911947936
   918   3       22.27206407790683      18.440528218613775    0.022704818455584357
   919   3      20.292824181457462      18.443620875105914      2.0470199924732038
   920   3      22.228932626016935      16.253719651892663      1.9300286800369786
   921   4      20.043762534945454      16.104788317592405       4.224879202606421
   922   1      22.189260893742787      18.200701239794238      6.0604953924273346
   923   3      22.428615567146423      18.283928254240923      3.9574952581720573
   924   3      20.198368538197737      18.159593296172208      5.8263505015173873
   925   3      22.563519211385195      16.163581877436787      6.0915470021855276
   926   4      19.915244515506284      15.977127831877031        8.21416009150097
   927   2      22.161668463427187      18.305756258313501      10.052279408178192
   928   3      22.425749187275887      18.255668374859024      8.1388633358535696
   929   3      20.305346612842218      18.136863820096593      10.217914029432972
   930   3      22.582392843803991      16.309113765577315      10.166147867117175
   931   4      19.998385964486122      20.055438026436931    0.092654329200619848
   932   2      22.230521810939507      22.192260376115144      2.0071783707940991
   933   3       22.48530817043169      22.333550449672554    0.084433748637828682
   934   3      20.341620491583356      22.375836097130293      1.9780460233785937
   935   3      22.397929901267101      20.314400931814088      2.0706102987365962
   936   4      19.970900040252356      20.020673389060576      4.1619066677688927
   937   2      22.137338384083449      22.284672539133833      6.1139510525660832
   938   3      22.364430397832656      22.459409116110802       4.036150722592784
   939   3      20.274562153723771      22.424429263337565      6.0725673628262147
   940   3      22.336020308122237      20.335464833311363      6.0127691965188843
   941   4      19.869317301183958      20.390325053022092      8.1165725621247997
   942   1      22.271242206413518      22.254169644668497      10.092372300028323
   943   3      22.407118341938137      22.373537289674509      8.0361599063862279
   944   3      20.256880837010989      22.437201493371749      10.141673995008839
   945   3      22.276910254423278       20.22084079963216      10.240730277276406
   946   4      12.135305933040414      11.906951477565965        12.1248265407663
   947   2       14.17849139188163       14.18754685350393      14.029059226504607
   948   3       14.10826786696391      14.036379696606263      12.169753287352925
   949   3      12.209298932893519      14.115310294711277      14.403912838792412
   950   3      14.227612177010148      12.224219756595165      14.436616206936989
   951   4      12.024897469360726      12.189509734899437      15.864143784545004
   952   2      14.177798088379943        14.0085547704309      18.178496609859856
   953   3      14.260803569967667      14.447702888731273      16.255408033730195
   954   3      12.182934560932139      14.362565480877311       18.20470874142443
   955   3      14.124114216821257      12.155364160122105      18.064794222737632
   956   4      12.335367450335658      11.761131388029021      20.185981149727318
   957   1      14.165359485658758      14.141947321176943      22.232471406926145
   958   3      14.143054524778959      14.190749591975967       20.19031589043356
   959   3      12.134688673705039      14.133369302947736      22.567666753692151
   960   3      14.311590977788065      12.124101230655777      22.421757056359695
   961   4      12.523158672510949      16.422810936174663      12.029727357285621
   962   1      14.172197174209858      18.193902005759458      14.188540941690952
   963   3      14.056237327418787      18.414022181774335      12.173710587392023
   964   3      12.088885619488584      18.275979622261456      14.306346701162962
   965   3      14.014794252598829      16.155384366609333      14.085948676457001
   966   4      12.175864530951728      16.107608043658459      15.834024771743641
   967   2       14.16697723725791      18.253370854253564      18.089592455860224
   968   3      14.157753267398034      18.101278434456884       16.24754240821126
   969   3      12.170798227234796      18.273764801347326      18.439900556595767
   970   3      14.198649857762664      16.316747524234639       18.51607020764682
   971   4      12.282845256637131      15.925559239442038      20.084250528341819
   972   2      14.162319242231707      18.135444691754998      22.260222884766986
   973   3      14.218986669470041       18.50846264971057      20.367571012195981
   974   3      12.199780225965483      18.463582034310591      22.249182634761624
   975   3      14.112074833738397      16.258497287978734      22.222753159418016
   976   4      12.320536170582798      19.976124183782915      11.848218108264067
   977   2      14.082412767054576      22.236375790798579      14.063435077604488
   978   3      14.189407063684474      22.102821109962409      12.167602554134184
   979   3      12.143388632048405      22.297049395542516      14.327265109369762
   980   3      14.113898152865749      20.289744534304493      14.445983692798567
   981   4      12.087091505790729      20.159514142987728      15.850327683488992
   982   1      14.115960891179309      22.262489085669188      18.235124207548182
   983   3      14.106858020876803      22.601135947575969      16.211664034900178
   984   3      12.085037969659073      22.404728343396513      18.286004031466923
   985   3      14.223339835770767      20.207103455570529      18.246413123316902
   986   4      12.084351217791838      20.019720624291065      20.206259950191917
   987   2      14.145894463610114      22.196021204807536       22.28945435388648
   988   3      14.359112594725099      22.153644452050244        20.3244772212675
   989   3      12.197215705699218      22.379133343205478      22.246088371652544
   990   3      14.282808466735506      20.298818473038793       22.55690287833686
   991   4      16.267144052400067      11.880659708505746      12.149278366991213
   992   2      18.277553586570459      14.126218498597277       14.15351961216089
   993   3      18.293039578140853      14.190826042831976      12.214125481089155
   994   3      16.210027651519635      14.253077199839941      14.276335616232927
   995   3      18.298614039986496      12.230814204014258      14.321748407412436
   996   4      16.115373726305144      11.814487955031248      16.080067303017422
   997   1      18.183063859478448      14.101874824782774      18.223365710612956
   998   3      18.204821072724986      14.407597747121804      16.172538410481245
   999   3      16.141476332165322       14.33671798008173      18.244379017709125
  1000   3      18.479561197421617      12.087465017431198      18.155079240486238
  1001   4      15.902987948660115      11.801341178854798      20.633168519601139
  1002   2      18.217395405806055      13.988615566028262      22.189689020089084
  1003   3      18.328786450913682      14.174341599657888       20.30155899338515
  1004   3      16.250994695076127        14.3914477600184      22.249499993598434
  1005   3      18.104279005714965       12.14047896001048      22.358947036355548
  1006   4      16.318628701672949      15.989650195794107      11.706335766449536
  1007   2      18.089137663632552      18.231845790250549      14.075099152339968
  1008   3      18.270525125386747      18.469989543483621      12.203169998412024
  1009   3      16.206355864921811      18.425067020281727      14.204768934136455
  1010   3      18.174772121585349      16.293569004927591      14.122957896741507
  1011   4      16.278037799301799      15.871284866658662      16.209023528675178
  1012   2      18.240729133356222      18.136912695328459      18.190032081185429
  1013   3      18.242439954200279      18.258501972424767      16.280027845557118
  1014   3      16.203626221322406      18.319586225157984      18.377043875967402
  1015   3      18.163744915827582      16.270379836178858      18.362435265682237
  1016   4      16.121422128932963      15.829945342860871      20.106601138666342
  1017   2      18.145434977403756      18.094578500609664      22.299785726043535
  1018   3      18.206797213974561      18.495799746206853      20.336365569038708
  1019   3      16.195004170716686       18.25881567519685      22.367461122644702
  1020   3      18.313393213841962       16.24545826481566      22.259834762028909
  1021   4      15.929752746765768      19.970317155806985      11.988239032609647
  1022   1      18.172845626630849      22.287372987843572      14.170694516178449
  1023   3      18.346967506888138       22.14813006767233      12.110795568792891
  1024   3      16.125051771865788       22.19737980663972      14.408033382252444
  1025   3      18.301328081514445       20.21696635436783      14.414907640057637
  1026   4      16.092042684774565      20.318369637207859      15.878333790846746
  1027   2      18.072252173742477      22.349846941527879        18.1445166570353
  1028   3      18.354835895075915      22.292359178227613      16.268055685281539
  1029   3      16.199044613315952      22.307709668584607      18.195842525877477
  1030   3      18.323928928361127      20.344231461993413      18.298807022394232
  1031   4      16.015004491783994       20.22327074534228       19.98643198722764
  1032   2      18.315533150805177      22.214782934253098      22.235657252330043
  1033   3      18.194295350739285      22.304563510298042      20.292273364035822
  1034   3      16.209913874165661      22.576148003110415      22.382341175800985
  1035   3      18.146644683733726      20.347614700417505      22.431318947718481
  1036   4      20.189937218881614      11.834152158424672      11.985217595091196
  1037   2      22.345381154447402      14.104444499510565      14.149666236994856
  1038   3      22.263033787261772       14.39218320081314      12.146604095341836
  1039   3       20.23786188144215      14.388504927855546      14.258008331735672
  1040   3      22.140759463588118      12.226793436180385      14.197915861519286
  1041   4      19.967959709783546      11.881063904778719      16.158540290012152
  1042   1      22.300550926219771       14.10946260830104      18.156013483622527
  1043   3      22.279477537909514       14.40704711581154      16.123066877618399
  1044   3      20.244784145735522      14.266751802587148      18.228276850495128
  1045   3      22.269326741955002      12.062173468920806        18.4032943389259
  1046   4      20.294242016008546      12.335144252090156      19.828369946137833
  1047   1      22.242349678648768      14.095095870253315       22.25326662430604
  1048   3      22.173954279527123      14.266175414396804      20.274570180174759
  1049   3      20.149918955970978      14.156584325041502      22.583398635271255
  1050   3      22.342573321322888      12.051252923930852      22.444942574832975
  1051   4      19.958083403642576      16.085355104432704      11.880229693355426
  1052   2      22.141918971466684       18.21474876416114      14.178139689839965
  1053   3      22.463047550305156       18.25708035475099      12.201270600861193
  1054   3      20.270133661061479      18.297349745064203      14.229134297663741
  1055   3      22.459337131688351      16.300272107924648      14.167056907634425
  1056   4      20.247351965928697       15.78514818157044      16.396320831008733
  1057   1      22.220101355944614       18.25979172218393      18.216776117134209
  1058   3      22.437606283226145      18.256594236804439      16.153452674465505
  1059   3      20.173366232591803      18.318909995956417      18.415330154584392
  1060   3      22.383264017713753      16.233092984694075       18.25956833040977
  1061   4      20.460799066113747      15.859468244452504      19.928001770273397
  1062   2      22.158156929051589      18.246811245788543      22.209766739760092
  1063   3      22.383704565502679      18.326412549197606      20.318271901920077
  1064   3      20.242927156987594      18.467998606275529      22.250952592311315
  1065   3      22.222160840290638      16.323729335073828      22.419205343413555
  1066   4      19.975989577972914      20.376298252784949      11.920991271541288
  1067   2       22.17880672600306      22.308039076750411      14.103492944143396
  1068   3      22.389504411873073      22.249267424386883      12.220013490171185
  1069   3      20.313887350602343      22.221989997897722      14.218751423267165
  1070   3      22.378009961600902      20.282364629767862      14.295818137144703
  1071   4      19.937323295399118       20.35958509722699      16.032403397970509
  1072   2      22.184789649901177      22.287924244674322      18.238691778933447
  1073   3      22.440491623835484      22.304923701950575      16.246684539177664
  1074   3      20.298904790294547      22.357533582557746      18.333980046736571
  1075   3      22.398614352735851      20.331765762528654      18.271915405353056
  1076   4      20.056279220549918       20.08063161208911      20.051964062430038
  1077   1      22.212254055521967      22.305217235908579      22.271358981724074
  1078   3      22.505708988960915      22.321184850796932      20.220189318864033
  1079   3      20.194115907794085      22.317344863732252      22.344970134292936
  1080   3      22.533371804915841      20.259356517694275      22.288081574609581
