(written by ASE)

1080 atoms
4 atom types

0.0      24.299999999999997  xlo xhi
0.0      24.299999999999997  ylo yhi
0.0      24.299999999999997  zlo zhi

Atoms # atomic

     1   4   -0.059974710560725036    -0.35395014161008931   -0.097246794741685114
     2   2       2.008918198573499      1.9958797828688009       1.919240828127625
     3   3      2.1047390462306743      2.1020503097855161    0.032682730301504349
     4   3    0.078006121583895652      2.2536402931526527      2.0939653178890145
     5   3      2.0259210277666018     0.10918003452196655      2.1762862491379646
     6   4     -0.2462417151589131    -0.18553445119065851      3.8680823337107295
     7   2      1.9330238110366436      1.9084805950920385      6.0842064440653223
     8   3      2.0317607327400817      2.2835162389037151      4.1242327573773494
     9   3    0.050983232355783899      2.1995182905521578      6.1463146419059296
    10   3      2.0648705324130567    0.024373220279325994      6.0120015717517727
    11   4   -0.035837619017121972   -0.043329888374611443      8.7224597756284066
    12   1      2.0334883081215804      2.0264183971988126      10.122171911809994
    13   3      2.1623760458233714       2.062954258243638      8.0210354086605058
    14   3    0.013111483883217152      2.1371632127435718      9.9990673071645606
    15   3      2.1190154945790121   -0.014832687829153517      10.058558379588673
    16   4   -0.093559771088030722      4.0680590410840329    -0.26986445638389661
    17   2      1.9440337960434733      6.0720658529215337      1.9365509377599672
    18   3      2.1090006694285472      6.2042427241079237     0.07986572099326604
    19   3    0.058716636951244551      6.0325357368445243      2.0841235506403266
    20   3       2.200260905842093      4.1411266969979481      2.1216767685894991
    21   4    -0.13272899452374398      3.8607690203355269      3.9669832534561564
    22   2      2.0216884282984329      5.9673386156687895      6.0514076611134913
    23   3      2.0778641717391078      6.0623404363476379       4.113716695539984
    24   3    0.055196434760215893      6.0029200192567584      6.2741074611146859
    25   3       2.219744563302541      4.0758140984417057      6.2129240189394395
    26   4   -0.068652196143021357      3.6936592489136215      8.2592085314200787
    27   2      1.9985630281566891      5.9971992043785631      10.121547841428308
    28   3      2.1061882434076939      6.3032862375483711      8.1355785920479438
    29   3    0.029397058340229508      6.0630442811813312      10.073887290940638
    30   3      2.1429078164419777      4.1135260921927328       9.970840183021858
    31   4   -0.082472126246990879      8.1192805019412511    -0.32471354588945295
    32   2      1.9530888368747625       10.08001865882121      2.0364331673077909
    33   3      2.2470233466185836       10.09992414640954     0.10017774518370184
    34   3    0.055594752931211563      10.247607777109458      1.9537039532504956
    35   3      2.0511564757779541      8.1077412199237777      2.2504729834039621
    36   4    -0.13100850343807399      8.2042520423484859      4.3061720463858508
    37   1       2.043800024707894      10.098184800037805      6.1080816473354345
    38   3      1.9897812854490853      10.266673303086417      4.0390212254266054
    39   3  -0.0078797620508539896      10.263468102820962      6.1831824481699487
    40   3      1.8334732449035491      8.0701803018914937      5.9798238854546542
    41   4    0.057153516089375002      8.0822845669195722      7.7631948341655832
    42   2      1.9878772671272691      10.051317861383916       10.07685660382749
    43   3      2.0662724340639249      10.182379912609854       8.157888628279208
    44   3    0.040395454512368228      10.350385545427681      10.041781895140572
    45   3      1.9161963466910081      8.1574152598437699       10.25573102943487
    46   4      4.0097598259280556    -0.30353644452992951   -0.065750343499379332
    47   1      6.0209717339679996      2.0459142749240491      2.0387073976529972
    48   3      6.1177761468153626      2.0955250492986761    0.011131236806065127
    49   3      3.9859993965825304       2.069321497280951      2.2609697469017807
    50   3        6.18255370103497    0.028248196329770024      2.1422470068878097
    51   4       4.152971564765461   -0.088836038703308778       3.648934974842875
    52   2       5.971699393369498      2.0026136453151904      6.0926148513417981
    53   3      6.2057872646804135      2.1224042120668103      4.1367381515581085
    54   3       4.081585065833055      2.0374082355236816      6.0317328165991553
    55   3      6.2965540166391545    0.037597295022583646      6.0199399024398392
    56   4      3.7075883331059338    -0.10693687579041765      8.2826060233291319
    57   2      6.0466085143834132      1.9691024460066713      10.200140689535553
    58   3      6.2055316557986355      1.9945237985798716      8.0794332575184225
    59   3      4.1178575286263932      1.9768126253439486      10.006087235585687
    60   3      6.2094641349506983    0.040933562088580885        10.2652507853113
    61   4      4.3271260637263858      3.8124319974186021    -0.31422638162394845
    62   2      5.9413357775389111      6.0055887024918171      2.0506694323677586
    63   3      6.0876738832819957      6.2175625328774222     0.13211362986301228
    64   3      4.0701428006865843      6.2303310550219848       2.235022289650006
    65   3      6.0527998826109055       4.109241565014349      2.1180712689993046
    66   4      3.9061152353004482      3.8189523894309265      3.9034616348618481
    67   1      6.0080763519377509      6.0404528438960838      6.0581481926299094
    68   3      6.3159324046681844      6.0985316357843189       4.050390970156486
    69   3      3.9934483188615308      6.3546705338699327      6.1133810990318294
    70   3      6.2076172245689758      4.0016348921586555      6.1405086944578384
    71   4      3.9652757482483616      3.8366924922370389      8.3337519003668223
    72   1      6.0317153640945289       6.028731848498575      10.125281275099715
    73   3      6.1056793996107137      6.2419703666863384      8.0892454229181769
    74   3      3.9647209364037317      6.2505123234623889      10.140501653768288
    75   3      5.9837477890258368      3.9998577159021944       9.905660239120575
    76   4      4.1431066443319917      8.1231957528356542    -0.42720531660892863
    77   2      6.0059862630106524      10.019350361626143      2.0375368764545767
    78   3      6.0963301043774427      10.095351858178075     0.11889825553222239
    79   3      4.1173775138670772      10.018196107904693      2.2322708664640576
    80   3      6.2814315522980753      8.1178222189434788      2.2087688394014187
    81   4      3.7301998610158451      8.0214654646863668      4.2428645515576662
    82   2      5.9690682043634506      10.089397931593982      6.0460041831793268
    83   3       6.312488628268845      10.246028907859447      4.1171862632426386
    84   3      4.1128795736556309      10.041419639495585      6.0079439198484108
    85   3      6.3148301537020917      8.1960320513341305      6.0322760748662434
    86   4        4.14314133120779      7.6934246586288273      8.1108978209089777
    87   2      6.0589575713811046      10.003158736568144      10.171406202372792
    88   3      6.1779295740975275      10.134288696376935      8.0882342247597538
    89   3      4.0858576223150811      10.119139996556997      10.222203956771057
    90   3      6.1681810569123305      8.1235240250678213      10.194357719495715
    91   4       7.558451162960651     0.10636257024510758    0.019734868294699223
    92   2      10.005121703340787      2.0153412858991562      1.9629635519413324
    93   3      10.185611206309471      2.0818158174372803    0.056355548814372505
    94   3      8.1473847717981869      2.1527493618286195      2.1237299432296068
    95   3      10.163709245887325     0.10539486892681203       2.084496875660542
    96   4       7.793288388948568   -0.063467434975138445       3.758761574213398
    97   2      10.065304807625408      1.9514027915784031      5.9578384445152777
    98   3      10.254133677732984      2.1535033852266912      4.0734649375795016
    99   3      8.1885689325971889      2.1142514729008264      6.0994909125787746
   100   3      10.139748130913029    0.061811653943279893      6.0667915533785823
   101   4      8.0902214720775376    -0.22265236357294321      7.7864253920214184
   102   2      10.013101240085772      2.0153629908825739      9.9798361931763786
   103   3      10.191507726121301      1.9764094824276108        8.10642260144928
   104   3      8.1342662066824545      2.1980093790592226      10.134509441778272
   105   3      10.061956308044717     0.10132237864078347      10.343408472628669
   106   4      7.7648566348558958      3.8277868625394835    -0.24914952980828761
   107   2      10.061466023425485      6.0814959776177888      1.8846734733577799
   108   3      10.309479707552333      6.1652572655356854     0.01808696194056103
   109   3      8.1531965091963166      6.0502336690841796      2.0764953849174805
   110   3      10.315504769310351      4.0753778781049936      2.0858077323725341
   111   4       7.733227872392459      3.9958233678029687      4.0691743999755436
   112   2      10.112443611167341      5.9137239874914354      6.0587321072112275
   113   3      10.173109491627262      6.0174513221994514      4.1415815432464491
   114   3      8.2186544425165398      6.1385050877873368      6.2011298344659336
   115   3      10.268930046905588      4.0426710678566593      6.2474694772878809
   116   4      7.6378209387520029      4.1657487232392088      8.1187666212202352
   117   2      10.017441153258236      6.1802541634503889      10.173845469944105
   118   3      10.276129870080299      6.1721453643141446      8.1257503617659594
   119   3      8.1422921530397669      5.9647950029325632      10.074106276720174
   120   3      10.384788069461324      4.0265416508844849      10.081311028504956
   121   4      7.7765536311557719      7.9542825792429923    -0.24764455555291157
   122   1       10.10490844435904      9.9956415845083786       2.026230670634154
   123   3      10.316820391991076      10.170991419933699   -0.053464537699543513
   124   3      8.0782487668672083      10.330119555105687       2.011679749718478
   125   3      10.210274216394389      7.9988450026676832      2.2155484104512597
   126   4      7.9215895310753632      7.8453536565044724      4.0621244125705251
   127   2      10.078231190214021      9.9585409364484132      6.1219123654204743
   128   3       10.11609756421111      10.326772673938205      4.1730669188776677
   129   3      8.1898452997309619      10.287339489465326      6.2191830844859641
   130   3      10.183680459170002      8.0981593656647917      6.0801741670927081
   131   4      7.7831371308109665      7.8080781012555773      8.0406998924629498
   132   1      10.085809283951013      10.082126181185078      10.155439890920423
   133   3      10.295309276442493      10.237459104301006       8.068797558771255
   134   3      8.0634858666008089      10.379560414946669      10.076583748157379
   135   3      10.200118664905002      8.0645618123595302      10.241310546089222
   136   4    -0.59408970916918624   -0.021373086790814576      12.187216091154204
   137   2      2.0278321540829691      1.9255263095974549      14.019696266914451
   138   3      2.0310980449448652      2.0841446373666925       12.15921459245445
   139   3    0.075045500041719407      2.1348471576965431      14.282576357870397
   140   3      2.0362415840121533    0.022374660265563149      14.236455549529078
   141   4    -0.19027621270853795    -0.19019025987389573      15.907697816400436
   142   2      2.0429529268631361      1.9695628055199663      18.115916062067171
   143   3      1.9762209759593015      2.1581877347581635      16.236727898174102
   144   3 -0.00072437103136955498      2.2172171689519433      18.326200426999247
   145   3       2.006456339732988     0.10878343317432931      18.308963851381268
   146   4      0.1104854828826379    -0.35182751010947416       20.27683972626043
   147   2      2.0187660931403832       1.975886536517625      22.187928166179375
   148   3      1.9432376850116062      2.2460528237677457      20.285918918807898
   149   3    0.024067338604740283      2.1747845995832762      22.425919068768916
   150   3       2.040122006606687     0.11603977503600557      22.257317022468129
   151   4    -0.23829797985056644      3.5731101638325886      11.971585058485974
   152   2      2.0167167429036335       5.961337412528585      14.086993080826076
   153   3      1.8931007948367085      6.0784731711364914      12.156425706203077
   154   3    0.010718972871322058      6.1497807762282246      14.343833086818856
   155   3      2.0132877072597481      4.0819833310885034      14.268094477435916
   156   4   -0.070655142133619342       3.799890664861326      15.981377618819064
   157   2       2.152559687098202      6.0863511945407298      18.075521701565794
   158   3      2.0030269300324539       6.239412521157206      16.186343377550166
   159   3 -0.00083309283064955577      6.2809497586584895      18.226366770240272
   160   3      1.8736635520365064      4.1682489988798332      18.299967226437001
   161   4    0.045379655850636844      4.0057051212504495      19.984270438508755
   162   2       2.087027005453876       6.052082607169325      22.166796439217642
   163   3      1.8348008600803576      6.1154975781462246      20.294703479592886
   164   3    0.030159259684368684      6.1277693266376252      22.521930669702815
   165   3      1.9742756513207778      4.1451599077162058      22.447661957483003
   166   4    -0.17120910327744532      8.0808209311899688      12.168438886973119
   167   2      2.1093311253569684       10.00417418643328      14.191373102523745
   168   3      1.9397659472134352      10.356069495004514      12.142293441288032
   169   3    0.014974970588613717      10.346016027856486      14.149808018748889
   170   3       1.846472921749063      8.1208990845911941      14.102485943510297
   171   4   -0.053519992453646865      7.9030321319258654      16.137056286124864
   172   1      2.0156067531621349      10.079203186505795      18.176570526859422
   173   3       1.987363021257754      10.213055941140375      16.112129886118446
   174   3    -0.06574180570643233      10.193669721121765      18.109667648220768
   175   3      2.0157725990962798      8.0636262356339206      18.422466284858523
   176   4     0.15811815448436559      8.0293358376578325      19.934073067766484
   177   2      2.0442387466565912      10.158912204130049      22.180408254087148
   178   3       1.871325234247432      10.148168258336327      20.311925851479735
   179   3    0.074448445743864236      10.129586852164778      22.610878310326186
   180   3      1.9404344282244361      8.1174284795873142      22.421683929090829
   181   4      3.7071783249634547    -0.12860951497881731      11.820421728149999
   182   1      6.0812314379548855      1.9651495337581875      14.099769432601946
   183   3      6.0540049808430538      2.2803869296230048      12.092726668516013
   184   3       3.973158782318519      2.0639052923613268      14.305959799296103
   185   3      6.0742955604528817   -0.033471942959995261      14.319404948701939
   186   4      4.3465499531982656    0.099709841237529878      15.947074962251241
   187   1      6.0399523984669266      1.9817213596309693      18.210586992766217
   188   3      6.0128658349439936      2.1281235735849813      16.204811808410195
   189   3      3.9405610379990952      2.2008816089813101      18.329091457393982
   190   3      6.1061778078343831    -0.03115334978494597      18.365511926509598
   191   4       3.958979252728152    -0.31472350059154591      20.237797362063098
   192   1      6.0234681329448962      1.9722230120572304      22.258203366075364
   193   3      6.1290654011013554      2.1921580703105921      20.246337791718403
   194   3      3.9648661801133227      2.2189989069062785      22.266740440607315
   195   3      6.2725508006905688   -0.013914663304562577      22.241231608941778
   196   4      4.4366580183492133      4.1048630015043761      12.322407601296685
   197   1      6.0307355545079444      6.0798930432910021      14.260448999634029
   198   3      6.0532364674852523      5.9517702721605819      12.153881772402661
   199   3      3.9316160053942282      6.1801814891688425      14.071820303807783
   200   3      6.0196341434057281      4.0591799153943331      14.219891477600022
   201   4       4.368194371739758      3.7856078022969846       16.05351686560892
   202   2      6.1827135246824341      6.0269710817039934      18.267130103569979
   203   3      5.9876960042098437      6.2418638333223546       16.26243165059434
   204   3      4.0147720167077221      6.0834538861359775       18.37116328669315
   205   3      5.9904159174183063      4.1039654140906459      18.206468441750911
   206   4       4.298258225833707      3.7445395456087573      20.159697124335924
   207   1      6.0190965396162968      6.0760098696979155      22.245243023535956
   208   3      6.2331105921604646      6.0569077395505353      20.231150815274013
   209   3      3.9792022519303121      6.1775709527778249      22.337257899296535
   210   3      6.1041026569039998      4.0819083523749606      22.378388695111674
   211   4       4.352690928597637      7.8380888187605473      12.301592443554771
   212   1      6.0315370915841715      10.163678492707133      14.121851521828047
   213   3      6.2229168217850264      10.264085149411013      12.078218276378715
   214   3      3.9832837546904059      10.061249825219241       14.04931300366251
   215   3      6.0277508659762455       8.114702662820827       14.01357480384573
   216   4      4.6086765127698799      8.2215806292671409      16.114099479379593
   217   1      6.0968141429015619      10.089055605019825      18.223355472999447
   218   3      5.9511118248519548      10.178520947291194       16.16439532682238
   219   3      4.0210593650087656       10.22895691225933      18.331753668953475
   220   3      5.9170976624903098      8.0707160798336304      18.333400954369047
   221   4      4.1240800548411647      8.4684352125649038      19.892075606597594
   222   1       6.014346090289088      10.170248345740765      22.299702228492301
   223   3      6.2575966412306228      10.094881643664747      20.279308342391808
   224   3      3.9816043771586513      9.9988427796478696      22.294020037346648
   225   3      6.1997048927985592      8.1072974263111757      22.363715494277486
   226   4      8.2689219348066132     -0.3027730750915128      12.149807165495881
   227   2      10.189225380211365      2.0539840043408191       14.02599517097852
   228   3      10.223719095240433      2.1646301546196063      12.126376918664644
   229   3      8.1747455510164784      2.1163937379147635      14.305101551848011
   230   3      9.9966164867345455    0.053785016720033246      14.154234949006758
   231   4      8.0533010949751915   -0.024985608481549588      15.798159368159741
   232   2      9.9814852595503147      2.0075967817734597       18.17058706487008
   233   3      10.197270433104354      1.9142747287174007      16.253507156702959
   234   3      8.1306737581829243      2.1824020251688458      18.244372343514236
   235   3      10.073921331260051    0.059833995114366094      18.481165950575885
   236   4       7.624216659227212    0.094959736756313251      20.213056037250922
   237   2      10.170178464088425      1.9291754874425426      22.150465221026799
   238   3      10.205856367314514      2.1828602519954718      20.269998222434836
   239   3      8.2211999967956775      2.2243129801292882      22.307059979643657
   240   3      10.125078958590548    0.039550516790717458      22.274355210128569
   241   4      7.8346533302423298      4.3144935693602999      12.475390331406993
   242   1      10.142256592042671      6.0343463870622003      14.166431163465205
   243   3      10.243335401451496      5.9245384810743813      12.107129192211804
   244   3      8.1147707843824897      6.1026870188813307      14.145315279892468
   245   3       10.31681529635695      4.0008987700365237      14.281891444217704
   246   4      7.7625368073375398      3.7411173232721104      16.007995701517245
   247   1      10.073855938806059      6.0020171706155372      18.258479734086595
   248   3       10.29171690987561      6.1713251958024182      16.196686067976344
   249   3      8.0806802451313082      6.1113668918520565      18.067975352270974
   250   3      10.447761368220547      3.9568672258841073      18.165416028123879
   251   4      7.7173958178279376      3.8641571128805405      20.417912613825823
   252   2      10.056871087154224       5.979416261039785      22.151035255057142
   253   3      10.140215101881667      5.9036514841776198      20.291226317126707
   254   3      8.1852759792121077      6.1119408430177655       22.44823607482509
   255   3      10.250444179226619       4.081329200820039      22.478840697225753
   256   4      7.8322852352321357      7.8649604801111828      12.552537137716548
   257   2      10.039729464089787      10.119390624495809       14.23961467755778
   258   3      10.115396054086061      10.380719233891947      12.208200935664042
   259   3      8.1531402764490135      10.228450449546601      14.184234622650548
   260   3      10.176039326655157      8.1744408852965726      14.008275273604982
   261   4      8.2936867139754078      7.5226747346588487      16.140488910845676
   262   2      10.060584589564366      9.9953655010878997      18.279013832156942
   263   3      10.334180630902237       10.13307557349969      16.213383424018211
   264   3      8.1733667876862359      10.223240600596352      18.074553018950983
   265   3      10.148035065452602      8.1211379677501885      18.279180734275876
   266   4      7.5915777820833261      8.1839781206252074      20.399938918112625
   267   2      10.123455546185127      9.9506017875544313      22.338572216295983
   268   3      10.038982786670385      10.306373397025142      20.260598239070241
   269   3      8.2087070140166887      10.103888828303912      22.456653947915601
   270   3      10.212949182488357      8.0668979115229043       22.21983497946195
   271   4    -0.22008179916291637      11.889235456001963    -0.12245838474439114
   272   1      1.9569104232464474      14.095406295507253      2.0143037041826801
   273   3       2.254227062548205       14.16932527279304   -0.030928889117256254
   274   3   -0.079126473493732932      14.351155592794479      2.0360886264039424
   275   3      2.2827446127788535      12.084631547508382      2.0031249845178265
   276   4   -0.021435860445206956      11.806062813848149      4.3744485444863619
   277   1      1.9579907234871166      14.186243406224866      6.1008840046770052
   278   3      2.0683428625997839      14.240198357759773      4.0535762483912228
   279   3   -0.076399911091507053       14.29558777962616      6.0014716488791571
   280   3      2.1253217055286662      12.168205669466623      6.1280116665019229
   281   4    0.024749304837910036      11.820668818080055      7.9001858040902944
   282   1      1.9370156424929594      14.124922403503941      10.154641227277049
   283   3      2.1133829323604614      14.291994855998849      8.1089898414422912
   284   3   -0.089298131507804676      14.298860999704505      10.056143077025149
   285   3      2.2706621382463275      12.135864271771604      10.094203382720881
   286   4    0.078460815025626143      16.183333736466054     0.41245612138255927
   287   1      1.9683577749411343       18.21887258357966      2.0444004006039642
   288   3      2.2552988850951294      18.160993116329468    -0.04944190857424733
   289   3   -0.048046442222351271      18.229069435920341      1.7724491974836005
   290   3      2.0742736557345083      16.193022999421888       1.970266444070192
   291   4     0.14351255733262153      15.758397946246005      4.0449511831317428
   292   2      1.8762481253928651      18.173970971715498      6.0279997369948699
   293   3      2.1436348225141741      18.344773217135458       4.093546355503169
   294   3  -0.0065813142066116666      18.409806726334164      6.0540018466448684
   295   3      2.0333071363632826      16.283259739143173      6.0317850537665336
   296   4     0.25224256868523359      15.959408552370814      8.4058126805836597
   297   1      1.9270092818252795       18.22637356958699      10.097744262899946
   298   3      2.2043540689183483      18.296138466215769      7.9814327535145839
   299   3   -0.072533369726093991      18.339891110329706      9.9022064523949123
   300   3      2.0924437133499554       16.22902704828374       10.06938219560387
   301   4    -0.25270211638833712      20.115575463164301     0.24019051387330595
   302   2      2.0301600001773163      22.158512435384615      1.9768250596427763
   303   3      2.0556588897872983      22.526899541049435    0.047303198942841324
   304   3    0.094011279436746809      22.377681625155763      2.0451696540661657
   305   3      2.1527673623322494      20.277867465459501       1.960966804527476
   306   4    -0.37003104535458731      20.402756558661139      3.9632999632839652
   307   2      1.9706672350825087      22.214166581107527       6.040839022499326
   308   3      2.1284206114279267      22.314733358906665      4.0269955452816735
   309   3    0.080475844819485068      22.235151533729439      6.0214448090999406
   310   3      2.2391244333082851      20.303491081356963      6.0510799029276621
   311   4   -0.026439109058925502      20.356875766964755      8.4894489738914363
   312   1      2.0111488787237866      22.246892501742785      10.118302648565873
   313   3      2.1956785917398758      22.321244039792248       7.987207024074106
   314   3   0.0092888998618420471      22.147374418951735      10.058709178824062
   315   3      2.2367140932191374      20.253529111168987      10.039995916165914
   316   4      3.6971621861319468      12.192228659675846    0.064257221731395586
   317   2      6.0670005450589484      14.056585527933347      2.0096505430195259
   318   3      6.1066123646581154      14.291742829532447    0.034125044725215124
   319   3      4.1572515164727584      14.326791587782754      2.0880632647313697
   320   3      6.0548453070737907       12.16103050699585      2.0298543969273575
   321   4      3.5050563512637085      12.230943407619847      4.1632893045943424
   322   2      6.0334790254531194      14.084348014225005      5.9976025032070925
   323   3      6.1972405325601096       14.19615785585763      4.0819918622610629
   324   3      4.1713712490276968      14.302019843628571        6.08877356888331
   325   3      6.1287394560507131      12.190665462027555      6.1999455739586313
   326   4      3.5458426654268207      12.287409033543112      8.0123210655991475
   327   2      6.0239330308348551      14.098676843658531      10.041433904660755
   328   3      6.1969350156423486      14.351837863878339      8.1104076369525355
   329   3      4.1487550070612098      14.358156310281876      10.146515885964664
   330   3      6.0498301176486233      12.216656399944327      10.035194764445853
   331   4       3.699493551938112       16.10573458217803     0.25978953399368387
   332   2        6.07669156343895      18.125415064485086      1.9862876215152556
   333   3      6.0369115251261602      18.276027099591722    0.045697772451802468
   334   3      4.1160000338680529      18.266324697567285      2.1049023904180753
   335   3      6.2280262045221102      16.218279959205688       2.141209240139117
   336   4      3.6353183075851265      15.976732419574931      3.8834937492104893
   337   2      6.0187193566212276      18.125658345067951      6.0768031530010802
   338   3      6.2087405389318233      18.415201668245384       4.095853924714155
   339   3      4.1335507281825263      18.285930469181277      5.9875241549149347
   340   3      6.2677189797217538      16.250182130742527      6.0911504568688137
   341   4        3.64597328538638      16.040429668730315      8.2180895098602136
   342   2      6.0596931933482976      18.125015468687483      10.117884598815538
   343   3      6.1467173003252995      18.288201001163486      8.0970298850805591
   344   3      4.1617428170694435      18.296149326454994      10.165300024313877
   345   3      6.2472848023518397       16.24947106872483      10.148821916464135
   346   4      4.2171741993665686      20.010392683299553     0.18906431659843484
   347   1      6.0709452635572285      22.240971182482618      1.9705195514128708
   348   3      6.0346102428181796      22.463789863657265   -0.050677264117529805
   349   3      4.0131524866400969      22.516952628596371      1.9768533737658867
   350   3      6.0171180736538883      20.223736423387791      1.9913521408584891
   351   4      3.9105968802385278       19.94666595405554      3.9295245008149715
   352   2      6.0187400601126919       22.20840382030039      5.9435766366615104
   353   3      6.1826464379831485      22.299642456816052      4.0599254513448262
   354   3      4.1247737457352214      22.440963547040244      6.0337164049393142
   355   3      6.1211623778735849      20.304476119385086      6.1673238074271639
   356   4      3.7064444836153454      20.114266048198694      8.2176474625346838
   357   2      6.0860401382278493      22.215456121428158      10.006634402255505
   358   3      6.1450392707591082      22.473699464062506      8.1171035381980694
   359   3      4.1637869423353386      22.449928557276721      10.170108142716481
   360   3      6.0942230559382669      20.332061312287784      10.089709921079825
   361   4      8.0747226502159979      11.763178536419472    0.041307321995085217
   362   1       10.13195386995976      14.124227964070268      2.0202082503504615
   363   3      10.157379523454518      14.328560844024572   -0.085655525921674261
   364   3       8.067145469056344      14.199560708266025      2.0157344262189172
   365   3      10.258596309330603      12.121828282820779      2.0703979996047854
   366   4      8.2983294017065781      11.896452249490952      3.7397435728834436
   367   2      10.133062876536668      14.081294972322736      6.0893414672202875
   368   3      10.114409400077673      14.267792834581572         4.1394017616748
   369   3      8.1502482655198243      14.273281194445342      6.2115895501457672
   370   3       10.24520958682675       12.21432892562828      6.1986528210536349
   371   4      8.0523401952576474      11.808010499543052      8.1800161824941036
   372   2      10.042547274025617      14.122276593842676      10.151039786747797
   373   3      10.166010634687519      14.394173814120764      8.1354671659975057
   374   3      8.1394108867312145      14.202057210758595      10.127553254394536
   375   3      10.269026959341636      12.244537190458736      9.9953933405076434
   376   4      8.4002738968634407      15.952516351711937     0.24426592107279782
   377   1      10.163049977427567      18.205051553668188       2.008596101120101
   378   3      10.083874412303803      18.312252263365139   -0.086359121921650128
   379   3      8.0752533592629572      18.455052337424732      1.9966067832060448
   380   3      9.9416008372695401      16.205794932874728      2.0258973928500961
   381   4       8.392328798919241      16.007921903932921      3.7602386648364452
   382   2       10.15567780214489      18.246645457200856      5.8988947933442404
   383   3      10.038718026179737      18.367987522206764      4.0457345614315141
   384   3       8.119998953482062      18.416460777044222      6.1837540823774733
   385   3      10.007745463561669      16.297830752901849      6.1315928753256923
   386   4      8.1182261851503217       16.05794740674984      7.8734859439475766
   387   2      10.077264899412951      18.143493560949562      10.043749352177281
   388   3      10.150409660771357      18.226390424309937      8.1596246300186195
   389   3      8.1692639828266262       18.45797479346982      10.133828391479863
   390   3      10.138648701291304      16.264442426407744      10.258006803623282
   391   4      8.0586783602318892      19.873296593948012   0.0012001137498940813
   392   2      10.077016489031314      22.179704550507509      1.9884177253209938
   393   3      10.217388736234122      22.507207621436322   -0.020724497614281787
   394   3      8.1803456773093384      22.279243485324269      2.0620627198062906
   395   3      10.258346383712615      20.317726863121447      1.8434553350273466
   396   4       7.953960345118305       20.11238254542608       3.745815236624459
   397   1       10.08543805632566      22.257125636164503      5.9599014755174071
   398   3      10.358151348940151      22.289552789001593      3.9245704376440904
   399   3      8.0681020528540355      22.261761961396875       6.234256773742505
   400   3      10.177464399933811      20.234059703326526      6.2891374877536634
   401   4      8.1899487034030329      20.243712548846094      7.7237266527916502
   402   2      10.160910641206749      22.178246619342726      10.079838008443573
   403   3       10.09094738097299      22.504859695269687      8.1788466488200573
   404   3      8.1253289629555354      22.363310013723932      10.249051194267096
   405   3      10.260821655587572      20.299465606786153      10.119358320010086
   406   4    -0.13842084829840301      11.925854988715527      12.268183366334522
   407   2      1.9373017435493547      14.067271520850815      14.215679613039947
   408   3      2.2269829868882107      14.188150290822076      12.182142896140228
   409   3    0.045686833043431685       14.19919839508453      13.991640158825678
   410   3      2.0984501123506334      12.172589500660685      14.142861249720527
   411   4     0.32187904859498034      11.943107044866711      16.420366846940077
   412   1      2.0002872433479495      14.168454439249727      18.204730675543512
   413   3      2.0244105305442091      14.264142005941126      16.125552392536949
   414   3   -0.072716552820173905      14.166740539365724       18.40223334890889
   415   3      1.8554769477623752      12.136811624468178      18.250748954872133
   416   4     0.21356785567671827      12.204161627636102      19.908168263769493
   417   2      1.8860017509729219       14.22826537854516      22.264692483270306
   418   3      1.9743295974640398      13.982803644963026      20.360084583384157
   419   3   0.0024345469131941207      14.217313924170597      22.446354881895996
   420   3      2.0472942128343616      12.123888771465415      22.497367632214544
   421   4    -0.28853142142706883      16.034849991212472      12.372854169893378
   422   2      2.0715135265050315      18.123895837056438      14.065077017234076
   423   3      2.0855677695885375      18.364410712143346      12.182149326666107
   424   3     0.10010961011927004      18.263733732263876      14.339239092362885
   425   3      2.0069221460803548      16.218895826995073      14.074423747823165
   426   4    -0.31880485117150925      16.429844302820495      15.964743532271182
   427   2      2.0113724519919431      18.064008041441429      18.178669574244527
   428   3      2.1117337803395508      18.243932492748623      16.263345186804081
   429   3    0.071263080596562237      18.239970711811299      18.321732173615988
   430   3      2.0534287046682755      16.199520722751135      18.339296294872941
   431   4    -0.16239580500318879      16.091216419436257      19.924670482295255
   432   2      2.0124689011395889      18.377555336578478      22.358609114370392
   433   3      1.9755330838014626      18.327400188976124       20.24699891461707
   434   3    0.037837388288106608      18.242660218613803       22.36547920561614
   435   3      2.1699827077332365      16.143671044547865      22.221890462105065
   436   4    -0.28395526090641865       20.62480393191013      11.952687328149809
   437   2      2.0207154289647824      22.181375179794095      14.156062521429607
   438   3      2.1799974957830166      22.266370897683249      12.239578178601491
   439   3    0.097494240177641578      22.300077600668292      14.252290940973568
   440   3      2.0896146749308131      20.286283596379334      14.322859057607255
   441   4    -0.32129031772507771      20.014973124877844      15.908836587241225
   442   2      2.0139242956308481      22.141658350566821      18.171548479087676
   443   3      2.0258965776800468      22.422141020871997      16.265354889337939
   444   3     0.04312734616605006      22.377374358795461      18.386130502867072
   445   3      2.0278624804753695      20.278205013651338      18.267529023609001
   446   4   -0.059124867392495097      19.908918467041314      20.115548171095345
   447   1      2.0072000552754199      22.245081535421935      22.261626173980709
   448   3      2.0678085673445401      22.501894132536439      20.194065493090104
   449   3   -0.025774914858121032      22.521292511810454      22.218749814011055
   450   3      2.1215023726498594      20.239455510118002      22.316170677149579
   451   4      3.7196906929768443      12.115354858768397        11.9742727975213
   452   2      5.9978580793363356      14.092903411434088      14.122622722064431
   453   3       6.166650119529467      14.245018097434057      12.101741959544153
   454   3      4.0680730860316352       14.36798696817476      14.185716311516199
   455   3      6.0664664655672409       12.20896727242995      14.176084870954844
   456   4      4.2214129713324757      11.831906018820952      16.492364411902997
   457   1       6.068252130311671      14.140792483754268      18.244196973938944
   458   3      6.0908373572899599       14.31135647157204      16.135098023789212
   459   3       4.037826373973072      14.060181420913375      18.158562521767113
   460   3      6.1251837129317241      12.127713208287245      18.165658649295239
   461   4      3.9764416799729756      12.279733292784067      19.738349216287173
   462   2      5.9988587744534421      14.081098985039672      22.321970112484493
   463   3      6.2676304071528612      14.062860344770344       20.31531455971281
   464   3      4.0887703164765759      14.121681981395762      22.211703863777498
   465   3       6.263621608637215      12.190692192071509      22.401345253861496
   466   4      3.6577655261718309      16.025126063008727      11.901329145109962
   467   1      5.9924350029515985      18.169857476115997      14.106234815593639
   468   3      6.2646270978177512      18.389029949486464      12.059997624990043
   469   3      3.9943982567869982      18.337009126108008      14.273285792513882
   470   3       6.304676415697779      16.200611327447028      14.137986956296427
   471   4      4.0258922655738303      15.672347844685275      16.425854409852551
   472   2      6.0961537079477059      18.080590650889199      18.222245734962197
   473   3      6.0568286011929597      18.364556291994788      16.262692533434372
   474   3      4.0502582381658971      18.336013472073553      18.347864185670613
   475   3      6.0771097933979146      16.210437343069575      18.297287091715553
   476   4      4.0691078493169499      16.217593962132376       20.56230245232538
   477   1      6.0570816340283624      18.158357884622436      22.294093087337657
   478   3      6.1184076171176311       18.41567513163454      20.196764567698466
   479   3      4.0111588177634347       18.16919994968357      21.992123881622341
   480   3       6.054632144058786      16.135786566745683      22.016263964872081
   481   4       3.749802888283206      20.098361913419556      11.827669001654463
   482   2      6.0555599505717597      22.221305139026683       14.03585721502059
   483   3      6.0623795457429503      22.308294148705706      12.145966629422993
   484   3      4.0636440456847485      22.394926763672686      14.359663837561451
   485   3      6.0474674453836474      20.321160862905113      14.332511213791586
   486   4      4.1389254955485724      19.927550085733444      16.015911697024912
   487   2      6.0615885383869665       22.26922464009823      18.158694332684334
   488   3      6.1135551151122973      22.374892319778784      16.251727041740619
   489   3      4.0407324892364871      22.408374417494102      18.313157197348684
   490   3      6.0129823377578475      20.331553880641096      18.213778291746117
   491   4       4.129825917242206      19.924366575571202      20.336386845321954
   492   2       5.989889714774173      22.193224927258093      22.294889534295645
   493   3      6.0431564212387885      22.355171071240182      20.291567278297137
   494   3      4.0671882922085576      22.512847718480295      22.279100274829887
   495   3      5.9307265995884686      20.291505491157785      22.346097021937243
   496   4      8.0503980802122506      11.808012693980533       12.15737097897936
   497   1      10.106957716872355      14.159128006305187      14.218808474190258
   498   3      10.258521764340975      14.176472416512919      12.083170150967479
   499   3      8.0825968129400909      14.268181044979226      14.182085093833788
   500   3      10.418260641784951      12.115379743480243       14.26992066294774
   501   4      7.6750244320394456      11.896509277539796      16.348965892625611
   502   2      9.9824115222989036      14.231433294022366      18.235972986401372
   503   3      10.357208845141182      14.231771371135196      16.261017020379803
   504   3      8.1240896887435188      14.185546679130033      18.119890030013696
   505   3       10.33129725733985      12.185485244632719      18.153894274429796
   506   4       7.645745076203279       11.96337656437268      20.139879872931775
   507   2      10.119781787113238      13.999732392714746       22.25278503061055
   508   3      10.117483395117738      14.116596980587039      20.235955118140421
   509   3      8.1466957899153929       14.33928203484469      22.297479845822377
   510   3      10.139182185916708      12.138305690829094      22.334068589247938
   511   4      7.9352531315944983       16.00445227573735      12.436743814651425
   512   2      10.046941825861904      18.250957718868591      14.291259829988999
   513   3      10.136801945655883      18.451472843547219      12.121812222053286
   514   3       8.131258879914725      18.416831907413858      14.209847731191186
   515   3      10.134412240635537      16.304947986620832      13.978171876426458
   516   4      7.8608787822960533      15.873040412222943      15.983712435693301
   517   1      10.058310886048892      18.173351530204073      18.267886570602698
   518   3       10.23181762748354      18.178142183319206      16.172822846424317
   519   3      8.0273574601827704      18.431827715729959      18.200938697966748
   520   3      10.222864098200882      16.147695975223279      18.242135596015178
   521   4      7.8194182193482229      15.944089304835085      20.451031270828437
   522   2      10.072092672619567      18.113226512229733      22.241271655470229
   523   3       10.06199711802153      18.511858955978127        20.2889481476859
   524   3      8.1148493082969857      18.428748160138372       22.25251245560279
   525   3      10.077243042654469       16.23053733542076      22.101609102697349
   526   4      8.0230724659388795      19.955314652966507      12.198278318427304
   527   1      10.086089134292504      22.222543301052795      14.217800248892717
   528   3      10.175113227694212      22.391801439199124      12.128983268310657
   529   3      8.0198966489610957      22.361724377448294      14.174563205341434
   530   3      10.313406886420903      20.214004147875904      14.151507524256933
   531   4      7.8729152314771564      19.988588162756571      16.173204855828793
   532   2      10.071491702166103      22.230375941924237      18.129827946923353
   533   3      10.034110342100531      22.529660719038802      16.257930238110649
   534   3       8.081263260970605      22.267093654386365       18.37789052153278
   535   3      10.201533094632502      20.338960735546451      18.121444362735698
   536   4      8.0432429858534533      19.905983673713564      20.200765575257247
   537   2      9.9957671313112453       22.19852740564415      22.218928049062239
   538   3      10.240736156508415      22.305666331053935      20.323277982319478
   539   3      8.1056742147334724      22.221287346544525      22.279967877270291
   540   3      10.228332696419361      20.335623442253379      22.417359876969858
   541   4      12.003489651596258    -0.18317445232699886    -0.02940548368617555
   542   2      14.096395456872305      1.9679018990561745      1.9925337891504533
   543   3      14.293271258640157      2.0272467114664292    0.089274029286494569
   544   3      12.193968197008981      2.0677964622089178      2.0735258983657743
   545   3      14.294722657349901    0.071115494964702708      2.1853139634195244
   546   4       12.10097765998035    -0.40349121277913275      4.0612996757508402
   547   2      14.063364985458113      1.9741543409629465      6.0970284173933456
   548   3       14.26519841848752      2.1884165145917072      4.1382684416335112
   549   3      12.186336556652209      2.0067956364780022      6.1673100524516666
   550   3      14.324501915298766    0.069190315329728871      6.0306874910704273
   551   4      12.109996648915525    -0.39349665059792721       7.898249129207735
   552   2      14.098652357631286      1.9821450604882205      10.183505495269944
   553   3       14.31413985946209      1.8980296013912927      8.0899551436864492
   554   3      12.165667759361273      1.9860736795556206      10.118965040456382
   555   3      14.387340544679684    0.041482061143889595      10.197203241476547
   556   4      12.124864020161445       3.836922203149864    -0.24553963088567599
   557   1      14.200643652320384       6.041309599932541      1.9566269583059581
   558   3      14.072681371020895      6.2927571657515404   -0.058541992039846703
   559   3      12.139592564168442      6.0993248442965697      2.2353279153593268
   560   3      14.176861445652408       4.005808021346497       2.183969461797981
   561   4      12.172525130481089      4.1511365252619159      3.6839867691061849
   562   2      14.167501670574085      5.9684068657644991      6.1388320350446195
   563   3      14.304871579105754      6.0637444972276384      4.1385850237632829
   564   3      12.194691611700875      6.2123295630290194      6.1228395947011416
   565   3      14.212605550082387      4.0722654051545062      6.2292027007776767
   566   4      12.140378603289651       4.160458853544438      8.3959469486995957
   567   1      14.171825768052983      6.0337222958596159      10.170166428673602
   568   3      14.149575297548708      6.3480368908447984       8.072251678972874
   569   3      12.153934673500766      6.0495052248419974      10.051338274277862
   570   3      14.124901176710335      4.0039149085626509      9.9051888349679231
   571   4      12.387475713750414      7.9302624713478469     0.19180414239152313
   572   2      14.270987305846489      10.095817661154449      2.1527172381668698
   573   3      13.994157129385448      9.9797515466501316  -0.0048337534887577483
   574   3      12.202690743957398      10.189286853540549      2.1585824579869639
   575   3      14.056118591619679      8.1328414279250083      2.1655723527335193
   576   4      12.123302824558872      7.8869870755143214      3.7871785634132848
   577   2      14.090568509189263      10.067878928961056        6.18603429636185
   578   3      14.363073296397772      10.305177177768016      4.0781491796404046
   579   3      12.190964622944611      10.258527487580633      6.0117428490920606
   580   3      14.215791924123225      8.1798140477370485      5.8983799419988294
   581   4      12.146780533757726      7.7910088887799676      8.3323534246414912
   582   2      14.121617359416188      10.065726157618149      10.224100067117956
   583   3      14.094856609526543      10.115796642378587       8.108207572649281
   584   3      12.228103373186304      10.252981269353771      10.142429328420489
   585   3      14.246798759242973      8.1840027533265651      10.253659874333755
   586   4      16.082955218078933     0.10010567509429591    -0.44285141136010964
   587   2      18.138130124442565      1.9838790164163445      2.0150509497183737
   588   3      18.352243813193169      2.1444868112992204    0.091162422805457249
   589   3      16.245751467719113       2.230333323082895      2.0924525971099608
   590   3      18.219526494784798     0.09645912894060138      2.0821656815450664
   591   4      16.215829738981171    -0.32559441617759782      4.2890521505906696
   592   2      18.078243556118835      2.0217518886220671      6.1213215299828825
   593   3      18.335822160720593      2.2074366526445659      4.0297481673445938
   594   3      16.215548061466865      2.1396406235569279      6.0672866662338629
   595   3      18.222470582813383    0.086182995038629473      5.8196064628995003
   596   4      15.839259247494667    -0.17961328226409781      8.1409808023009784
   597   1      18.159546568755516      1.9798951977558275      10.111595144879358
   598   3      18.423266030600839      1.9546912954122182      8.0242630063206768
   599   3      16.175115751987484      2.2435042825555089      10.154757681994715
   600   3      18.378241893655282   -0.055870421112228973      10.184637058268631
   601   4       16.09827370575821      3.7653707868167694    -0.30947833061231422
   602   2      18.107046822659921      6.0992535863413861      1.9476362609914211
   603   3      18.376718707942587      6.1078932852488208    0.011963009122126781
   604   3      16.235274271460437       6.023455153298686      2.0938454047330839
   605   3      18.431774657228637      4.1071453476186308      2.0610993831183175
   606   4      15.915628792541618      4.0389966718212298      3.8595977665043972
   607   1       18.17263680542413      6.0168785253851143      6.0732360785262491
   608   3      18.321331329585732      6.0706459775628296      4.0324534486171748
   609   3      16.150036239173275       6.263502517594798      6.1346608281354831
   610   3      18.478052814495655      3.9933003440874484       6.110950609585772
   611   4      16.205052178023536      4.0634480416876331      8.6191991562737602
   612   1       18.25368582527333      6.0713667082091636      10.163323543520574
   613   3      18.382382818843386      6.1821476479645892      8.0995938502156211
   614   3      16.214367606580943      6.1229930324608164      10.032382816915991
   615   3      18.387199946289421      4.0495185344065314      10.041163671325258
   616   4      16.426508061173887      8.5243837443945694   -0.061741170389283812
   617   1       18.17688773608975      10.115785303043021      2.0553519489091192
   618   3      18.371722899306352      9.9893173036105516    0.029518576201670851
   619   3       16.15481857134268       10.05590244175211      1.8080084143800068
   620   3      18.287778152711766      8.0314558572298651      2.1490985882415052
   621   4      16.043051966817668      7.7576245381245084      4.1369999653117198
   622   2      18.121148290950067      10.088217309394471      6.0056811633826221
   623   3      18.212471824622344      10.212327443947611      4.1076981580731839
   624   3      16.211070754501414      10.131827097027205       6.250759580133602
   625   3      18.357949689542199      8.1534145408950032      6.0673704689111911
   626   4      16.278766330675211      7.6216079845643332       8.198609037157663
   627   2      18.104484112259914      10.061727782863441      10.131731934726844
   628   3      18.485087367454618      10.118539207664671       8.147969760185374
   629   3      16.224078327018262      10.243347660580895      9.9786587029629104
   630   3      18.278815933496961      8.1751268991550727      10.179425498743923
   631   4      20.069961214481115    -0.19065477817028245    -0.17469975106931665
   632   2      22.193163569792642      1.9860251464038599      1.9706734320006278
   633   3      22.352618589417176      2.2329075760750952    0.066735658909207463
   634   3      20.315798271826711      2.0698736388683145      2.1018788274502458
   635   3      22.463777671948908     0.11092651328363556         2.0164950998313
   636   4      19.996078331671534    -0.18811273349984187      4.1331533628776418
   637   2      22.169854676042014      1.9730800848229848      6.0936131117116421
   638   3      22.523125044356053      2.0566249610820186      4.0551719855427111
   639   3      20.307769819881486      1.9051961539793218      5.9334050896172599
   640   3      22.461352539269559    0.027261433920734816      6.0157847274282785
   641   4      20.229108175087493     0.30857720480783807       8.440943704732593
   642   1      22.257084492939498      2.0363100711068332       10.10049367936969
   643   3      22.268026537766744       2.073624057914806      8.0102677811143845
   644   3      20.248520955883386      1.9100339391162395      10.212397721853488
   645   3      22.307594308233345  -0.0015536257854911009      10.116637516106968
   646   4      20.003968350111958      3.9660089110013019     -0.1986233920041256
   647   2      22.206258549581797      6.0235548057229504      1.9553653047787414
   648   3      22.323683191141328      6.0004900024932564     0.07716247052408777
   649   3      20.339397412780261      6.1577984990218591      2.1904737795896922
   650   3      22.364466049908643      4.1071117619544077      2.2214584351162374
   651   4      19.871460136821554      4.0974579350265241      4.0965439328312963
   652   2      22.233267285806907      6.0209960226872186      6.0051007335362998
   653   3      22.477247556141755      6.1625338989375473      4.0959022454072764
   654   3      20.350554288822018      6.1971713548302967      6.0549959003150624
   655   3      22.306135334034266      4.0483341809872151      6.0082915076708474
   656   4       19.78809521606151      4.1544887493455711      8.1689107112940409
   657   2      22.237760863589422      6.0167645454110632      10.034448415271067
   658   3      22.274840471067932       6.081829218432091      8.1220615623309946
   659   3       20.36839928375527      6.2060975742379139      10.244114424987249
   660   3      22.303144105063712      4.1171905409225742      10.234061163514719
   661   4      20.048299915504625      8.3595637422658697    -0.24579152116905337
   662   2      22.177627805766587        9.98017623640221      2.0825742249328725
   663   3      22.281221608469085      10.258929322753289     0.14887338388928847
   664   3      20.309645774666421      10.111748775067637      2.2509279622523177
   665   3      22.452522121900234      8.0778277027429635      2.0805048538576951
   666   4      19.879271910750838      7.9402935638006191      4.0241526959274845
   667   1      22.221592617455453      10.058069034690096      6.1027754074967007
   668   3      22.542366200486153      10.117596585022916      4.0336474801422577
   669   3      20.211204452842825       10.30418629872354      6.0212584932270872
   670   3      22.554330119548133      8.0250370360220824      6.1447089357238234
   671   4      19.938152178037672       7.867762749041507      7.9631037487571508
   672   2       22.18125796192906      10.027918768313439      10.071310079341426
   673   3       22.26514492628521      10.316761255664328      8.1715597033753813
   674   3      20.302518276851515      10.151016514120892      10.286487108691606
   675   3      22.472645378991967      8.1388287852838967      10.121269650713494
   676   4      11.955604157890654    -0.25534638004857346      12.078015810263466
   677   1      14.119298272381247      1.9866514299288367      14.173561085293285
   678   3       14.28367712052755      2.1149191664435039      12.111579294029998
   679   3      12.103517211467995      1.7919064827117839      14.294490197902315
   680   3      14.437054028215382   -0.068680681701747223      14.145093402287561
   681   4      11.949687297251694    0.021363631598644083      15.977261439115981
   682   2      14.089467903348472      2.0378065326452544      18.204311367258267
   683   3      14.378549287178336      1.8894265116143827      16.232633888564049
   684   3       12.16912303121371      1.7768423497035923      18.277616048743937
   685   3      14.387143379680174   -0.004274378799704515      18.281522983140842
   686   4      12.077271503507005    -0.18279975751961766      19.921581988256733
   687   1      14.123881379583963      1.9786947607724401      22.200907769424472
   688   3      14.357563847721496      2.0040306669797654      20.194534302383726
   689   3      12.109629298056225       2.081934975636166      22.453494872771358
   690   3      14.394129503462153   -0.048988547602046177      22.234162427545414
   691   4      11.922368624926783      4.1954244791667801      12.023902295857308
   692   2      14.116075805080332      5.9031736435771256      14.167194873274626
   693   3      14.376136943614169      6.0335296436844219      12.217646484329354
   694   3      12.223046633884691      6.2327783954501133      14.066112874530859
   695   3      14.142601874200086      4.0520811813936746      14.279028301030943
   696   4      11.793771310843754      4.1916278427859526      16.198877739407042
   697   1      14.218614235074678      5.9902856228402417      18.217980774949044
   698   3      14.139447792229971      6.3226323834006761      16.130063478765429
   699   3      12.175637103858328      6.1774029960961538       18.32540391295856
   700   3      13.989457203790044      3.9763555723482065      18.163172258719886
   701   4       12.11929760813037      4.2509334971970736      19.859893090915314
   702   2      14.093111535421347      5.9991166960262179      22.290791610144421
   703   3      14.293122260103804       6.121237280772319      20.323440903827493
   704   3      12.163837971328938      6.0889201199648628      22.237585317308067
   705   3      14.187422556584304      4.0887676516712688      22.440121653429049
   706   4      11.914808516690174      8.0259365532144162      12.357711433377833
   707   2      14.208202692356684       10.00545549807309       14.28242799608026
   708   3      14.345676714544016      10.358067557410173       12.10367305579252
   709   3      12.244816167535319      10.083162416177352      13.911811119720722
   710   3      14.345060275367079      8.1388675489213362      13.996017732155357
   711   4      12.043746964846623      7.7046837634467185      16.376065074005425
   712   1      14.109187751784017      10.149773839856159      18.216499076656106
   713   3      14.148476594436987      10.074000915160193      16.151260846341053
   714   3      12.103226306971644      10.117144700176519      18.479166443964402
   715   3      14.330473115345997       8.123474395968536      18.338844133568347
   716   4       12.29741394236755      7.9246653733158894      19.859144116796994
   717   2      14.112928029084481      10.112868630194614      22.308208648727646
   718   3      14.375327674443483      10.267815901264248      20.294713248320257
   719   3      12.150263561954951      10.239990446785518      22.061138212807446
   720   3      14.166639605153286      8.1325212041401667       22.14803864933015
   721   4      15.883597470144275    -0.17045235707825795      12.115097151948927
   722   2      18.213416074823087      1.8674321661169806      14.178734858357702
   723   3      18.285244334747308      2.1518954387299716      12.229988326034098
   724   3      16.280118689912509      2.2283427127987312      14.150188457058629
   725   3      18.232200199631979   -0.032359732105880931      14.236064629023213
   726   4      15.839323093935617   -0.062720413348462498      16.186026608325026
   727   1      18.218767838692393      1.9408361514105041      18.192487656954636
   728   3       18.19287983831687      2.2217672310238052      16.170165341667889
   729   3      16.195650423688608      2.2004530432807132      18.247458259257442
   730   3      18.273074031381398   -0.091943423618970885      18.416046819518979
   731   4      15.902040247133659   -0.021617994336274017      20.077151817400857
   732   1      18.251343122834108      1.9955309494208098      22.285011687188724
   733   3       18.33763260769366      2.1334048755150739      20.258837894160621
   734   3      16.233438984122763      2.1435135307620419      22.377285652169952
   735   3       18.39755584767461   -0.044227684431754399      22.299172181171581
   736   4       16.15100526582793      3.6701554181955971      12.154643479831806
   737   2      18.129028566750005      6.0369020792191073      14.149300368974746
   738   3      18.246832196199357      6.1505076263756413      12.230003487311652
   739   3      16.241239913601135      6.0868220802209914      14.307403438351475
   740   3      18.417295765228396      4.1285192265378257      14.237887053430574
   741   4      16.137558611725467      3.6150534336433751       16.24380267843145
   742   2      18.166996491407019      6.0055100710675617      18.175943426141579
   743   3      18.458897922677441      6.1511545071616434      16.225035619767475
   744   3      16.286153026359834      6.1302661326987877      18.111994855834677
   745   3      18.390991584180547      4.1354611543481639       18.25000696911037
   746   4      16.266577096266747      3.4949221709677323      20.278593161168306
   747   2      18.106630761114225      6.0932173710760464       22.17225691284607
   748   3      18.256252100506217      6.1107315678625689      20.245027230156783
   749   3      16.225675596727644        6.08521563892538      22.378614301179809
   750   3       18.35036693167589      4.1498979048513682      22.368829979343079
   751   4      16.059708731899239      7.6691157627750721      11.948045778097388
   752   1      18.143329645385109      10.088740030550396      14.192049873173946
   753   3      18.183998847316015       10.25400339337158      12.074732520202119
   754   3      16.140561793626606      10.392465540404757      14.166804642441738
   755   3      18.394711492516006      8.0613950014181182      14.210605401014318
   756   4      15.802213344445368       7.971317790532666      16.447503880409787
   757   2      18.117224448558854      10.104077513546461       18.23882154147628
   758   3      18.482481303141654      10.180001428247097      16.223936725179115
   759   3      16.241714444023042      10.263942242411954       18.09764987830707
   760   3      18.297378239077815      8.1396115535772218      18.162473705732619
   761   4      15.784283256919815      8.0749263183604025      20.147842506049415
   762   1       18.16201516476232      10.156303730358784      22.248496098959112
   763   3      18.297342989642818      10.138165439877769      20.192766111011672
   764   3      16.142151386180672      10.082768441303786      22.432398981038343
   765   3      18.356651022852592      8.0396555510067635       22.29903447890192
   766   4      20.327835908316796     0.21142676161820925      11.831421159483533
   767   1      22.243811562232349      2.0264225584243647       14.17391868178567
   768   3       22.39879401327488      1.9630489811162064      12.166332552518123
   769   3      20.210589988694064      1.9948959908704997      14.344041573221896
   770   3      22.369579962414559  -0.0088267510095422462       14.33778359224268
   771   4      20.445851019120994    -0.16407785371718853      15.781123196158788
   772   2      22.266329154815498      1.9261341957010965      18.166208339901512
   773   3      22.365313218846943      2.2043193530411678      16.280008088400216
   774   3      20.353974760587537      2.1421253846494372      18.271382485793684
   775   3      22.366153764214864    0.056461634818898501       18.22158550139001
   776   4      19.812451791022053    0.067040164001856348      20.207214489326596
   777   2      22.261500126451807      1.9969934258561484      22.200590218911007
   778   3      22.336470408668614      2.1473553065623645       20.29327783375086
   779   3      20.361716879602866      2.2010513758913119      22.367806695052568
   780   3      22.280027554357652     0.12188536661108747      22.426512526499828
   781   4      20.019342352130266      3.7867659437388443      11.767660579370425
   782   2      22.229456036586544       5.981555079877471        14.0800182780904
   783   3      22.483056828713654      6.2324615781308541      12.172853251668363
   784   3      20.346813130538404       6.225435472732209       14.13964512304503
   785   3      22.336250014911407       4.117585388059295      14.195596295428757
   786   4      20.068758470452824      3.7199443593511794      16.090699033837524
   787   2       22.17959323731176      6.0463319385470777      18.134106782884679
   788   3      22.341796594687633      6.1489261917769742      16.203440326644724
   789   3      20.309899681601696      6.1861185795821196       18.31453693219818
   790   3      22.375311019236467      4.1548754746858023      18.322014430146201
   791   4      19.963041181556942      3.7568069949424685      20.157093409649281
   792   2      22.218938306659602      6.1196884748402924      22.137493671904366
   793   3      22.452112205761338      6.1992084653857535       20.25249055403193
   794   3      20.317586733919153      6.0828860710031689      22.272239364038704
   795   3      22.426531837626992      4.1337961071889904      22.362904249715935
   796   4      19.935024176272911      8.0578998870732477      12.272616547198318
   797   2      22.251976697565624      10.175132926366587       14.27738675589384
   798   3      22.562856820787633      10.087553177456167      12.082056663376214
   799   3      20.332973557546573      10.083517632151047       13.92427137393306
   800   3      22.488340530330394      8.1738062328794925       14.19517928002467
   801   4      19.912835665854175       8.185678715865782      16.092540316088186
   802   2      22.274199886626327       10.07297125108612      18.363179334930241
   803   3       22.19436381954015      10.292268746850111      16.164714629458807
   804   3      20.300141885953032      10.197423871403071      18.250051518132288
   805   3      22.346066533346978      8.1483193557886207      18.113543340920536
   806   4        20.1046870617532      8.4945499283928445      20.506113493845273
   807   1      22.297619069057674      10.112864244850083      22.271872252703481
   808   3      22.300467742150261      10.019994365027932      20.235584156982959
   809   3      20.271704816081602      10.017983717159137      22.330440620914061
   810   3      22.378253727405426      8.0370447455530929      22.468440139697464
   811   4       11.96118598761476      11.972359789849689     0.40803438231507211
   812   1      14.174751317957012      14.125767463121338       2.024704190178928
   813   3      14.232004908385187      14.296045299711318  -0.0038535865190034218
   814   3      12.158985172240115      14.308635943015647      2.0282628969421599
   815   3      14.177162110217944      12.086499007885394       1.845988286573425
   816   4      11.888679702632718      11.933160735355015      3.8005025063917932
   817   1      14.074156319425574      14.138107527790947      6.1115632376595226
   818   3      14.261861843057135      14.198093829894665      4.0595708943285054
   819   3      12.077036272109734      14.439004040089475      6.1002578514448933
   820   3      14.392002734079368      12.114089504141944       6.141939899860307
   821   4        11.9555206101418      11.887761527001809      8.2530959585004826
   822   2      14.064060155758606        14.1173050087703      10.116993746245548
   823   3      14.270803955709811      14.373402530016335      8.1866549701139526
   824   3        12.1886784068351      14.334046085735404      10.113977936720728
   825   3      14.220335863700612      12.236493780463341       10.00659620617377
   826   4      12.149125404413516      15.726143798572965     0.19021779215830478
   827   2      14.096711552003242      18.124426064477596      2.0615109997986103
   828   3      14.306380376741821      18.276844122388866    0.036970020035997447
   829   3      12.210647957280205      18.252669515674256       1.895835927434202
   830   3       14.28269011178595      16.246030110737713      2.0904256233159542
   831   4      12.220645887345292      15.710807993112633      3.8679693361000669
   832   1      14.179309048708399      18.233731524351821      6.0367239695300494
   833   3      14.163596164630288      18.458578877510099      3.9637467037538929
   834   3      12.097643831575088      18.247681554340708      6.1495506029371851
   835   3      14.273397170570925      16.233389674930383       6.113008404909964
   836   4      12.306657237563922      16.206299513322627      7.6721535284788418
   837   2      14.066941334024756      18.224631513483278      10.056916358372783
   838   3      14.222055863680531      18.209797303561224      8.1636390187150134
   839   3      12.167949413589563      18.280221482064395      10.247450333538692
   840   3      14.327586173891016      16.278820833745943       10.26756149174841
   841   4      12.031458380731374      19.853084947961115   -0.020989101006559669
   842   2      14.246930169220743      22.239582483360707      1.9449633322293391
   843   3      14.299214707474651      22.510232261040112  0.00025524017700825127
   844   3      12.221538006920841      22.559472682522646      1.8830073596221804
   845   3      14.117641763088313       20.33803425185377      1.8755220152589747
   846   4      12.470771239031079      20.253243582511988      4.1976815849150952
   847   1      14.161131212800486      22.306382471471995      6.0473821337593376
   848   3      13.978005809865834         22.236643910283      3.9564802388579356
   849   3      12.127244320621443       22.33905417312506      6.1811664115607741
   850   3      14.091288262834311      20.263088201778221      6.1155767747353922
   851   4       12.19198278837889      20.351766491319999      7.6417880245306256
   852   1      14.098407483695622      22.262580026854422       10.13206615215368
   853   3      14.316256526154497      22.385114696717309        8.11231669101109
   854   3      12.086275749317833      22.531593227560915      10.133081548482439
   855   3      14.351131449402891      20.218038333886746      10.098070671336751
   856   4      15.770925845231304       12.35960699352076    0.029251659556784017
   857   2       18.14832346200976      14.029128945353627      2.0478113800327673
   858   3      18.396016244308992      14.269192579355373    0.019546395495982534
   859   3      16.267461964192425      14.134480833010507      1.9679166487638555
   860   3      18.400605110736411      12.171701388786275      2.0097574989010649
   861   4       15.82270391927894      12.436076852192656      4.2448708978360212
   862   1      18.240600790838307      14.192396238815421      6.0782851830549607
   863   3       18.32805631948403      14.256947248017608       3.975968555933322
   864   3      16.219171815816168      14.220222954628474      6.1235602341680702
   865   3      18.226153153002745      12.131580189896162       6.238880992863983
   866   4      16.141914091185946      12.345800415141435      7.7388617195173808
   867   2      18.174841622304978      14.089002751375199      10.092568971656416
   868   3      18.339952151406653      14.343176696350334      8.1600434872782266
   869   3      16.267453566141175      14.310296848297837      10.126386895650816
   870   3      18.362337623944715      12.204388931084537      10.082013273990254
   871   4      15.722309093532971      16.040814941368772    -0.18440209611289984
   872   2      18.112030989814265      18.119739937779244      2.0569227590316901
   873   3       18.38686018098112      18.323449964263499   0.0041426831410834213
   874   3      16.239045014009747      18.386430567121128      1.9643383665013199
   875   3      18.291685225790079        16.2490027905624      1.9524179914776916
   876   4      15.850834610078126      15.919285479715148       4.336651500568383
   877   2      18.149782345314101      18.251565989619731      6.1382370822378158
   878   3      18.353844505454717      18.289942375081512      3.9587071476893736
   879   3      16.265419939942536        18.3396061967983      5.9887467972734587
   880   3      18.328897548539679      16.331561249267669      6.0003370447383508
   881   4      15.958817941939859        16.0160082670197      7.7930270825947039
   882   2       18.17801515615135      18.234159270778143      10.105500355032666
   883   3       18.35110552593353      18.339801968255166      8.0574849493625891
   884   3      16.285206826497028      18.283036019836562      10.159660259185388
   885   3      18.353157676346857      16.316579166804189      10.085199920240386
   886   4      15.948429298849891      20.004133871107083    -0.15693945302858314
   887   2      18.283589136923432      22.179141003956271      1.9729988321064404
   888   3      18.205902671721308      22.463317889375578  -0.0032024704279913952
   889   3      16.204376705689207      22.329161773799331      2.1429104139740853
   890   3      18.316938430772403      20.283135499470131      1.9350617297520116
   891   4      16.145403263759928      20.353484357191821      4.4411987857985507
   892   1      18.223080011037933      22.289506127375297       6.094523631213284
   893   3      18.322790709987686      22.363737476104681      3.9359607971569224
   894   3      16.199352406797274      22.229489668460566      5.8527292771540331
   895   3        18.3256999002101      20.235601751645572      5.8378236303611892
   896   4      15.747163623231712       20.48740693763153      8.0123762437397428
   897   2      18.177521534931024      22.320865297972066      9.9716079159530793
   898   3      18.187675908092565      22.291494413580704      8.1015387356214603
   899   3      16.267906296583416      22.278519346043044      10.258615959398334
   900   3       18.29976351854566      20.266579723437328      10.129154598504723
   901   4      19.962742525624947      11.764888115977712     -0.1929292173115798
   902   2      22.254064966286698      14.019009365081226      2.0332965670411616
   903   3      22.260822258337292      14.160806683820713    0.068452165091221109
   904   3      20.301096145051162      14.380091721523863      2.0376473736715548
   905   3      22.288333337493576      12.156409557985034      2.1874764929598522
   906   4       20.04269487323112      11.870813046991948      4.1220676788135551
   907   2      22.282867622339953      14.101892084136935      6.0971558425810208
   908   3      22.274442166813067      14.429332968277714      4.0292389981926222
   909   3      20.311729160459524      14.337520951252763       6.019207449255858
   910   3      22.275406485247547      12.218503260402677      5.9748259084956397
   911   4      20.102981429997541      11.901722911431662      7.8196564655293725
   912   2      22.287807617072044      14.058172491356579      10.121251967723886
   913   3      22.215322903290595        14.2218411869348      8.0615292537020249
   914   3      20.280527141097171      14.397232024559647       10.09854260238054
   915   3      22.260804556338591      12.185878167006216      10.246407059010187
   916   4      20.167735990810439      15.924453382498282     0.10845985028737871
   917   2      22.233269099639593      18.186243076302194      2.1284680618957617
   918   3      22.260533573234959      18.515217109967722   -0.050215719051181891
   919   3      20.287464515296922      18.340061297797956       1.929840901860453
   920   3      22.293592655335122      16.283032541123291       1.836151660769233
   921   4      20.061648396862239      15.924025063080604      4.2019616744928472
   922   2      22.226341860479728      18.181334549756357      6.1598149979970183
   923   3      22.390047185549747      18.264072731487119      4.0182820074870795
   924   3      20.314659434250096      18.366644463078952      5.8919094750491512
   925   3      22.294210637944538      16.313071320155636      6.1080187262763586
   926   4      20.112051176670555      15.953366553621436       8.149665404701901
   927   2      22.304662167621018      18.156497227783738      10.181523529555733
   928   3      22.188822929469808      18.526411912944713      8.0125481477047877
   929   3      20.284099884681751      18.389024573104173      10.022643642259309
   930   3      22.269904353587389      16.259577658410507      9.8686528944462726
   931   4      20.196408044606528      19.996278890390592    0.032858199850424125
   932   1       22.21431913020557       22.29804379323361      1.9793588637316277
   933   3       22.48686434167309      22.308457777213192   -0.067132383829435621
   934   3      20.195043768672871      22.446103894316661      1.8924774222826983
   935   3      22.457964013546988      20.251843509134876      2.0382413270798314
   936   4      20.056222825824058      20.252344894009216      4.2593507320168271
   937   2      22.187650438723704      22.290269779194396      6.1222428951203698
   938   3      22.476884779782424       22.38167068491752      4.0464573519985461
   939   3      20.306105800395478      22.389180653023971      5.9151113345356769
   940   3      22.284429504699393      20.330573145798077      5.7960450553418346
   941   4      20.296363215429448      20.302900405599075       8.409581410741966
   942   1      22.250223061373344      22.306976927447661      10.065711896599563
   943   3      22.299751873500206      22.158583828641525      8.0050455030803427
   944   3      20.228002572116566      22.147254395059623      10.138203229926322
   945   3      22.276104369855535      20.242252856070316      10.154416398003896
   946   4      11.869134394009315      11.987532103979524      12.324090699306561
   947   2      14.108313036513758      14.115065244162553      14.200148060460581
   948   3        14.3419493305608      14.264294049059645      12.114743143561318
   949   3      12.247052824011062       14.38136666577328      14.052251117320514
   950   3      14.124944815684509      12.217639539018842      14.147701722575551
   951   4      11.818941971128954      12.227407416462768        16.2685437168597
   952   2      14.170851348774356      14.119808189700331      18.363784369609043
   953   3      14.240234828800553      14.352415071621651      16.108221792768479
   954   3      12.244613949196646      14.264462187799962      18.224649007730452
   955   3      14.213527909989912      12.197819406503712      18.061151123215588
   956   4      12.001829260195057      11.860741928270034      20.086604515925629
   957   1      14.089313040727982      14.138993694679296       22.28656955254791
   958   3      14.325822626736572      14.071114901035379        20.2449850939004
   959   3      12.064699596322104      14.355532694521003      22.204376058064089
   960   3      14.330909319105823      12.108481608243387      22.354845749259017
   961   4      11.856762102571796      16.043210391144473      12.316769964259747
   962   2      14.149206805938828      18.150674447140169      14.155950202592244
   963   3      14.356782228750097      18.398332860861618      12.159493985394404
   964   3      12.220773575091478      18.207038987759415       14.01137610159472
   965   3      14.382540830455536      16.254168680419298      14.020407586010247
   966   4      11.936514994188579      16.225288097963897      16.593690823794294
   967   1      14.163298496151109      18.173053305916799      18.200950145731216
   968   3      14.234303471239556       18.24002519086665      16.101595119588783
   969   3      12.133866462209399      18.302585672927322      18.195282758907766
   970   3      14.386456027645773      16.151396589144674      18.241830574449768
   971   4      12.282575745754553      16.150134731123561      20.647406230100987
   972   1      14.120069848657719        18.2442332457471      22.287507082292194
   973   3      14.275952549476349      18.310141117414073      20.247018168291238
   974   3      12.079620447918295      18.270947993484103      22.173359897626973
   975   3       14.25812142822385      16.209971335648643       22.11321500257257
   976   4      11.850210156990762      20.140235307660912      12.314479916314987
   977   2      14.053544895784157      22.257929367686994      14.193498120738504
   978   3       14.26855909041319      22.280611224313798       12.19830358854032
   979   3      12.168786678160222      22.465255150431659      14.186342811368123
   980   3      14.204827950035764      20.279263362275227      14.208878013748029
   981   4      12.175880153455473      19.983549831365753      16.601395954296944
   982   1       14.10461438417633      22.265854368960341      18.188492706072786
   983   3      14.353935347865191      22.335796917766196      16.148077510818659
   984   3      12.055561091610205      22.479542082714591      18.232767816191064
   985   3      14.209731014199448      20.250537462416226      18.110309388862621
   986   4      12.184691470885289      19.759622982480995      20.080952671892305
   987   2      14.042739049696385      22.261132459751291      22.178168018304007
   988   3       14.18408031431513      22.276697814312111      20.282383481742368
   989   3      12.160885345598794      22.448147675353955      22.397294735519168
   990   3       14.24124080516313      20.352103313927337      22.440684921897066
   991   4      16.240465468129198      11.940025377186986      12.422749945390089
   992   2       18.24089576492544      14.151520320094901      14.286351837491067
   993   3      18.299069848107365      14.355207857170367      12.075862665233402
   994   3      16.251560997408333      14.158031247943653       14.07382583125187
   995   3       18.38635290272963      12.216926218914137      14.065354993657792
   996   4       16.06661005096084      12.152320317019687      16.484190561829749
   997   1      18.194467834367913      14.206006731989198      18.232202962075672
   998   3      18.293253417163506      14.125105554519703      16.160399169372134
   999   3      16.178490599156355      14.102048393395069      17.983519689214603
  1000   3      18.415033494683946      12.117635246419125      18.186431841651061
  1001   4      15.926574644002431      12.032686907836844      20.486457315357971
  1002   2      18.139993197291947      14.107108363232552      22.234960221637252
  1003   3      18.328580822644156      14.106745400877369      20.330311008514094
  1004   3      16.262976221825152      14.211558655513986      22.361987435285851
  1005   3      18.312441827390053      12.197913639976855      22.363687199515031
  1006   4      16.056122612148396      16.012783598295449       12.06184318715575
  1007   2      18.172349808896222      18.183618600041012      14.045737587113356
  1008   3      18.319694602389795      18.303737600931562      12.136851505371078
  1009   3      16.265067792273101      18.395854189159827      14.183525428341058
  1010   3      18.161591093107727      16.259579937857115      14.163933517148552
  1011   4      16.052738011927186      16.037231466462334      16.508047469773523
  1012   2      18.241129993851644      18.171279860219251      18.083899961631985
  1013   3       18.30259851237664       18.24823815573853      16.206659390724216
  1014   3      16.300112558779698      18.355061362377207      18.243795956860755
  1015   3      18.238251090932984      16.265110970415307      18.335440593659367
  1016   4      15.778855713355995      16.403653376067279      20.337275556773029
  1017   2      18.182617311407444      18.129414513508522      22.253962041900699
  1018   3      18.286323766622488      18.368017488305377      20.343631438102769
  1019   3      16.298488034880638      18.318735365419656      22.358811679770568
  1020   3        18.3481419319025      16.233582514595671      22.304917707297104
  1021   4      15.896364854903466       20.32318115821171      11.926991984747499
  1022   2      18.201909264990825      22.146238525378717      14.072374993793334
  1023   3      18.382432114776933        22.2137120601592      12.190938981300075
  1024   3      16.284484010282696      22.212406372758853      14.135025168373796
  1025   3      18.395268575724717        20.2401902434598      14.298056398615124
  1026   4      15.814247947092714      20.199651944505213      16.337269339360049
  1027   2      18.153880482550619      22.277245688015512      18.102279620457072
  1028   3      18.232727467773394      22.317550533344999      16.229053390782514
  1029   3      16.282340229601942      22.190409006356408      18.351182396223042
  1030   3      18.399293012966535      20.274492222162252      18.336796439709616
  1031   4       15.80552173634274      20.088130310008054      19.964811773109382
  1032   2       18.15817174677634      22.190800270593467      22.203892755643142
  1033   3      18.456004304362231      22.248827155445753      20.314177086079788
  1034   3      16.264770232791548      22.295684458483976      22.279015386860642
  1035   3      18.369062471158774      20.290291394471318       22.41817100384289
  1036   4      20.147899879737061      11.981708788812337      12.394893912237874
  1037   1      22.244925994033387      14.112903557308867       14.15119403013683
  1038   3      22.243500056419208      14.462237974280265      12.036933848751964
  1039   3      20.195610878877474      14.383212468751132      14.026386235036099
  1040   3      22.199038083800019      12.112213443756547      13.869373948949178
  1041   4      19.978489570022248      12.047413614862819      16.331919919253455
  1042   2       22.26276828966315      14.134371919791706      18.045987002507879
  1043   3      22.248822117466041       14.17440877016527      16.192849081019109
  1044   3      20.317655703231537      14.162395466164677        18.4290417897273
  1045   3      22.279129819280708      12.165366616491958      18.323501228430469
  1046   4      19.983847146652348      12.250414460320568      20.041096264384528
  1047   2      22.198256836437345      14.030920582674856      22.254788434276094
  1048   3      22.340183751975236      14.273786352428434       20.37564981614241
  1049   3       20.29939985648571       14.22190776937081       22.36160815172655
  1050   3      22.388122418801014      12.171021579928418      22.376836118426876
  1051   4       20.25662664364269      15.928803225095358      12.175145234736533
  1052   1      22.274331606769582        18.2480402902167      14.056756075268012
  1053   3      22.341183857256226      18.122102831262371       12.06247842890715
  1054   3      20.207652201314936      18.183121742542475         14.307547687808
  1055   3      22.413520917123719      16.204349515098055      14.237775629480025
  1056   4      20.574163845374517      16.409245843088801      15.839176151709012
  1057   1      22.258514446113757      18.202010408285513       18.23746990047411
  1058   3      22.326344906834951      18.154669179593782       16.22873054207302
  1059   3      20.229109118428994       18.20934428884479      18.459340377979192
  1060   3       22.29324726721612      16.128031452834893      18.363221999815597
  1061   4      20.213227449716346      16.113058043104093      19.862476366485414
  1062   2      22.257885840835993      18.053219831178751      22.273980643059989
  1063   3      22.450959866637259       18.21847992104512      20.347414238404824
  1064   3       20.32975823728901      18.367240040608742      22.298484472292806
  1065   3      22.311195416437496      16.195971352864536      22.454294635634028
  1066   4      20.473072194128051      20.603489907243439      11.971578373173218
  1067   1      22.266744357161325      22.244213847866089      14.167716406808907
  1068   3      22.326829765651322      22.221854359297065      12.150974174328081
  1069   3      20.224355385581617      22.304229256376018      14.372551240003789
  1070   3       22.28704591484243      20.242099357293895      14.311200734978565
  1071   4      20.454866629816753      20.101779849456747      15.797214417871929
  1072   2      22.220217320550102      22.175553269084986       18.24416038674017
  1073   3      22.405318006149546      22.330103583675321      16.333591016192671
  1074   3      20.324696961591503      22.311364471615654      18.274751940875998
  1075   3      22.364492509854944      20.293209216708956      18.404074579046434
  1076   4      20.124382562965273      20.028421593381779      20.033821927721004
  1077   2      22.284062528686771      22.146594863637212      22.259820647228366
  1078   3      22.319463266646817      22.497785803758624      20.287650857125094
  1079   3      20.330475272382021      22.358980593367956      22.450501541873905
  1080   3      22.393826595869701       20.28153225867991      22.177863124004872
