(written by ASE)

1080 atoms
4 atom types

0.0      24.299999999999997  xlo xhi
0.0      24.299999999999997  ylo yhi
0.0      24.299999999999997  zlo zhi

Atoms # atomic

     1   4    -0.18739796604290646    -0.21265126255713224   -0.099911023821833769
     2   2      2.0316743753147497      1.9264058008121931      2.0554213080605566
     3   3      2.2188317163523852      2.1264680767273703    0.090299287638103853
     4   3     0.10138177558113742      2.2222237574534569      1.9442914846303805
     5   3      2.0447854120049214     0.06464867507607816      2.1378619668111329
     6   4     -0.2272086741964868   -0.055458637908063199      4.1923853299309037
     7   2      2.1018597990690044      1.8935450055667746      6.1400036165395058
     8   3      1.9788462667241591      2.2448520682981079      4.0495905612746244
     9   3     0.10165178891128543      2.2815237812810421      6.0964051127230565
    10   3      1.8929543461929026    0.026201084141619709       6.021160806830431
    11   4    -0.28766451886003863   -0.072470613831180392      8.0066063198550896
    12   1      2.0658608140397399      1.9864789725843461      10.065144631512368
    13   3      2.0635918166941898      2.1280984263229872      8.0374240598490783
    14   3      0.0238144935203158      2.2980104370727199      10.094091854044255
    15   3      1.9345396442372198   -0.067631283067008011       10.33782916668974
    16   4    -0.08051171057085442      3.8671300191243407   -0.057210135351314785
    17   2      2.0068917127514334      5.9862118016296773      2.0657699519217383
    18   3      2.0884110861655061      6.3211877306170283     0.11605154775094882
    19   3    0.084781713224872254      6.1495550520672113      2.1585259551746367
    20   3      2.1658288430601593      4.1280130658735716      2.0090929982416457
    21   4   -0.072899306796304422       3.751044114098915      4.2230884140370186
    22   2        2.07440748641854      6.0122119716648115      6.0738619531028091
    23   3       2.114487679608434      6.2123132676089501      4.0769235414289531
    24   3    0.056794401691927413      6.0937718026179022      5.9731519812151985
    25   3      2.1495891755744427      4.1362572533365611      6.0848574783053513
    26   4    0.079548093307859613      3.6890645150957448       8.100413355442889
    27   2      2.0933509031757711       6.003789599731939      10.191906243313854
    28   3      1.9778296110012574      6.2925275339683777      8.0639503702743323
    29   3    0.065672239710149793      5.8566393780203994      10.162580963783924
    30   3      2.3058479198531034      4.1152701241348426      10.111030105441541
    31   4    -0.18309797261155797      8.0451726669128156   -0.080375194134514091
    32   2      1.9880330368684165      10.062340511923649      2.0478476612044201
    33   3      2.2129271123697269      10.168687032024399    0.064960076434403574
    34   3    0.065321689514118389      10.291436160440144      1.9739366782451333
    35   3      2.0462064232442994      8.1897187291458415      2.1686633754282929
    36   4    -0.10940812908370906      7.9218970591093827      4.1213787079117781
    37   2      2.0345166385335194      10.097927418467487      6.0657305625177127
    38   3      2.0038121952948202      10.373673332644547      4.0721042174505957
    39   3    0.027972738444583117      10.435670538008436       6.074128315845484
    40   3      1.8306958258710706      8.2038814525778587      6.0193688405164814
    41   4     0.15370335878514654      8.0193363981718377      8.2185231168638655
    42   2      2.1105707745201507      10.248035343704538      10.167639454302405
    43   3      1.8747802912020219      10.123417166698664      8.0969392576709023
    44   3     0.02526354513893184      10.345522330514518      10.116916070454998
    45   3      1.6624854993903628      8.1390510842427854      10.110593269700981
    46   4      4.1747737450982649    -0.33080763424410475    0.079698484596166838
    47   2      6.1563635027096604      1.9320955885251634      2.0311290865842553
    48   3      5.9510778709603578      2.0569329467498201    0.054835087442375904
    49   3      4.0704349297919853      2.1346796102465997      2.1652265271343549
    50   3        6.11665955813812    0.052984209348387497      2.1644670317142998
    51   4      4.2572654738180926    -0.33072767539279008      3.9767539087844521
    52   1      6.1344243309445439      1.9516378217479804      6.0420043069613687
    53   3      6.1243339414878815      2.2776680508231957      4.0087777176221975
    54   3       4.030771339754236      2.0686500872283715      5.9542531229698437
    55   3      6.0543691735659158   -0.075335533765433269      6.0999926564284737
    56   4      4.3823472814213478    -0.20682577555106185      7.8891436901616094
    57   2      6.1210801460815949      1.8788823884859907      10.085925526476011
    58   3      6.0103822674914538      2.1148347093015452      8.1106759683830685
    59   3      4.1092342623036675      1.8676162917334604      10.286934537366196
    60   3      6.2610167032217667   -0.012222398381466453      10.080076768869322
    61   4      4.0936574422074363      3.8116449064099367   -0.035195221355738542
    62   2      6.1074774644659362      6.0515311509270315      2.0277797384028315
    63   3      6.0758473191555522      6.3294938149001423    0.081234640971528452
    64   3      4.0465938222495508      6.3261875621568899      2.0480969266938369
    65   3      5.9887604668927832      4.1360714215993646      1.9802439746486498
    66   4      4.2303270370217216      3.7388908118701636      4.1481725485219263
    67   2      6.1889046472909479      6.0615696805368584        6.10848217611343
    68   3       5.919935689629245       6.095002789781339      4.0977682956786339
    69   3      4.0161440732403886      6.3367750658072577      6.1247672892102365
    70   3      5.9445670609510817      4.1724461217953195      6.1554030538625897
    71   4      4.3245148528166908      3.8468728660409863      8.1153191154093864
    72   1      6.0925164195916421      6.0439099368139662      10.065993888070338
    73   3      5.9753510151497569      6.2707500976038277      8.0267703769693846
    74   3      4.0056848088318793      6.4683458226504573      10.052105970942092
    75   3      5.7606229114392731      4.0351301815136678      10.041960006044519
    76   4      4.0225696794890586      7.8662610930086228   0.0065360772315639611
    77   1      6.0322708042908415      10.100084354077666      2.0312220751454113
    78   3      6.0821691920063428      10.231409124246435   -0.032434629272442457
    79   3      3.9970126224265514      10.329822478309898      2.1177802249534672
    80   3      6.0825483533041123      8.1080906798678267      2.2967367568665971
    81   4      4.2952030292083787      8.0121886422635207      3.9324361709353544
    82   2      6.1805977509323577      10.149623791299936      6.0738358089689157
    83   3      5.9849723544940865      10.323342096566703      4.1352809744467862
    84   3      3.9721800604421387      10.115475916989011      6.0917957299932075
    85   3      6.0551707010168565      8.1940726041446794      6.0096798314777962
    86   4      4.2153133465446642      7.9191103607176956      8.1307870516068448
    87   2      6.1470705271737458       10.08818604080439      10.180950817879092
    88   3      5.9249498902168831      10.192474046446447      8.1217332943846561
    89   3       4.001591137010319      9.8652909215643305      10.142176755975699
    90   3      6.2534731935343695         8.1907121495382      10.177481443745421
    91   4      8.1807062217105564    -0.37354073345675814    0.048431231245466486
    92   1      10.118523764632711        1.98613309203226      2.0475605696869685
    93   3      10.206420513202501      1.9549263252772668   -0.037331684321903161
    94   3      8.0621491193969739       2.176055398305508      2.0571439837887247
    95   3        10.0871123165792   -0.014391810761091537      2.3082991759345144
    96   4      8.3042359636016325    -0.28753798061203428      3.8565360624114891
    97   2      10.121912344986352      1.8473214571422323      6.0768845722369278
    98   3      10.107534759801808      2.3168696898084518      4.1057936718388612
    99   3      8.1609233922230597      2.3020658375447134      6.0458752795786426
   100   3      10.032940491485649  -0.0046173345910166495      5.8576535051788712
   101   4      8.3834941853739711    -0.28260233891687803      8.2825044215363661
   102   1       10.14113858381357      1.9727591430411109      10.081685278665969
   103   3      10.043595635791318      1.9769133817879059      8.0335538544463034
   104   3      8.0586266217357743      2.3058059208764177      10.050679591628432
   105   3       9.837999149600094   -0.035112269470125378      10.218290988587443
   106   4      8.4752094060713539      4.0964816832447095     0.14573654245936171
   107   1      10.085568402658142       6.052342116805467       2.055128328311417
   108   3      9.9912896407253537      6.3391154050413787  -0.0088171205825707637
   109   3      8.0376195768360077      6.1770208028769966      2.0939220706067063
   110   3      10.159509707189438      4.0669375097238616      1.7650463585967646
   111   4      8.1697086387406266      3.7080663323102896      4.0276506234113603
   112   2      10.161353457761349      6.0142092833703993      5.9882663095592594
   113   3      10.236152976677621      6.0397351150308367      4.1180896625702932
   114   3      8.1146747480244716      6.1064211162231894      6.1055957846413333
   115   3      10.193295872021078      4.1515570353657489      6.2759995335696859
   116   4      8.1413924792474521      3.6778371869410758      8.0498328598653668
   117   2       10.11345220110741      5.8969911569401869       10.13961356508382
   118   3      10.120568727921324      6.3591161562476062      8.1151131969284496
   119   3      8.1397712786785323      6.0486232422109785      10.083110446444543
   120   3      10.257685478887074      4.0335592842084624      10.041354844200468
   121   4      8.1805754139535303      7.7969296969978981   -0.040697938577839259
   122   1      10.109993282765366      10.170138636338649      1.9598450630091135
   123   3      10.089701238452495       9.991164665563165   -0.069360463626015001
   124   3      8.0855696174662679      10.234044231468017      2.1593673698962941
   125   3      10.161836678225333      8.1484046035523381       2.223666989352528
   126   4       8.174994122457008      8.2497297954201354      3.5680147195451637
   127   2      10.238622196901638      10.040290721952511      6.1275073133827611
   128   3      10.101695881725984      10.467496282975798      4.1767162961726818
   129   3       8.072553332993472      10.346320373173588      6.0801794581428972
   130   3      10.033761795178544      8.1570736779134787      5.9606489402994143
   131   4      8.3414866960520104      7.9787590306635234      8.3925218915268402
   132   1      10.111988982338268      10.152539489313767      10.150209229838657
   133   3      9.9863064590449238      10.125544188528647       8.071046258666895
   134   3      8.0225875606470876      10.476264099137776      10.095835340602793
   135   3      9.8437287482882869      8.1500746805686699      10.236469561298073
   136   4    -0.06325441650147208   -0.071920042222013231      11.812529938452531
   137   2      2.0602202926479611      2.0099575983091773      14.020161428349393
   138   3      1.9646024326865386      2.0775746850836434      12.161921069279822
   139   3    0.089182672993632001        2.02008852871933      14.402184411924321
   140   3      2.1193290272416014   -0.010791742634161508      14.245906818605937
   141   4    -0.27676552935099591     0.13221027773877927      16.119862754218445
   142   2      2.0337676972154979      1.9673866187949161      18.162437687552256
   143   3      2.1840264273504704      1.9492176383672748       16.30205351548814
   144   3     0.12483075712211343      2.1291027744377073      18.297199215281481
   145   3      2.1040840829229643    0.016841672606734429      18.465294717046088
   146   4    -0.27789014585831812    -0.09265935788964301      20.161281200402563
   147   2      2.0666075900162331      1.9322691409537256      22.266540349637154
   148   3      2.0077865168129785      2.1620544376962565      20.383449399236401
   149   3     0.12171836353235177      2.0991683704041355      22.538100923754584
   150   3      2.1696364676980382     0.04651382662134089      22.346400234610762
   151   4   -0.015407952157525169      3.8869432218584987       11.82308762323775
   152   1      2.0472885255957394      6.0076728956643244       14.09982008848776
   153   3      2.1183719999473682      6.2022250202770968      12.086324365153805
   154   3  -0.0043932032602400977      5.9697819257259708      14.351214579114103
   155   3      2.0486584751927079      3.9574610522117206      14.391365628230057
   156   4    0.070836041859549309       4.094012874858965      15.840651962666838
   157   2      2.0607802075635124      6.0722297643480116       18.12097232247805
   158   3      1.9747614905928237       6.113244420631986      16.250258180403407
   159   3    0.064057129281580444      6.0325984604680922      18.419434805047754
   160   3      2.1652193951417491      4.0482416918628159       18.35666550470722
   161   4    -0.10519127109021523      3.9182172754900244      20.003995173793655
   162   2      2.0215816166494416       6.001928181411941       22.25699167526945
   163   3      2.1270471198499745      6.0464898406048562      20.375509315959782
   164   3     0.11224990270854827      6.2350733049289513      22.413809311475767
   165   3      2.0406649454171402      4.1175797224316186      22.523831495928835
   166   4   0.0055691045399531656      8.1226833403970193      11.899108849687881
   167   2       2.103025811292393      9.9952520026743592       14.25371912563665
   168   3      1.8855109046431031      10.134276395295991      12.138026489856427
   169   3    0.042129785038424156      10.334758496798422      14.174432987815132
   170   3      1.9203476755602089       8.108929756455435      14.210611541325797
   171   4    0.058030619791796072      7.8832572499562055      15.855854898412222
   172   1       2.044128905503674      10.099611568501752      18.185788890272995
   173   3      1.9102747225559602      10.199027129278573      16.157038683099717
   174   3   -0.021727075395083926       10.22126583264663      18.363957500610834
   175   3      1.9721283586813563      8.0421816296143778      18.437671626107893
   176   4    0.051172567226011517      8.1339870609263816      19.938139509611634
   177   2      1.9801103473392587      10.048861539311027      22.237585990545981
   178   3      2.0191030135671699      10.241048238761772      20.365991075176339
   179   3     0.08545023592934034      10.059321294066674      22.457479831155233
   180   3      2.2231476409010242      8.1528133056718666      22.355548531743366
   181   4      3.9316263267026645   -0.091788673640240931      11.753772462668456
   182   1       6.091355119268056      1.9740840326994222      14.113703483239725
   183   3      6.1968678530126935      2.2221097495391642      12.082351925947266
   184   3      4.0277194179266065      2.0252056229461246      14.237494126311098
   185   3      6.0758869782767659    -0.06724330888809274      14.291673559664135
   186   4      4.1851808397174368    0.059165467166884499      15.835186711850865
   187   2      6.1453270429329532      2.0779258273108461      18.151615319460578
   188   3      5.9418070608866396       1.948055449964597      16.290823566075812
   189   3      4.0567841273549616      1.9838574731340965      18.536085699309414
   190   3      5.9959957965660751   0.0090836914877370223       18.44606781603343
   191   4      4.1464910915802422   -0.077746908072523602      20.065467115983687
   192   2      6.1343074215055013      1.9424076757302493      22.258126169075016
   193   3      6.0694414226336235       2.162236667116471      20.355127256686661
   194   3      4.0640599902974692      2.2545172445659984       22.35568046052364
   195   3      5.9456965076319266    0.061593211110170736       22.27321249064634
   196   4      4.2806005457077463       3.824814417109101      11.856905582961984
   197   2      6.1281644577071868      6.0454151656071673      14.049688635958869
   198   3      5.9323622925228108      6.0430611280202315      12.130178601152176
   199   3      4.0805736023625601      6.0564015143515864      14.335287160043299
   200   3       6.067484517439846      4.0751393879935485       14.33540165814669
   201   4      4.1198683401018998      4.0231613599233667      15.802717076890072
   202   1      6.0688621066657671      6.0206631824049897      18.198835810814959
   203   3      6.0927978420502082       6.284515322883629      16.173154291950141
   204   3      4.0088622012768518      6.1880124804496983      18.290285553492861
   205   3      5.9186699353848482      3.9798786234572341      18.265830497302279
   206   4      4.1455669230934227      3.9858828401101003      19.964526804520617
   207   2      6.0861773596162276       5.980872733345989      22.187603527507939
   208   3      5.9820016292421494      6.0362792559246472      20.318760868801181
   209   3      4.0712294846276311      6.1173036501035751      22.543638083585861
   210   3      6.1044721138943494      4.0899547331129487      22.466533908295396
   211   4      4.2015330233734165       7.858531737026877      12.113163092659418
   212   1      6.0619201585146563      10.080598598540588      14.120000908360298
   213   3      5.9927054069715613      10.309614908128216      12.085155304796809
   214   3      3.9804461586000817      10.185799923675228      14.102626467031213
   215   3       5.943807366019775       8.050168616595478      14.102955365101945
   216   4      4.2982834150565008       7.802690727808594      15.969504236816457
   217   2      6.0631660477377256      10.126051054368855      18.043469533586091
   218   3      5.9746770591099736      10.145915735307579      16.175846574160843
   219   3      4.0850330154023045      10.095286206483118      18.445758995549198
   220   3      6.0595475336255316      8.1787421615998923      18.413934473723181
   221   4      4.0634852393538559       8.065742439747245      19.860286002592908
   222   2      6.0122853858436303      10.006431802269933      22.278575354641088
   223   3      6.1139169197046881      10.322137966458516      20.345414695691193
   224   3      4.0865708536247407      10.348764848939799      22.319520415281193
   225   3        5.95008704848604      8.1315887634570032      22.266089892980478
   226   4      8.4374239273599638    -0.10274177055329996       12.10439425354641
   227   2      10.197628314299783      2.0459132856119724      14.096932136289579
   228   3      9.8827451859473943      2.0896752315999647      12.175648243573745
   229   3      8.1014115779202847      2.0630928489939455      14.389285207413227
   230   3       9.920942260717279    0.031768424492259091      14.115653517025915
   231   4      8.2076258501019801   -0.045433911192491121      15.809336717791219
   232   2      10.135973341138218      1.9124624065348801       18.20935672988411
   233   3      10.159970638003829      1.8672425455049968       16.26132447572277
   234   3      8.0758173953684178      2.0526368193693734      18.229417263485992
   235   3      10.066564333742228    0.037148792700357987      18.464309106991209
   236   4      8.3400513450473497    -0.31372771026408736      20.385951384125644
   237   2      10.209293868261748      1.9959335419516251      22.366053329615731
   238   3      10.003355744825196      2.3183577777702493      20.213933972171926
   239   3      8.0607019757745775      1.9674066064857092      22.319155227299394
   240   3      10.172819946279768    0.078095209247853112      22.039945847566983
   241   4      8.0816867324047745      3.7212008833837773      12.009075226036645
   242   1      10.141751099341722      5.9909134394118677      14.158438165891623
   243   3      10.118577577988097      6.1128272742586667      12.090414678819871
   244   3      8.0746584444139753      6.1040372206441891      14.222160673547824
   245   3      10.036661807768894      3.9783462722902074      14.376577699505029
   246   4      8.0972981660804706      3.9103344453405353      15.830543940571339
   247   2      10.083871867179941      5.9543410883392731      18.184823589911645
   248   3      10.083225971599127      6.3547168437540291      16.217402218039229
   249   3      8.1006630595420255       6.270829216986944      18.181097271990868
   250   3      10.020948896878878       4.036753538287158      18.024314347174435
   251   4      8.3754858455192291      4.0428543231938754      20.424074363872851
   252   1      10.066056216600426      6.0495726644204186      22.236368995567297
   253   3      10.037340947855586      5.8659557581897381      20.186183104461797
   254   3      7.9828918307875734      6.2458052685641841       22.35018162420274
   255   3      9.8529076180773121      4.0074120766837629       22.37962893997118
   256   4      8.3430810807963596        7.83321474636874      12.023996922598414
   257   2      10.008144527653201      10.037910769954035       14.21441347561619
   258   3      10.084173441101193      10.551700397611421       12.20215731357105
   259   3      8.1037632341146093      10.334325409263663      14.205780077150663
   260   3      10.085613126722921        8.16856114441652      13.944278265016999
   261   4      8.0532100438949819      7.7057171898345684      16.153828474283035
   262   1       10.07620382031582      10.109251745769656      18.173066041618174
   263   3      10.233840907552251      10.084780565884095      16.141965217559548
   264   3      8.0233548569924711      10.197205299148971      18.343812883396215
   265   3      10.087527386987016      8.0898215479294926      18.528749977905004
   266   4      8.1029133111718767       8.002342377905924      19.870600069408344
   267   2      10.083443725340024      10.016427040750399      22.247369061740777
   268   3      10.050694166804396      10.487945437540729      20.309729322179546
   269   3      8.0701849409636672      10.213398306552218      22.312493330378025
   270   3      10.174936372530514       8.146037227937871      22.063510752457894
   271   4    -0.34956001667035047      12.137607888260096      0.0685081632891546
   272   2      1.9093245547547839      14.099561579307389      2.0891393938325731
   273   3       2.012815248030333      14.434386844460128    0.014084435471924395
   274   3    0.041665783756788283      14.234379934791821      2.0674199956283998
   275   3      2.1066139010554279      12.241812140208854      1.8734067153340357
   276   4     -0.2366402151978669      12.169258916249207      4.2888625794990221
   277   2      1.9562024737108472      14.166034088459771      6.2213080164775025
   278   3      2.2223369122724241       14.13814115606721       3.982929968015346
   279   3    0.021145222026374179      14.104289535486631      5.8621098096377873
   280   3      2.1493419717526159      12.217765724100799      6.1391522190531811
   281   4   -0.058676564969700265      11.853525676061436      8.2744751850995222
   282   1       2.005837975855195      14.171342737936897      10.131427849525663
   283   3      1.9675514078657588      14.375615039744261      8.0868692335482528
   284   3   -0.046221267797609461      14.196216926401053      10.320541789359345
   285   3       2.196670491265472      12.122175441690768      10.072666962544526
   286   4    -0.28752671724637091      15.855292483319527   -0.077898020877999768
   287   2       1.881664325910446      18.123171667933519      2.0389541565508082
   288   3      2.2150274107203676      18.280821843005285    0.028084492575537693
   289   3   0.0025699368957278227      18.330021655287361       1.939750783588728
   290   3       2.119371436613902      16.246402730652537      2.0594688610654313
   291   4    -0.15482322270254104      16.150154932163495      4.4334229442476456
   292   1      2.0291918374185114      18.188374058383886      6.0467783160685453
   293   3      2.0388412238982596      18.444953801439198      3.9203608565636689
   294   3  -0.0055957203760566687      18.440516373970347      6.0283396741641901
   295   3      1.8730232276266769      16.163512815880633      5.7981071221394291
   296   4     -0.3840393733710038      16.232464800955889        7.93654845613875
   297   2      2.0145518338666073      18.197683285400192      9.9368514945670938
   298   3      2.0240407975907519      18.229394782001361      8.0844772576116419
   299   3    0.069027308587070083      18.469226208224487      10.204702960041894
   300   3      1.8790159914803324      16.318260635728045      10.311230705549612
   301   4    -0.32253544525584393      20.257416379362684    -0.14631873669297216
   302   2      1.9902661814133116      22.181228587871399      2.0060424636857781
   303   3      2.0986992193192249      22.476834798822964    0.065648981369180598
   304   3    0.067271671728150614      22.390089384206483      2.0854725501536073
   305   3      2.1440282925904555      20.295801264717664      1.8819648790970351
   306   4    -0.15484738292125158       19.93923827785196      4.2641432249388851
   307   2      2.0177639076457847       22.14562918788295      5.9939911405597792
   308   3      2.1215865697142688      22.317763681792503      4.0389534936290694
   309   3    0.057690354830279879       22.21125826456386      6.0163144446913721
   310   3      2.1920693024205447       20.28670198455843      6.0472267267976463
   311   4     -0.1826006126099734      19.958806499939861      7.8217507563550139
   312   2       2.020252131303454      22.262265001588673      9.9575645294599386
   313   3      2.0013081978262699       22.38149876084897       8.058407673711903
   314   3    0.088593574610477704      22.185587224042916      10.277097502512786
   315   3      2.2326699835179853      20.289989417641284      10.187672033778538
   316   4       4.040963721983891      11.823848605134343     0.14233442175477168
   317   2      6.0024549438137704      14.113678487993166      2.1001743675273894
   318   3      6.2721205471943913       14.40672354113806    0.021616093764268186
   319   3      4.0911748005732322      14.318141765348923      1.8043178864392306
   320   3      6.1110543474504029      12.231984168161228      1.9343552187790729
   321   4      4.1790751844300997      11.962413345941728      4.1112208934110788
   322   1       6.063934418751229      14.153042491301974      6.0418053596548544
   323   3      5.8850849031319923      14.175930178658968      3.9821673736290819
   324   3      3.9733269547044765      14.443130491684691      6.1458436471468527
   325   3      5.7669897489972337      12.121259206166409      6.1645163459721273
   326   4      4.2715003910858611      12.145663874239546      7.9687488625288951
   327   2      6.0991768205102339       14.15142409945013      10.043987567541915
   328   3       5.942679745053729      14.210383525066408      8.1342746376719663
   329   3      4.0584083140160869        14.5602921785504      10.083987484348064
   330   3      5.6810808394653387       12.18318615516498      10.102438476002199
   331   4      3.8723404384411171      15.977546462321653    0.014981839210106441
   332   2      6.0017260166695419      18.231946268088493      2.0489295444331201
   333   3      6.2158562443602881      18.202765217329322    0.017309835816473218
   334   3      4.0801623964887384      18.299925013990549      2.0011207373081374
   335   3      6.2415659732744242      16.271480078439392      2.0726905627533707
   336   4      3.8953913346075417      16.039750659819571      4.3540660913678515
   337   2      6.0714048402111782      18.078493617038706       6.135632703664303
   338   3      6.1610139317972008      18.440485888248812      4.0183175130377817
   339   3      4.1019625037081884      18.141788924177206      5.8127203130892573
   340   3      6.1504044749744882      16.225261011879585      5.9607833789310725
   341   4      4.0540572865221707      15.905794497431993      8.0997114759709596
   342   1      6.0322179749171676      18.174058091210082      10.068345404979432
   343   3        5.97772878066852      18.269822851368748      8.0327677153673953
   344   3      3.9888968444829982      18.118110753524348      10.272802382791095
   345   3      6.2846358830154507      16.140303474689699      10.237313751988838
   346   4      3.9115057180892334      20.089851645892146    0.059243963513009791
   347   1      6.0678681355442023      22.209232931198326      2.0255830305691824
   348   3      6.1358058644690257      22.535884541172134   -0.008550859999196081
   349   3      4.0048842331247423       22.48682371109215      2.0289536164078243
   350   3      6.1326569119534824      20.210561793445741       1.809482068941775
   351   4      4.0440313307888553      19.994288311810791      4.2690277173452236
   352   2        6.25912434830542      22.253718753794676       6.012496957188179
   353   3      5.9929702356901116      22.275475398114864      4.0758264907272324
   354   3      3.9750280796511253      22.486580515325482      6.0639681712819931
   355   3      5.8205706081180413      20.281260903118842      6.0887874481785236
   356   4      4.4311737952925814      20.268932086853727       8.185066925756658
   357   1      6.0934908001030026      22.260934417086958      10.069995825225268
   358   3      5.8702998220957543      22.243141324622751      8.0177341240040327
   359   3      4.0047997378640598      22.490378664569143      10.138551963576736
   360   3      5.9143623857156058      20.241888696943825      10.071836209744022
   361   4      7.9962734511858446      11.700779964790888     0.13737574424900476
   362   2      10.141111783692148       14.15467799017925      1.9359721530839276
   363   3      10.033433177527161      14.468287211225752    0.048820816962593265
   364   3      8.1142769537217294      14.276780032128309      2.1827716463947677
   365   3      10.155138123219695      12.232279014361263      2.0229288601984061
   366   4      8.1330302472488754      11.892732292023734      3.8208785139980384
   367   2      9.9191980020948574      14.240799880280566      6.0585237101546072
   368   3      10.289457706711884      13.960763356788847      4.1230873865890141
   369   3       8.091618327991327      14.059669184793428       5.957886449952503
   370   3      10.226432945461678      12.228752677439527      6.3857128600046194
   371   4      8.3567947977975265      12.062175885723537      8.1832311884739131
   372   2       10.22589122117618      14.228933219703073      10.196610485168243
   373   3      9.9774668147740257       14.45217942936606      8.0782711375600869
   374   3      8.0223020723537797      13.885157893443889      10.173674577949031
   375   3      10.211187353796713      12.265798841037524      9.7469490652817434
   376   4      7.9152406807067157      16.061770015275947    0.038380140795539926
   377   1      10.151853293542306      18.157066318637582       2.011601683380507
   378   3      10.333481021564019      18.159977682494414    -0.03268716868005786
   379   3       8.109289202461575      18.382723178792197      2.0686428652754372
   380   3       10.07254191985467      16.148308931193988      2.4276556598794907
   381   4       8.172635338401161      16.211918082982578       3.855270864501219
   382   2      10.210702600301572      18.324398855047246       6.042236446319051
   383   3      10.029306090138881      18.442557290922249       4.101558802694826
   384   3      8.0569790688728329      18.391021418100586      6.0537260868274885
   385   3      10.001342749472386      16.184191237963827      5.8244977606053041
   386   4      8.2782526690681113      16.373489105766087      8.3137408574257883
   387   1      10.162505050874667      18.201049512220877      10.097642538691845
   388   3      10.097385403573886      17.855033006873189      8.0334952918215219
   389   3      8.1072051915049101      18.379863967255211       10.05723199385552
   390   3      9.7347035020189914      16.123350091650856       10.24383699042332
   391   4      7.9482179034855358      20.052093269461867     0.26447189369952812
   392   2      10.165912413680607      22.140555502376699      2.0418153075134016
   393   3      10.193212291802258      22.526824152284387    0.040611139177356807
   394   3      8.1644986429672066      22.309102289310903      1.9573636828997913
   395   3      10.275629802376168      20.242635414183358      1.8537054667945498
   396   4      8.1536635615602631      19.963771111596259      3.9538812358053503
   397   1      10.152499475288064       22.18817908120926      6.0745435748657295
   398   3       10.12144300823182       22.19086297640067      4.0075533221648652
   399   3      8.1147318754892765      22.177654085200153      6.1095631590853143
   400   3      10.241754105400231      20.187596058896865      6.3736810155769357
   401   4      8.1321587392652237      20.097401439008035      8.3488206105904901
   402   2      10.158897059105849      22.139481290160116      10.177187929132812
   403   3      10.239227730195809      22.553369358708327      8.1167043974478368
   404   3      8.1621383076030689      22.072002126949542      9.8644073591387915
   405   3      10.335570069640395      20.250182870211468      9.8584191311703524
   406   4    -0.16851317785306405      11.726699661952956      12.156804105156459
   407   2      1.9758542907866217      14.138392022528214       14.05472120385782
   408   3      2.1243438269839587      14.321106702493386      12.208282804953953
   409   3  -0.0050409343591418052       14.24078749983966      14.136379713546955
   410   3      2.0301105615716724      12.235367368337187      14.242427615056261
   411   4    0.060787841014420391      11.812400488686198      16.008424069864326
   412   2        2.04696977880067       14.09916681237525      18.105369206241036
   413   3      1.9189915471060923      14.285566773762467      16.245062901809909
   414   3    0.082892373691656709      14.166100180932279      18.478064824383758
   415   3       2.068458221172131      12.209238049076337      18.339707285583383
   416   4    -0.07828266916850575      12.071250398108752      19.919218054826498
   417   2      1.9545405355419345      14.063568646031614      22.251208447214019
   418   3      2.1845052355364318       14.21999144656367      20.360311573740745
   419   3    0.073679781759967963      14.331699016525747      22.284962546144143
   420   3      2.0361281614800348      12.193126637617773      22.454360536400461
   421   4   -0.026457471873236122      16.107238679764759      11.859080514008713
   422   2      1.9797468761679446      18.211860184652274      14.076919143495694
   423   3      2.0559538547748466      18.370468263117129      12.219090944792857
   424   3    0.070423192758055683      18.431047352808019      14.289013560827145
   425   3      2.0302427200277475      16.283604354961199      14.291909734219956
   426   4    -0.40914832660476125      16.197829892397923      16.347797061058738
   427   2      1.9386108031525016      18.186273294275175      18.206082970538574
   428   3      2.1134793923196935      18.273032085739178      16.329860952284719
   429   3    0.082118657014208188        18.3724577089577      18.314271821615126
   430   3      2.0378358468645641      16.268057048681719      18.438808363242956
   431   4    -0.37656755082083232      15.915704426656987      20.051433406129654
   432   2      1.9270253191961295      18.131809974438273      22.252032277530926
   433   3      2.1030496234740319      18.415345529016744      20.369997117061864
   434   3    0.044119118715062161      18.226223116546034      22.436256745086762
   435   3      2.1951147154445807      16.267744020810383      22.311527476213346
   436   4    -0.18183546568453335      20.286088730327918      11.852668479195481
   437   2      1.9897686268901253      22.239304682344418      14.085376151579791
   438   3      2.1362368868165298      22.247116708499622      12.210470237966902
   439   3    0.098366518948875964      22.253434237287827      14.259618182519157
   440   3      2.1722448713145273      20.303457294329689      14.390673492375978
   441   4    -0.29487333516187442      20.122762245343313       16.13901189514462
   442   2      2.0303946268525741      22.245969895752264      18.131684742293288
   443   3      2.1367186133005003      22.374836610210931      16.275536036059155
   444   3     0.13375575589965941      22.272268588956059      18.339034952262026
   445   3      2.2176447105272672      20.306020247102349      18.346488979272593
   446   4    -0.36386870439155683      20.302642700648033      20.204577105251726
   447   2      2.0163759316199075      22.197002595571462      22.233813241315328
   448   3       2.136095203488142      22.265125618640852      20.352435946965961
   449   3     0.12666718390892312      22.417727483782237      22.406112173334748
   450   3      2.0762297798222069      20.297554300300718      22.504780066023475
   451   4      4.3300509522057462      12.101073230305804      12.280945611163496
   452   2      6.1860300684880407      14.278794944863568      14.189163798748961
   453   3       5.878920403847415      14.120995258465388      12.176797449123319
   454   3      3.9640526869414083      14.285059877814648      14.347491015950753
   455   3      5.8632307392486265      12.220385017712061      14.184129739384026
   456   4      4.3534571317702779      12.257666219078162      16.000228839399046
   457   1      6.0704982381346362      14.164883730812988      18.183475432900678
   458   3      6.0218196875549168      14.095120262630617      16.145399259275468
   459   3      3.9898848775705775      14.313993234330232      18.307047183501489
   460   3      5.9474321968497454      12.117395233209271      18.287283343071842
   461   4      4.0829719280211787      11.971295342145391       19.93378672795653
   462   2      6.0279646334754444      14.073859608803993      22.259438595852064
   463   3      5.9977150668615851      14.252184747555164      20.365123428190621
   464   3      4.1012269532167389      14.266726650556368      22.504447945566483
   465   3      6.2013110145139505       12.22136852128312      22.396745189891405
   466   4      4.0268218614404976       16.12113176088571       11.82719747583276
   467   1       6.053408174588113      18.254723827343508      14.141979878476356
   468   3      6.1976096790645672      18.338523264993551       12.13979295359559
   469   3      3.9959188099667915      18.258347000476963      14.374447118726335
   470   3      6.0244794829642281      16.198523109153857      14.221308429517361
   471   4      4.0970268372720922      16.249920762943113      15.854514621507748
   472   2      6.0839959215925292       18.19150662114669      18.143032009064527
   473   3      6.0612807371113355      18.216391821361778      16.276282579932019
   474   3      4.0982658807242363      18.289810319150732       18.46138418629976
   475   3      6.0874391401835473       16.27692013558563      18.438867339923487
   476   4      4.0745283864074313      15.969384080868821      19.994087314653708
   477   2      5.9785100192495895      18.151842373529284      22.255289151921826
   478   3      6.1417489453757188      18.393455700166303      20.369859726399081
   479   3      4.0946332608684832      18.396718206246835      22.391151493792449
   480   3      6.0915790515270336      16.269682924305513      22.316527246180407
   481   4      4.2625835020484901      19.988633429063434      11.818095609667596
   482   2      6.0901911511734932      22.280694023404557      13.989966166482851
   483   3       6.109779794000131      22.224571790176988      12.131155900362222
   484   3      4.0879428043908819      22.311188703354585      14.328847687350219
   485   3      6.0486964637638732       20.32104390905576      14.372614853371285
   486   4      4.1340137451345464      20.151974418409321      15.860663469498336
   487   2      6.1337101522203872      22.299258032870412      18.178746173077748
   488   3      6.0276539511902545      22.339304083805512      16.316061225802134
   489   3      4.0851880810437597      22.341910791625459      18.461587268809758
   490   3      6.0469949171271473      20.298655499574512      18.374189640334357
   491   4      4.0368678258771142      20.190138785365889      20.013365676230265
   492   2      6.1162633239311912      22.153283346607612      22.316798571211407
   493   3      6.0487347611268509      22.295268344502457      20.373634954333841
   494   3      4.0893297538012039      22.307338671178403      22.485290103462884
   495   3      6.2004432830690392      20.266849331487293      22.500611722258668
   496   4      8.2360580504671645      12.086345074555581      12.173848478755742
   497   1       10.12760107036776       14.23474380746697      14.111122696310353
   498   3      10.133716127729626      13.831261265123873      12.079143371176853
   499   3      8.0684801918135882      14.067649957203846      14.165394523390756
   500   3      10.126361635741757      12.180664345957346      14.435041089537769
   501   4      8.1759002883006762      12.167459006893505      15.864736111448792
   502   2      10.032343626063067      14.165259127642532      18.097677738356886
   503   3      10.075517786747479      14.393974923163883      16.232635688031142
   504   3      8.1423340712376646      14.188840924664193      18.414326087121363
   505   3      10.255489476923222      12.238929223832073      18.133085366495337
   506   4       8.004101561887941      11.909435002993444       20.01743349485232
   507   2      10.050879698629496      14.122361539098184      22.195665131076758
   508   3      10.270138370460236      14.052762613887648      20.315503574620109
   509   3      8.1215140993637824      14.422439086771121      22.281408217433114
   510   3      10.039186845805814       12.25011695168047      22.537527138073514
   511   4      7.9051962277531667      16.548362719198543      11.933323080659321
   512   2      10.132599876782539       18.26197228843176      14.005679310431956
   513   3      10.111623788299394      18.353167257955278      12.127038674921435
   514   3      8.1380427874802148      18.281337743167995      14.325478788462737
   515   3      10.107103673025977      16.267594376404045      14.151869339790728
   516   4      8.3181857089182483      16.470220898119305      15.932341455394994
   517   1      10.122914120532499       18.19518813743208      18.217544143364993
   518   3      10.123760643622404      17.953493644187652      16.224996819836001
   519   3      8.0385519444122711      18.247957963147357      18.411147155751099
   520   3      10.118315720438687      16.145444280091752      18.555456473531979
   521   4      8.0353720357049667      16.122183591309724      19.944282915508722
   522   2      10.025438455629343      18.163159039297803      22.356523285141105
   523   3      10.160424918849674      18.418382639035805      20.331902284653228
   524   3      8.1267016204990554       18.24574927989552      22.362152382402506
   525   3      10.301048464431329      16.228711962619947      22.144777769919809
   526   4      7.7838923153748141      20.003595243964376      11.811106030394848
   527   1       10.12321347035609      22.245878009869418      14.126720285118088
   528   3      9.9996668289119306      22.244580239804421      12.091558887659689
   529   3      8.0309824634556062      22.237801618852842      14.366496093183303
   530   3      10.133047229531083      20.215796947496777      14.461268560387069
   531   4      8.1589648499089709      20.273928932792877      15.825833532895839
   532   2      10.230178013654383      22.166727994821933      18.204169202683161
   533   3       10.07149879481562      22.466550736637938      16.300446734043192
   534   3      8.0591133698835709      22.325907322124369      18.367095032026615
   535   3      10.052017902499829       20.27004758936474      18.233158048277208
   536   4       8.243139686763282      20.039375177598693      20.039024554284513
   537   1       10.12337486168653      22.201805780960171      22.304631530353447
   538   3      10.049816982190002      22.225174724996855      20.242929112131957
   539   3      8.0606854777555395      22.502692386326299      22.351146968008518
   540   3        10.3183572822046      20.183154553349329      22.389537241795388
   541   4      12.131429534763482    -0.33032700178596885    0.044311299979643969
   542   2      14.184454727843363      1.8894097403509855      1.9876175071009203
   543   3       14.19859567147623      2.0652111509878237    0.037791100638324145
   544   3      12.205521076507699      2.1789811056926998      2.0720951109750967
   545   3      14.206800678272336    0.028909120915843453      2.1796222973196411
   546   4      11.982450964514394    -0.27065494616838776      3.8825714762101406
   547   1      14.155471022436387      1.9803464566680697      6.0177211865321727
   548   3      14.204678879489313      2.3039368162026475      3.9904671403179965
   549   3       12.08309583218127      2.1608185891998977      6.0406196043936982
   550   3       14.46647143779626   -0.023908755133660121       5.949075676618552
   551   4      12.149668104547555    -0.33744119099203279      8.0564026319020101
   552   2      14.217614341511677      2.0167810726479929      9.9971531835548895
   553   3      14.119977698403495      1.9382978258275114      8.1008473417340827
   554   3       12.18511901515599      1.8781234533000695      10.359402980657821
   555   3      14.256809393692167    0.041457908047684858      10.400312812104557
   556   4      11.938354959724471      3.8829190277688803     0.30634948853475163
   557   2      14.089576642129117      6.0950748194473743       1.918014592585348
   558   3      14.263176414010688      6.2775880615672675    0.012441501449946912
   559   3       12.18030407561753      6.2419587185800864       1.980676819067505
   560   3      14.128016418908718      4.1720691874649862      1.8656507947703114
   561   4      12.116332398651577      3.6758521388500967      3.9882518450409585
   562   2      14.206400559011648      6.0976835301455363      5.9734889834882212
   563   3      14.141642692401524      5.9938223401767496      4.0470964860451906
   564   3      12.123991394320962      6.2503336494122985      6.2224724447621211
   565   3       14.05466582864384      4.1440772629361771      6.3517730350205817
   566   4      12.258673887788177       3.780671201260013      7.8946465516229694
   567   1      14.112336145102546       6.025110891205177      10.095919634752757
   568   3      14.107832888424683      6.4047292814277315      8.0796681360418692
   569   3      12.074021165697991      6.3260838673153419      10.104840737739222
   570   3      13.976582780456459      3.9979942638807722      10.077172348882275
   571   4      11.658094833892857      7.9191982959007152    0.075835631130991191
   572   2      14.018617660171715      10.180073730342178      1.9955060844053067
   573   3      14.202629292162854      9.9727053571547639    0.067047996839308496
   574   3      12.147924045267899      10.140119398308366      2.1751986382932929
   575   3      14.215295342725218      8.1144596036747423      2.2717884071726675
   576   4      11.873103752585564      8.0402735779498613      3.7555427613112853
   577   1      14.138518954059826      10.149023402239004      6.0539402216816951
   578   3      14.385244689473948      10.216508426327858       4.005776908643373
   579   3      12.114717054318209      10.200128754240909      6.1414910149910602
   580   3      14.384956712031663      8.0900223148121686      5.9668331460708846
   581   4      12.176811033204411      7.7874203690549093      8.2039521860008797
   582   2      14.029672363965405      10.104704132577247      10.069238554930269
   583   3       14.27802524349242      9.9927069027722553      8.1588291550619267
   584   3      12.163089942914036      10.214150892749243      10.187754813794031
   585   3       14.26294492723941        8.18954894319271      10.349504079073693
   586   4      16.089565934191754    -0.27991589501833636   -0.018454682083777197
   587   1      18.175399712474164      2.0525242366866872      2.0122899649703494
   588   3      18.445719230753483      2.0407437661676071   -0.048749707154154796
   589   3      16.142184637925737      2.2411025416522929      2.0378416917810718
   590   3       18.39041568427886    0.015789288788032721      2.0764651040765605
   591   4      15.969613134883293    -0.15018651783295894      4.1401586997827282
   592   2      18.220879316463584       1.948381528253238      6.1536685346001745
   593   3      18.182209156221017      2.2608076436710003      4.0661971160356138
   594   3      16.223004360405266      2.3312661530500245      6.0629347780011367
   595   3      18.011665575536981    0.048104854803713723      5.8627017062099052
   596   4      15.988515537926846    -0.28879284385826404       7.846410692774259
   597   1      18.198992570128432      2.0135083020321387      10.118860053412883
   598   3      18.328327116980017      2.0173957421227033      8.0803377207250389
   599   3      16.150757783811503      2.1292358702863088        10.2634492393298
   600   3      18.114854708376278  -0.0073921445099306348      10.406816015738837
   601   4      15.894404843812545      3.8245625594259902   -0.067773912459450816
   602   2      18.074620435626983      6.0926526406728101      2.0326272113962935
   603   3      18.372190664518858      6.1587301370374465    0.024913147998216527
   604   3      16.194671410400055      6.1163895067800045      2.0921388194311574
   605   3      18.408304746185557      4.1591563878663589       1.941664410746512
   606   4       16.16485682056577      3.6967596382570846      3.9980365551984347
   607   1      18.181147421238741      6.0758806332040338      6.0654978101378383
   608   3       18.44000310248736      6.0263235752514488      3.9976004736281991
   609   3       16.13833486677607      5.9302202494327361      6.2209408149069905
   610   3       18.41768717392689      4.0548412142398274      6.1934411687357764
   611   4      16.085785964761346      4.0211881889247501      7.7252407368562732
   612   2      18.065018877445127      6.0197486144285639      10.108634164812413
   613   3      18.396834769794058      6.1147231057567533      8.1615932153681729
   614   3       16.19298421852287      6.0779225346726822      10.170934417348652
   615   3      18.433888027724539      4.1085134798689564      10.079000316608022
   616   4      16.026832394980989      8.4316879699024163    -0.26472248714992863
   617   2      18.148597029791368      10.218353286285399      1.9715204107109756
   618   3      18.299519376991562       9.876250815524882     0.08388404862304287
   619   3      16.251098252830079      9.9937151637235306       2.024663956861033
   620   3      18.373731692377934      8.0652724142284473      2.1593733327250506
   621   4      15.879847998720701      8.3304323112377929      4.0212396371588479
   622   2      18.126958786259156      10.052565296253325      6.0351422622210764
   623   3      18.280708227368315      10.089531101000121      4.0724565623250957
   624   3      16.269374338893854      10.176619298133888      6.1400725396098625
   625   3      18.285825852317153        8.12736448027648      6.0655550024929061
   626   4      15.836907920335655      8.0407933345378222      7.9899478921981544
   627   2      18.141953236902008      10.135579077192874      10.192879487661912
   628   3      18.424384126689581      10.024218785292772      8.0683354377424124
   629   3      16.239939540107198       10.08491333435313      10.128105070405372
   630   3      18.342848954784554      8.0634934506834206      10.123525977573928
   631   4      19.898040405968526   0.0032699903733066464      0.1021063883581942
   632   2      22.213150772272197      1.9876980201498167       2.065953776314041
   633   3      22.363431845773746      2.2242810695124255    0.049675048166657458
   634   3      20.338104546960764      2.0754972470101927      2.1111889586802417
   635   3      22.413349767697724    0.073046144591520382      1.9638864364682693
   636   4      19.902282565309111    0.088759172541138354      4.1032768338495345
   637   1      22.213614265796071       2.018293806737689       6.058800601792484
   638   3       22.54790418098586      2.0127034621627198      3.9872332701789746
   639   3      20.179788437651652      1.8822505621004673      5.8988583373656418
   640   3      22.596953445203283   0.0010708287775620532      6.0606951891816383
   641   4      20.095387700361702    -0.22534283609548195      8.2348460634757572
   642   2      22.189860371529058      2.0201917180180269      10.036507451442738
   643   3      22.360290808214632      2.0607234578964335      8.1318761311312162
   644   3      20.313007055436575      1.8698041038685855      10.258252891782016
   645   3      22.581712198321942    0.088164168134666987      10.133359303728376
   646   4      19.925510009498982      3.9474690324082911    0.049077099066858219
   647   2      22.228082358759959      6.0175949207883477      1.9964148880552017
   648   3      22.493771466233046      6.0939732629465988     0.07304287667433175
   649   3      20.358824070069922      6.1776964195929214      2.0238181423142096
   650   3      22.368084438769522      4.1084184887431663      2.1184152413753345
   651   4      19.851685466308741      3.9579767603560745      4.1218978567928737
   652   2      22.240928695996761       5.968449998460871      6.0524033022398127
   653   3       22.35838467300298      6.2578983307909031      4.0637086417454622
   654   3      20.371275962974408      6.2598425312636685       6.144727989731777
   655   3      22.246656433154968      4.1016834395209383      5.9611556817471065
   656   4      19.876466279280777      4.0483024810734918      8.0363605394124935
   657   2      22.231486680210846      6.0785737496746632      10.024068902699845
   658   3      22.439937450402777      6.0438859404312462      8.0822678782182411
   659   3      20.358106984802088      6.1857875547605152      10.090953109615487
   660   3      22.260394011775059      4.0531788695787174      10.240007980148581
   661   4      19.972528120478778      8.1587074789801211    -0.11877234657163786
   662   2      22.199072585751797      10.071898822327478      2.0728151182763086
   663   3      22.402142389672047      10.117277803349968    0.051718861663684911
   664   3      20.301637454780057      10.006985879899453       2.071183968618485
   665   3       22.50876591254432      8.1122864986738747      2.0175193663839139
   666   4      19.942374488485225      7.9307008061758708      4.0884219540575515
   667   2      22.218159008200175      10.072339578684987      6.1597748553992009
   668   3      22.460216502670189      10.118035927496761      4.0258708138060193
   669   3      20.321712805737448      10.014722214913236      6.0430022949225322
   670   3      22.543947421827674      8.1506173775571149      6.0695375288779108
   671   4      19.914495704471328      8.0136133253766886      8.1151827109588268
   672   1      22.271065850758891      10.001772727430522      10.135473329389942
   673   3      22.370125327029228      10.244689441196567      8.0639994546650016
   674   3      20.250197558145516      10.147985576339863      10.085924510136728
   675   3      22.629721937281158      7.9813369020290255      10.128931086329892
   676   4      12.283884176227646   -0.019969834676216335      11.818533278441025
   677   1       14.12749014318371      1.9612816941550086      14.185192848137365
   678   3      14.209891630999731      2.2760454053897683       12.16805436678287
   679   3      12.089526088095432      1.9946934467761677      14.081379352666907
   680   3      14.219586777411353   -0.069183156716923017       14.11167285723411
   681   4      12.241978816042296    -0.31897058950218721      16.052816670432072
   682   2      14.244001934958597      1.9225533664510366      18.209841704640198
   683   3      13.950691298526962      1.8549120128883894      16.259943974418075
   684   3      12.083482601448095      2.1749003992005105      18.345131532355246
   685   3       14.19086835287494     0.05179436361807245      18.520013179056775
   686   4      12.203999166471045    -0.22968075338454572      20.506846875080488
   687   1      14.117434605432504      2.0270386387074426      22.269582305208282
   688   3      14.170785681527541      2.4376247910183912      20.168643749958505
   689   3      12.092831242991219       2.180661595385371      22.072072900539876
   690   3      14.134816731507954    0.010551325992669155      21.974687170436592
   691   4      12.365696243928516       3.732274938482925      11.950839613847439
   692   2      14.144130303454316      5.9258862813072426      14.212860424425619
   693   3      14.133751361633754      6.1116828219329733       12.19915984166747
   694   3      12.173721940652324      6.3023535471606911      14.155133862937671
   695   3      14.087618803105732      4.0544230787589237      14.390013172603171
   696   4       12.34909106446071      3.8196365399690402      16.280000865342942
   697   1      14.148627329601275      6.0839341751307101       18.19336913917876
   698   3      14.093199804619223      6.3327996541552478      16.125236993392068
   699   3      12.057086831049119      6.2011467072066564      18.192355403906227
   700   3       14.11379156990899      4.0422049154010642      17.865501445981305
   701   4      12.198076653124067      3.8500297969415538      20.265385476611371
   702   2      13.966386790076236      6.0818008168521889      22.210119619676178
   703   3      14.181632182561071      5.8153951793534482      20.294993332288207
   704   3      12.117586023863876      6.0418822915186476      22.349144050946304
   705   3      14.376107468975624      4.1405430454737635      22.427987116186085
   706   4      12.094046292888795      7.7073916867738417      12.134046050427648
   707   2       14.15694335007524      10.145144331364138      14.076941775677053
   708   3      14.300722407192096      10.372298701300315      12.174306224881549
   709   3      12.164388274381057      10.331573991757441      14.104381162746877
   710   3      14.197007604833569      8.2237555481268707      14.027736537153825
   711   4      12.067246983545123      7.7503126382015814      16.128673151823023
   712   2       14.06656272248302       9.968106900240528      18.165990634473598
   713   3      14.070906602487694      10.071307213143555      16.221250248561329
   714   3      12.165631035071023       10.12815192324806      18.432668863670312
   715   3      14.154761920048331      8.1142180954770371      18.384725608016964
   716   4      11.913297963688711      7.9347064616856997      19.967497306893218
   717   1      14.054501344332165       10.06849443240352      22.265524256616409
   718   3      14.347873250625415      10.257337737491619      20.177114424304236
   719   3      12.043566051090407       10.38950970967729      22.209277542578526
   720   3       14.23911328268384      8.0251134038838412      22.118024332924787
   721   4      16.193848637325086   -0.047090137716582561      11.822252045579299
   722   2      18.036978107289702      1.9576199613258061      14.196278441004013
   723   3      18.171587816444926      2.2625757271148368      12.218400028026176
   724   3      16.171299120438846      2.1541215041595487      14.297956920710785
   725   3      18.183915340757881    0.058780481908914751      14.062821266088177
   726   4      15.918915579751742    -0.24946674261706936      15.991409695730509
   727   1      18.158790455127839      2.0525522745903828      18.213398726991382
   728   3      18.474041250350485      2.0438927892908132      16.149169242008078
   729   3      16.141757716430806      2.1956026389084098      18.085222234654776
   730   3      18.353425449371898  -0.0063055086604355496      18.287267374073867
   731   4      15.904147827371538    -0.20310924393707125      20.396501125835858
   732   2      18.102913646457932      2.0147999235562581      22.253335461196968
   733   3      18.336826801002204      2.1439412956006403      20.313794887524111
   734   3       16.22691377610866      2.0899681057048163      22.304966309146451
   735   3       18.33416687500301    0.099215689725124831      22.262594130066283
   736   4      16.057777472215903      3.7100474167985182      12.099602980271971
   737   1      18.157286979280428      6.0167604156760088      14.152443234963926
   738   3      18.385864409378016       6.068640768693637      12.085368816878317
   739   3      16.112385086972921      6.2239331609663493       14.18205512697949
   740   3      18.446755810984829      4.0139701363815403      14.237476517338862
   741   4      16.023264307102455      3.9941337591760626      16.426539902259282
   742   2       18.09168868571011      6.1048145090701826      18.190764885498051
   743   3      18.348227855010201      6.0743598150552538      16.258733626316616
   744   3      16.231140032370273      5.9254601258060351      18.202277805921621
   745   3      18.442872231269185      4.1149834289307021      18.169144616628898
   746   4      15.866810417426287      4.0557880709634908      20.321378695749946
   747   2      18.135623878122093      6.0742075434902016      22.222631273647213
   748   3      18.361564728847874      5.9919227675585152      20.281463908881417
   749   3       16.26496624040686       6.125225266284934      22.272375721225533
   750   3      18.306360027482235      4.0776594544854152      22.442076876078442
   751   4      15.911817529656851      7.7975519936684563      12.082048859818055
   752   1      18.165962630499966      10.115598484278392      14.135654520882913
   753   3      18.322730051690481       10.05802589979535      12.110082617012035
   754   3      16.138812199510514      10.145551507578212      14.455414970862458
   755   3      18.294974520743931      8.0692366501792474      14.232041933951113
   756   4      16.300094123530094      8.0684813532449517       15.79052019637677
   757   2      18.113705957539313      10.241677297082603      18.264167138809487
   758   3      18.422950156938285      10.037709232319143      16.297860116898761
   759   3      16.209384305205752       10.14735516511732      18.104522693498982
   760   3      18.321506747085422      8.0454881072405087      18.275758465651364
   761   4      15.989380449975922      8.3976987192689485      20.477096378668861
   762   1      18.239378312747377      10.137011032488802      22.276575471283657
   763   3      18.242355483267328      9.9475150582449121       20.20069176184051
   764   3       16.20107833463425      9.9491865524287952       22.24331906867247
   765   3      18.436317012607248      7.9946584575275637      22.271676004764011
   766   4       19.94017837600812    -0.14980237098107957      11.955525128857662
   767   2      22.203950445728839      2.0455519393634756      14.129188963501571
   768   3       22.54440524891146      2.0345275131368128      12.185980014563059
   769   3      20.327251468722935      1.9459824508797614      14.072685102945963
   770   3      22.502266670043436  -0.0093701405590006746      14.197622533633435
   771   4      20.163972532712709     0.41629051275619927      16.431677725551012
   772   1      22.338652583342824      2.0512074120993682      18.196631909194583
   773   3      22.276115474483127       1.847873663965913      16.141779834382902
   774   3      20.320319651443025      1.9215051338295963      18.364913363776228
   775   3      22.508129713009172   -0.025431822451671849       18.30026884752046
   776   4      20.038828315916049     0.23726004411769583      19.990985980241803
   777   2      22.235630449290035      1.9970243381372927      22.268981175480544
   778   3      22.536036344164071      2.0514722751464403      20.370669251784378
   779   3      20.355210567776172      2.1656920525416985      22.246437184775097
   780   3      22.425896610629152     0.10399473785578199      22.409547953551879
   781   4      19.836305105952992      4.0115170506670079      12.192604763527893
   782   2       22.27788547298297      6.1106216232901316      14.024537049498116
   783   3      22.406948698659548      6.0474728763167214      12.132427017767602
   784   3      20.368310499506769       6.078794419354085      14.201847272149015
   785   3      22.385376322383198      3.9969125864957844      14.264886897665807
   786   4       19.89084554935631      4.1180990143347307      16.093290981835338
   787   2      22.222968529540921      6.0258413594361819      18.139506341793716
   788   3      22.403245221336824      6.0301715451802815         16.261156877262
   789   3      20.348108013050634      6.1243042193976622       18.32634971462603
   790   3      22.358646111183536      4.1193285794789247       18.42247701803743
   791   4      20.092883054690144      3.8328557127055105      19.877399657500103
   792   2      22.228031631873456      6.0555502707974762      22.201947733328922
   793   3      22.408815674511516      6.1692074840928104      20.329737747273423
   794   3      20.359192562845227      6.0117794523990948      22.385153184646143
   795   3      22.549864277903904       4.116963447641564      22.343073268947357
   796   4      19.829757307118371      8.0442739003357211      12.332666721839555
   797   1      22.305012658002735      10.020070318363619      14.145783379490753
   798   3      22.346326739045267       10.24322709853646      12.141156424128273
   799   3      20.269539920859771      10.184049624508036       14.21493967492234
   800   3      22.449048655686955      8.0055569553561394      14.263634568845651
   801   4      19.947063288702321      8.1575754031560024      15.867812205963343
   802   2      22.280668898779325      10.059359312333344      18.107602759020036
   803   3      22.352579407639961      10.196062402461092      16.232107582668377
   804   3      20.335998086494396      10.011723964363281      18.362923722448976
   805   3      22.500581420283332      8.0798710311443305      18.309602596040474
   806   4      19.969566088668401      8.2737691664072841      20.168722168687307
   807   2      22.177283764168624      10.144724781359203      22.231882669999795
   808   3      22.406805106024681      10.005124705606486      20.341000598872458
   809   3      20.309573112151128      10.030475408670112      22.323250432110704
   810   3      22.383059467519775      8.0737173247922698      22.493636159021417
   811   4      12.264371281095972      12.110856691433817    -0.43505319524558927
   812   1      14.160615794597597      14.161346692542939      2.0461830029609134
   813   3      14.321159901181138      14.288045322728443    0.018609520487834586
   814   3      12.100671559457506      14.338993799827852       1.995269820743079
   815   3      14.299722398987891      12.089053355725742      1.9486189471203208
   816   4      11.875192430872538      12.090832674246142       3.964364482663191
   817   2      14.016873853433621      14.218675710554484      6.1091765728574243
   818   3       14.22171443925459      14.019997892135899      4.1120880638813686
   819   3      12.143220896242433      14.212715928077621       6.260868716022828
   820   3       14.29657179147711      12.206212246835985      6.2249397598757215
   821   4      11.963586562117754      12.079977348102817      8.0474827255292745
   822   1      14.137017584481619      14.193148450318727      10.096297308399606
   823   3      14.463577871770495      14.260090417241994      8.0474791091599815
   824   3      12.106055012890907      14.417758794046932      10.073673906891198
   825   3      14.351430173226774      12.105369700103058      10.015849858167966
   826   4      12.333371610064287      15.817328210422659    -0.10578705690439268
   827   2        14.2123064214582      18.199180990973471      1.9428999663360647
   828   3      14.115258446104509      18.133334138078325  -0.0041749987271700439
   829   3      12.195262559906642      18.120170507759145      2.2665464433823388
   830   3      14.256700074437223      16.236592618266684      2.2364958280216394
   831   4      12.083325886672272      16.188404830465871      3.7491664678865533
   832   1      14.199689539064492      18.154165303428627      6.0514431764929189
   833   3      14.285086660921174      18.417944498853107      4.0231348539324143
   834   3      12.114697725557136       18.09406386440741       6.099493742843122
   835   3      14.350324016454234      16.122293273053984      5.8975398436503301
   836   4       12.12086056682241      16.440236779888583      8.0942219268788218
   837   2      14.270456991581636      18.253669446406789      9.9755501287075248
   838   3       14.11679106646609      18.068950765641276      8.0939739303095131
   839   3       12.17588150597763      17.918971565621504      10.104293021871451
   840   3      14.316757562698406      16.263635718194774      10.374662787244866
   841   4      11.948559626920948      20.017291830953734   -0.064174156633254292
   842   1      14.166414708712043      22.198886023889681      1.9882405568588319
   843   3         14.157330341845      22.593906131247998   -0.050281787162179403
   844   3      12.134397940918621      22.485482371059124       2.020264579761641
   845   3      13.961210975845594       20.18822542375613      1.9602857573347292
   846   4      12.378245558628761      19.962874952311314      3.8126796090850759
   847   2      14.107667495083017      22.193266994537009      5.9680577493682794
   848   3      14.258116978104013      22.239894713220767      4.0535722749231082
   849   3      12.188759747405037      22.463868300564364      6.0636146242831863
   850   3      14.075439332712483      20.274953538371246      6.2766740520657995
   851   4      12.252700750386683      20.238320852404083      8.0155186677867611
   852   1      14.174391062340373      22.235527073476959      10.069641595482079
   853   3      14.089266121360088      22.525087922206424       8.057641089605637
   854   3      12.111934469690755      22.536705691619307      10.132191983871094
   855   3      13.841108391411179       20.20026870502646      9.9962337833991572
   856   4      15.821595145239305      12.320122445948847   -0.097780557522952866
   857   2      18.194813920617367      14.330843745007439      2.0680046620148644
   858   3      18.044547692640421      14.248452545610142     0.04197508027086666
   859   3      16.268025403601868      14.116895663659578      2.2101102027350432
   860   3      18.318864701485147      12.084372947477274       1.955060135285559
   861   4      15.807381816130395      12.233295621243739      4.0446920015896337
   862   2      18.224617432353327      14.019404808311775       6.078302990258222
   863   3      18.509465618104848      14.056256066800959       4.047066509341545
   864   3      16.302246674352549      14.103245558117274      5.9161973329422404
   865   3      18.429953311157089      12.119207066576616      6.1705812462139962
   866   4      15.831151195834403       12.16770597633522      8.0748035814780081
   867   1      18.264255003347007      14.096711403225497      10.126758559716466
   868   3      18.194475014322229      14.375136823459577      8.0269770618789593
   869   3      16.221362097669331      14.222506654959169      10.239578979811252
   870   3      18.287449241235638      12.067453811801215      9.9999412572096436
   871   4      16.064006035091506      15.817921408087953   -0.098629785376007903
   872   1      18.236359579048951      18.175522684140383      2.0335199626767069
   873   3       18.28901001707543      18.422393355114878   -0.064503174205824243
   874   3      16.185607974879527      18.429651342502616      1.9828165499182735
   875   3      18.243896185973835      16.180270013894091      2.1170578318047095
   876   4      15.888015471173846      16.040833132905597      4.0473593267178618
   877   2      18.192104517767639      18.063612430211087      6.0651701048368079
   878   3      18.164974259000676      18.537633394255192       4.078340037081265
   879   3      16.249812948463532      18.484263793072799      6.0474223913205529
   880   3      18.135110763634987      16.178314192084731      5.8992517693960513
   881   4      16.302275060316127      15.851710900538347      8.3527584147659706
   882   1      18.208087983841839      18.229659327193371      10.086243266753758
   883   3      18.299029597003145      18.218759686314993      8.0274730175823841
   884   3      16.166751128347165      18.432851632907738      10.227888748101355
   885   3      18.137043344235085      16.220760769951276      10.283543786013835
   886   4       16.39111829203685      20.003130589843824     0.10895731903259985
   887   2      18.100216188995795      22.309683640478692      2.1224807345919539
   888   3      18.216714481079389      22.571104686362649   -0.021689883702190337
   889   3      16.214999313430756      22.367974313318769       1.914480189454836
   890   3          18.29598424181      20.399314808400483      1.8042190730775916
   891   4      16.172208876582129      19.898935999628257      4.0109084007966427
   892   1      18.199610558678952      22.292445011225443      6.0650095394742722
   893   3      18.290091919800599      22.248288938061936      4.0083299375916752
   894   3      16.159796925715366      22.187323306315143      6.2427600538893513
   895   3      18.344464060102766       20.27829255048043      6.2668466453204212
   896   4      16.286204476438204      20.211925136149784      7.6802404150172743
   897   2      18.130882133854502      22.214065317421873      10.078861983377543
   898   3      18.272293280455358      22.526178585743352      8.1373162170249156
   899   3      16.212142611394039      22.244781297478681      10.182122950566521
   900   3      18.451398446565335      20.302700427688364      10.001029868397387
   901   4       20.39006523473871      12.397972527545038    0.095176062358257207
   902   1      22.266196312604169      14.173782931007054      2.0578742977939699
   903   3      22.383447247316543        14.1613450319688    0.007216411364820605
   904   3      20.193514538977624      14.111270357438366       1.719089792814372
   905   3      22.240657115568915      12.073231150173834      1.9716002139664317
   906   4      20.509936511850487      12.371904598328136      4.0884810427837586
   907   1      22.260356588971216      14.116911761813865      6.1446895613646983
   908   3      22.017356309277073      14.162499326558615      4.0426195878101083
   909   3      20.211365795578448      14.393563661086683      6.1802741084663539
   910   3      22.211393728288826      12.091688139341958      5.8937843132272718
   911   4      20.180850178208971       11.83147697838918      8.3966772007163275
   912   2      22.335322076035546      14.091742292775498      10.112720794633969
   913   3      22.364253251659306        14.3942450797083      8.1817724042756179
   914   3      20.316067556002373      14.453357815443551      10.050612657995609
   915   3      22.172919555333561      12.217440512058895      10.068796403875321
   916   4      20.385120513896961      15.852669268196866   -0.032677997181703389
   917   2      22.157319100480283      18.137231820077691      2.0453079476035119
   918   3      22.273033921810391      18.455706440782738    0.038117587475130228
   919   3      20.279677603196873      18.450994355375002      2.0182520845746836
   920   3      22.240663148199818      16.263799034860504      1.9414037808190918
   921   4      20.569609664871898      15.955593441218221      4.3712603052115053
   922   1      22.208697855342809      18.231446142862684      6.0615069559766894
   923   3      22.354255586863353      18.335078190637834      3.9676108718978811
   924   3      20.189275813330081      18.296829650149572      5.9544258016949927
   925   3      22.433407653842625       16.21047294081788      6.0041316314082041
   926   4      20.131702286677537      15.881302790392288      8.1552155169331844
   927   2      22.141109840234233      18.315612812407011      10.109319020045907
   928   3      22.407913170229744      18.254318946663645      8.1568661441840771
   929   3      20.285942767060909      18.133572214578638      10.174942513829313
   930   3      22.525657621310479      16.322885329630829      10.191738816395725
   931   4      20.048822547874817       20.04416149119049     0.11289574668808199
   932   2      22.198514969496518      22.214010197349072      2.0338032022924915
   933   3      22.488253072371162      22.323198230410419    0.091817094006640551
   934   3       20.31082851364943      22.382488185478461      1.9553955241104239
   935   3      22.367703745746745      20.334648123233709      2.0601386918753124
   936   4      19.989185864104861      20.002969957509755      4.2002395246996338
   937   2      22.133466432231764      22.304071529717429      6.1075685718489812
   938   3      22.347516973975043      22.476426207014132      4.0358020084626789
   939   3      20.264298307106614      22.537506296247141       6.092732067530565
   940   3      22.266551887612973      20.363069458685011      6.0558438542622106
   941   4      19.932905300629965      20.046765247814044      7.9645103142574953
   942   1      22.237835125632326       22.26788659224162      10.096123900939467
   943   3       22.36044541599362      22.452093207991595      8.0390349816728364
   944   3      20.222710305619756      22.611240082713483      10.088854818294186
   945   3      22.285114069813922      20.240886629704121      10.191668634935647
   946   4      11.890470433918827       12.06771944925233      12.211656981373745
   947   2      14.049918646201554      14.257413965113088      14.118106947379392
   948   3      14.195331805848532      13.948713092762713      12.218785045545578
   949   3       12.17564015840432      14.074030241443714        14.2831664691409
   950   3      14.300427925075075      12.177770093198779      14.436336269204087
   951   4      11.890036109142915      12.045335261814719      16.003623565831621
   952   2      14.130235878755311      14.050660363154858      18.221936099419189
   953   3      14.305580419164119       14.36147978605787       16.22558804574324
   954   3      12.185677482650263      14.335137545033616      18.262606224833171
   955   3      14.176367187286015      12.162457128350127      18.104535537821416
   956   4      11.960935457085649      11.877218198102057      20.099047181961506
   957   1      14.135417054633264      14.166476474783973      22.209079148768542
   958   3      14.309634774698203      14.117910013555315      20.182131346669859
   959   3      12.078203467868434      14.129461674150765      22.550201281754198
   960   3      14.290172601714934      12.136774860967957      22.419254861520098
   961   4      12.466226425524452      16.420511001407604       11.93353443194423
   962   1      14.180021670580897      18.189927529000606      14.163091706107899
   963   3      14.038521136396088      18.466103279503439      12.110622980810053
   964   3      12.104307623928715      18.268296667277109      14.299953648476491
   965   3      14.109438447822294      16.157361677886165      14.021597901744727
   966   4      11.921217655412786      16.404091910375961      15.953056143989615
   967   2      14.105744303952925       18.22303075884324      18.100155098985798
   968   3      14.199228939612979      18.108087451619067      16.235473517661269
   969   3      12.214105798736895      18.176762812971162      18.394839780301506
   970   3      14.265940360737456      16.264659323855444      18.446738774694452
   971   4      11.974084802499215      16.194599524286556      20.005955484585044
   972   2       14.16289360525591      18.118258977806768      22.190464168426157
   973   3       14.33654845248517       18.41153070778201      20.311674632599644
   974   3      12.242249357260262       18.33549689265622      22.197211460698263
   975   3      14.173260073387508      16.237369139431646      22.242741157109513
   976   4      12.376496828879905      20.125992687201787      11.922539390902216
   977   2      14.149662490949881      22.274263987451505        14.0274964746444
   978   3      14.095064000753231      22.034826790287887       12.14396636693975
   979   3      12.166964351023825      22.260215791243954      14.360798370639754
   980   3      14.092879495609536      20.284700018241281      14.448818524065041
   981   4      12.115857380417417      20.234972378520553      15.851515699412685
   982   1      14.130793318761169      22.241623461359655      18.258347229380856
   983   3      14.180231629084775      22.511698719072541      16.226118954303001
   984   3      12.108359066242203      22.347115031207341      18.259734405928111
   985   3      14.336296472526314      20.186844217499949      18.175863966369757
   986   4      11.836182784575387      20.090453676001868      20.345135023603358
   987   2      14.169365300142193      22.151756533519833      22.306647283113655
   988   3      14.359406882702372      22.173526832138275      20.325451288073872
   989   3      12.216517498767843      22.364282216231985      22.258487947173336
   990   3      14.268980599698542      20.252611796265711      22.485253577570699
   991   4      16.003226154865004      12.397620958901747      11.775028444739728
   992   2      18.202601566233458      14.086799568984695      14.158650938059415
   993   3      18.342273134237999      14.201846135505159       12.23732839930946
   994   3      16.245956169648011      14.198952878103908       14.25460250900775
   995   3       18.25332523899716      12.194506483186183      14.371516126103378
   996   4      16.100725472816446      12.004850667403737      15.982014178613193
   997   1      18.202338886660478      14.114564749089944       18.22261217582972
   998   3        18.2264397304853      14.428810497086307      16.170442092156708
   999   3      16.171890126227527       14.36707356090891      18.201569807282787
  1000   3      18.381621451603721      12.095211997143908      18.242301457250321
  1001   4      15.881862423921358      11.957393810112677      20.654230949042262
  1002   2      18.238106303835909        13.9957556899067      22.205018812614885
  1003   3      18.344330550863859      14.226548035393874      20.315994223371522
  1004   3      16.267350933237545      14.334583155275627      22.292255113430222
  1005   3      18.141680204278412      12.144157426986819      22.347033648199687
  1006   4      16.338966237878388      15.999974762103577      11.783745304209548
  1007   2      18.104825217648369      18.204809661856132       14.12706891915996
  1008   3       18.23684400688877      18.497077907037625      12.205580747585799
  1009   3      16.228134438468526      18.453337659518599      14.174585815956236
  1010   3      18.247494733510173      16.291260179451335      14.131245269982614
  1011   4      16.235864212138747      15.851510136444718      16.297808319936962
  1012   2      18.237023256269893      18.147401677925473      18.170010091343219
  1013   3      18.285831445296413      18.339633149652357      16.239700339986921
  1014   3      16.270546573713528      18.302573287159717      18.331631567907699
  1015   3      18.242319294743492      16.277582561070481      18.305988078655101
  1016   4      16.103370150954348      15.824123741667838      20.090801448134883
  1017   2      18.165165682039476      18.083839030725692      22.264141995472812
  1018   3      18.238708844621993      18.449226652306731      20.332491877838326
  1019   3       16.22401245041398      18.267299456220016       22.41489261497286
  1020   3      18.343081580090736      16.241658516457427       22.31919921527064
  1021   4      16.128250137381581      19.995691743218803      12.103233365981465
  1022   1      18.195255599436631      22.310559745009535      14.175204835075125
  1023   3      18.372311910430302      22.144335783197715      12.113579950180014
  1024   3      16.129733629429499      22.190023000887713      14.346652012957017
  1025   3      18.443403940239296      20.230921600195678      14.268877265446118
  1026   4      15.903455163097577      20.321707628842173      16.012013368475571
  1027   2      18.092042552526276      22.352866813941727      18.136087145234658
  1028   3      18.315536092121814      22.256175229407031      16.257305141134722
  1029   3      16.215854979231583      22.334542715403284      18.215155180937128
  1030   3      18.326486528449379      20.352345094971344       18.33874254113849
  1031   4      16.026490014632721      20.199797202646348      19.959129820586345
  1032   2      18.359253073074459      22.222155280546165      22.216897015302823
  1033   3      18.198220416842943      22.353323332611978      20.289260563557836
  1034   3      16.206708217166952      22.551253195196736      22.373439467622649
  1035   3      18.129399851341915      20.354638442222242      22.408563428644953
  1036   4      20.427648031115677      11.573905212044487      12.188156301304787
  1037   2      22.257459205078103      14.107203311340667      14.148051281992215
  1038   3      22.164293263562769      14.341901961697845      12.177174586915138
  1039   3      20.275869996589574      14.298503709333003      14.326281113906068
  1040   3       22.25519682854291      12.233974002908957      14.209643345994385
  1041   4       20.14252251283601      11.775157171676051      15.918761119012823
  1042   1      22.316311490894385      14.108909734566177      18.151944621210472
  1043   3      22.350290065497223      14.381892891458167       16.12993731894068
  1044   3      20.260299521134009      14.258041463042128      18.246617232778874
  1045   3      22.271763285468456      12.054987820077427      18.444314275831637
  1046   4      20.407451888827151      12.461488657801731        19.8910665757485
  1047   1      22.259695364282354      14.109916041670683      22.263116118903977
  1048   3      22.145409441593198      14.269911973253608      20.283879263685982
  1049   3      20.184121788253996      14.149886440356441      22.608616412371191
  1050   3      22.382611405016483      12.051755134800619      22.366850133066361
  1051   4      19.969152941856759      16.026927620833288      11.837717368230798
  1052   2      22.176424102787266      18.172263672691653       14.16173063291466
  1053   3      22.420133983603531      18.345287336115451      12.201486192432652
  1054   3      20.299009895243955        18.2941489274627      14.216904593610087
  1055   3      22.428309986090834      16.291916362878059      14.194800287473642
  1056   4      20.221621484960227      15.762307245726568      16.392016890112483
  1057   1      22.238175339685302      18.259257400067835      18.213172663210283
  1058   3      22.451189485136354      18.284108222799567       16.15521094667702
  1059   3      20.193927438028489      18.351069856888842      18.395867015974535
  1060   3      22.397290956617468      16.230764873413637       18.27060619296762
  1061   4      20.468854041588468      15.912878466030326      19.909308667696163
  1062   2      22.156764444541924      18.239226319848328      22.223345009004124
  1063   3      22.347955775195814      18.308612579871522      20.332385184325794
  1064   3      20.238085502738798      18.448251264941359      22.312462349575522
  1065   3      22.237436673012702      16.317001661917512      22.462564589851848
  1066   4      19.893124933933574      20.312731063736582      12.163169180139363
  1067   2      22.186039433545286      22.308515232558793       14.09632086069743
  1068   3      22.355576512122216      22.294440817087505      12.213294438342103
  1069   3      20.326451779813258        22.3028605710482      14.258589673880538
  1070   3      22.357958961056131      20.324528683775057      14.316568662666498
  1071   4      19.960329772376266      20.343166736537459      16.010562148418984
  1072   2      22.190146660865288      22.304543223056307      18.224798976125768
  1073   3      22.452069640044932      22.335409856503134      16.262057734755018
  1074   3      20.299315599477033      22.350622244563528      18.341351104685742
  1075   3      22.381687123496874      20.341510951125525      18.308776140493592
  1076   4      20.122878043044135      20.086052949597558      19.997963689255243
  1077   1      22.228363057745355      22.298289983643507      22.279031647773657
  1078   3      22.513525195728892      22.331246111003949      20.230776119646013
  1079   3      20.217514561682538      22.305264285451447      22.341956216110102
  1080   3       22.52476419934743      20.247791077982392       22.29875271193869
