(written by ASE)

1080 atoms
4 atom types

0.0      24.299999999999997  xlo xhi
0.0      24.299999999999997  ylo yhi
0.0      24.299999999999997  zlo zhi

Atoms # atomic

     1   4    -0.13898981580545736    -0.22839989220548518     -0.1364831530207162
     2   2      2.0462489777680424      1.9292246950393324      2.0585740158769883
     3   3      2.2005570398209064      2.1426494165212238    0.095942767638122553
     4   3    0.099249515507489075      2.2356879504341483       1.957925046909182
     5   3      2.0476951767641767    0.072753387851519705      2.1579213184367747
     6   4    -0.21928051396325207   -0.068720962063796728      4.1570194674874319
     7   2      2.1068012895317634       1.896454301670921      6.1376831783066246
     8   3      1.9603324783814229      2.2429552511580124      4.0618708918143396
     9   3    0.088575176631283503      2.2720346415077182      6.1092966459379676
    10   3       1.906102578167072    0.025526703836599478       6.038516251096878
    11   4    -0.22567700292644535    -0.16674635704346585      7.9239669126056187
    12   1      2.0535685119989333      1.9848460627507176      10.065503233698243
    13   3      2.0489875012061942      2.1325277176759956      8.0393510672662014
    14   3  -0.0083765519354699319      2.3004801270378246      10.088288685223221
    15   3      1.9308918452881525    -0.05428999625054215      10.347678184171714
    16   4   -0.055369477936806577      3.8457094642564771   -0.052251651272564884
    17   2      2.0140744642240458       5.993187810857215       2.051501964422676
    18   3       2.068763043785784      6.3187803245295076     0.12083369671322401
    19   3    0.078088969137739106      6.1465349901202773      2.1797154544441106
    20   3      2.1570313046416576      4.1346721267892113      2.0297703885412028
    21   4   -0.055265511973740959      3.7279491899848809      4.1989069148041915
    22   2      2.0805345439475618      6.0098289648337762      6.0540629808392072
    23   3      2.0833903813942429      6.2025065269007671      4.1003669799961209
    24   3    0.027022608157682124      6.0719689911845816      6.0341795960148126
    25   3      2.1149612353325127      4.1276754785585066      6.1109557335296021
    26   4     0.12673865587552607      3.7061871970905704      8.0397875047163438
    27   2      2.1201956573655045      6.0004856679413958      10.162255026154604
    28   3      1.9223309272886131      6.2610541251839074      8.0959095143778939
    29   3    0.015369171102880996      5.9062686362425962      10.219892963609889
    30   3       2.229224106315042      4.1095664024117298      10.131268496346502
    31   4    -0.16068479000605196      8.0538963167004844    -0.11597403332297423
    32   2      1.9873688773493456      10.056915032247218       2.010782245668135
    33   3      2.1583807827828028        10.1892388899581    0.082305376916149864
    34   3    0.069819161201852636      10.315480786544624      2.0832554550733517
    35   3      2.0019832237216582      8.1839172733358811      2.1991944099507883
    36   4    -0.12229587654604743      7.9468120650123018      4.0321614558435952
    37   2      2.0511001912018605      10.062004202841344      6.0436373760297766
    38   3      2.0373156528363414      10.326230679255987      4.1101552349680368
    39   3    0.021897340245275426      10.428336789699884      6.0707262630555885
    40   3      1.8032969998391792      8.1721331846982466       6.095795390426872
    41   4     0.20569491122797681      8.0225637134580374      8.1614897405186166
    42   2       2.098850424883933      10.244385104000271       10.16437797949688
    43   3      1.8084530886245271      10.117709581973632      8.1090859715044328
    44   3   0.0094465032415560202      10.371360134733489      10.144082171188858
    45   3      1.6595858492949038      8.1406879128623579      10.100276916742546
    46   4      4.1699514813337855    -0.33436413419458705    0.051172135476149017
    47   2      6.1600033112202839      1.9393947387922483      2.0321214602197917
    48   3      5.9322067766268791      2.0581840773922786    0.062507294923708837
    49   3      4.0609413654037425      2.1427004978491722      2.1773905518642738
    50   3      6.0921938976785039    0.060080965714768224      2.1890988034299927
    51   4      4.2941927057335558    -0.29499895259555053       4.014413696455323
    52   1      6.1389112704726188      1.9539268236630445      6.0410654290537096
    53   3      6.1192979031539103      2.2901998005623807      4.0093952264153501
    54   3      4.0286962000669053      2.0779829309165492       5.955521065244775
    55   3      6.0224953012793199   -0.069696642488900312      6.0517692021331593
    56   4      4.3682020893874451    -0.20794277898800434      7.9109105199191463
    57   2      6.1220908731808263      1.8868085118039706      10.082241429872168
    58   3      6.0113348457759503      2.1088988974319158      8.1073356304526687
    59   3      4.1022826044241434      1.8788802372713009      10.294524609894404
    60   3      6.2557384775406097   -0.003578691999881224      10.099047314030557
    61   4      4.1046252014482238      3.8231172172011529   -0.037602349036787629
    62   2      6.1224669000202256      6.0511528586311298      2.0349302701914991
    63   3      6.0673867891142121      6.3281241048026002    0.089733129112730334
    64   3      4.0339485331715066      6.3393939205828644      2.0562506520347985
    65   3      5.9643831530245199      4.1367609656852276       1.984095022103983
    66   4      4.2551607482458698      3.7661265714627215      4.1520766398632807
    67   2      6.2111032047922041       6.077913884633718      6.1137197312494012
    68   3      5.9048911979590537      6.0886883836361365      4.1065351731173836
    69   3      3.9939003871299592      6.3041676885445215      6.1668445721466094
    70   3      5.9388243981497926      4.1780042302016183      6.1625728829270932
    71   4      4.3530703370210491      3.8659677049006729      8.0912607259094234
    72   1      6.1015493727751986      6.0393145923320217      10.066575787121989
    73   3      5.9787974882322956      6.2571621045696997       8.034615198046378
    74   3      4.0027316846375243      6.4153332537938264      10.062273308492474
    75   3      5.7653027679224378      4.0347976912837353      10.038350542913046
    76   4      4.0584155269514275      7.8634751540590564   -0.011363516286562436
    77   1      6.0520884051141381      10.092405628265523      2.0260532743170478
    78   3      6.0831224518804978      10.234499362232496   -0.029357660327083167
    79   3      3.9964408382492063      10.255652869769524      2.1228683678831133
    80   3      6.0940894126584926      8.1021437323656436      2.3013174271497334
    81   4      4.3182510509998187      8.0511225179302794      3.9019364606182267
    82   2      6.1861592920646462      10.156420122815451       6.077468943337494
    83   3      5.9288862969208243      10.270968073087147      4.1498944296796179
    84   3      3.9599805883779813      10.085140378711708      6.1905910819132384
    85   3      6.0222610219166874      8.1768224564306493      6.0382716094451352
    86   4      4.2649693076736304      7.9442117476307601      8.1203643683634343
    87   2      6.1542741103722607      10.087633328545373      10.184697797933174
    88   3      5.9410739790469433      10.154261466625233      8.1377919746687137
    89   3      3.9877339430129033      9.8876318224210085      10.116987357809416
    90   3      6.1873234627000153      8.1802420005655101      10.219380355103006
    91   4      8.2094600017998793    -0.38370874003794581     0.04385954818776143
    92   1      10.123402532169347      1.9919826700107506      2.0466253212546293
    93   3      10.196154324102203      1.9676255812699597   -0.042417826004783762
    94   3      8.0588674345221278      2.1850958371491411       2.049280682846196
    95   3      10.089111794946577  -0.0063401891304135979      2.2919775415798629
    96   4      8.3489675520782569    -0.28401186600878364      3.8848386791646279
    97   2       10.13938366485387      1.8629685422047626      6.0834008288912047
    98   3      10.108366172173989      2.3237287915228291      4.1055877471550435
    99   3       8.161844363563084      2.3034328880167299      6.0385977317026818
   100   3      10.050853241095798     0.01024427868764944      5.8583297430312111
   101   4      8.3943181457469667    -0.26970096027492424      8.2845322621539825
   102   1      10.146944561904638      1.9743402395000302      10.080312474638815
   103   3      10.020536490165741      1.9596270883175202       8.035460191136762
   104   3      8.0565147273607884      2.3007460220983504        10.0655366071234
   105   3      9.8416861203900652   -0.030736837910559003       10.22493278378286
   106   4      8.4900852207089503        4.07854786662379     0.14075951190777783
   107   1      10.091752516760737      6.0507819093498325       2.055782550623749
   108   3      9.9950611221789263      6.3419564793716576  -0.0075464386668000795
   109   3      8.0394777095912193       6.156315879873806      2.1037989580584484
   110   3      10.171743339211792      4.0684848373302929       1.762828169345021
   111   4      8.1818146173645019      3.7128054587129959      4.0411141330816731
   112   2      10.186354349843505      6.0257230146564567      5.9848891032854459
   113   3      10.240088279472227      6.0284199684474382      4.1175194961643244
   114   3      8.1203935044873958      6.1151127256518496      6.1054931601220046
   115   3      10.175365965909492      4.1611984070838375       6.294942262467166
   116   4      8.1554630203949916      3.6717048071771323      8.0394328358001204
   117   2      10.099911154260257      5.8846803245195574      10.124525774700368
   118   3      10.113793017334348      6.3936535332413271      8.1253808511553327
   119   3      8.1448882520277017      6.0826146687318294      10.113321049896967
   120   3      10.246071601694101      4.0300027977359658      10.005113560583348
   121   4      8.2037305857902094      7.8033628700418056   -0.040304925711345189
   122   1      10.116225808739889      10.161890057862097      1.9595071448640557
   123   3      10.018569840549329       10.00277875668888   -0.066148205255170123
   124   3      8.0898845845533121      10.249192140445539      2.1757466957277547
   125   3      10.143675471715737      8.1447764103504205      2.2386197938521515
   126   4      8.2011877611558628       8.262889248491323      3.5882889712030424
   127   2      10.263431395838129      10.056492453408634      6.1323071493127541
   128   3       10.12695223021487      10.455538388826666      4.1857154720912213
   129   3      8.0665635116756889      10.306553466952192      6.0618729598879746
   130   3      10.039993088810999      8.1550496926268465      5.9572792577560412
   131   4      8.3995714424204238      8.0485162424053609      8.3589435917906147
   132   1       10.09458566176631       10.18495968898527      10.138807881646544
   133   3      9.9193240128006348      10.043966072164684      8.0770013699043695
   134   3      8.0239829636372271      10.418308260352546      10.131569211691497
   135   3      9.9222645525510043      8.1603019060683337      10.320557725557844
   136   4   -0.042533402383331489    -0.10193821080559892       11.81264742624267
   137   2      2.0467736090895108      2.0112463212580405      14.021691930066419
   138   3      1.9367871186464289      2.0751980988094121      12.165238989092961
   139   3    0.083534865808261707      2.0164751319006213      14.431009301344369
   140   3      2.1152718800877865  -0.0067894486238051169      14.252889750694509
   141   4    -0.28045823319805507     0.13920523783576277      16.132854081868622
   142   2      2.0391242185241185      1.9554329985668213      18.166332011666764
   143   3      2.1943440325821424      1.9614944056666628      16.304823108410204
   144   3     0.12995705711157601      2.1429777855646757       18.29309983418943
   145   3      2.0966999648098952    0.014381220357655527      18.454926833549525
   146   4    -0.25973533139345839    -0.13735397776151698      20.186931047245501
   147   2      2.0714914088226828         1.9361126597633      22.263020257796796
   148   3      1.9990390976482304      2.1747690151523127      20.380505026444947
   149   3     0.11453443746907693      2.1064071078262376      22.543795111158442
   150   3       2.155403907751281    0.062902153972737004      22.348782198191614
   151   4   -0.014006430851338717      3.9136598255736246       11.82714004064481
   152   1      2.0364897216467948      6.0081966312502448      14.091369226591731
   153   3      2.0497530990835147      6.2348521603041709      12.074805150552075
   154   3   -0.026732946429030558      5.9895182086238741      14.339296002029281
   155   3       2.030505045954814      3.9614266152469657      14.385830411515759
   156   4    0.061654236800101445      4.0999976478358473      15.856730352876975
   157   2      2.0614462597479646      6.0709554059922892      18.112884525483775
   158   3      1.9605975266011757      6.1189494560223014      16.243068372306478
   159   3    0.071924454281349151      6.0401091687098631      18.442035932343064
   160   3      2.1698214309172688      4.0597870286173503      18.356454053653504
   161   4    -0.08861909814133874      3.9060120205772733       20.00096005795076
   162   2      2.0242640022147946       6.010559084771768      22.249105889750442
   163   3      2.1427039812568638      6.0667164815527377      20.373473552542354
   164   3     0.10979763561500912      6.2580792399637701      22.407193049292985
   165   3      2.0265703627453924      4.1299365379825161      22.519971751240881
   166   4     0.11014319804759366      7.9924536797681514      11.914341966899023
   167   2      2.0995826382438922      10.001111453580128      14.244079380459905
   168   3      1.8834832793964398      10.133942936803612      12.139485277391504
   169   3    0.024610544690996296      10.334790496812738      14.158577941107524
   170   3      1.9078173225203183      8.1138054170513438      14.204350306005239
   171   4    0.044199244404434408      7.8857170357828155      15.854854764387095
   172   1      2.0403735735508399      10.109084539500937      18.174050221136024
   173   3      1.8868799494857589      10.210902008111955      16.147541800964074
   174   3   -0.016789962747289496      10.228538149764052      18.384528915463147
   175   3       1.972235971548264       8.049244843487779      18.429266856528905
   176   4    0.064775323727808545      8.1377307537691408      19.925359819633464
   177   2      1.9918824502505859      10.059637986570662      22.214052420613747
   178   3      2.0446342537070725      10.232277503687261      20.354210937188554
   179   3    0.088792633306030752      10.061977946964955       22.43673924586632
   180   3       2.215493344169301      8.1613647613188824      22.374080800420597
   181   4      3.9284257667806801   -0.070651517625871255      11.757620649868736
   182   1       6.083106640131879      1.9701523717657186      14.116490370181767
   183   3      6.1795899885218892      2.2347236235723269      12.086798219314629
   184   3       4.017106080542387      2.0368543598282418      14.230927792422161
   185   3      6.0635792268863868   -0.068295752626079148      14.288222749749275
   186   4      4.1771659307518894    0.053994802610452378      15.833523687538332
   187   2      6.1444316070746678      2.0766834521161983      18.150486251690662
   188   3      5.9334162858557331      1.9487523941223459      16.287988424356399
   189   3      4.0501461079828287      1.9870393610086672      18.541844998494405
   190   3      5.9855591002127557   0.0070315961439603369      18.441266525956166
   191   4      4.1405578077256848    -0.10680553136392656      20.082514559825125
   192   2      6.1361600671388912      1.9448822506414656      22.258955838162468
   193   3      6.0631407937384463      2.1670955391042761      20.359026886561924
   194   3      4.0551468179910906      2.2618964887469666        22.3624987613548
   195   3      5.9375275595960693    0.068088255480209761      22.283858720774287
   196   4      4.2911767252046635      3.8240403012574395      11.860427714201546
   197   2      6.1159625224757921      6.0253088263175503       14.06493925299911
   198   3      5.9293730016141257      6.0331491676176965      12.136522451556198
   199   3      4.0670820427475087      6.0575263395775441      14.335139085837481
   200   3      6.0574091093649898      4.0681762557298784      14.336426324461128
   201   4      4.0979298072293435      4.0050947061214126      15.806334619852567
   202   1      6.0625522674976855      6.0212249164914544      18.193569750891093
   203   3      6.0916599059637422       6.296087194544902      16.166404722847474
   204   3      4.0088756489307809       6.205504606273383      18.270774965136066
   205   3      5.9061778518423971      3.9811467162512084      18.262598928111533
   206   4      4.1452554847586986      3.9791451008968304      19.963178768304381
   207   2      6.0900341847837796      5.9816105268908677      22.185461375653894
   208   3      5.9663150455847944      6.0388103393824251      20.320508288924721
   209   3       4.064653963831927      6.1227404016157196      22.556564848177246
   210   3      6.0895025704268368      4.0935571862014895      22.475434625386072
   211   4      4.2623457703828764      7.8893272471123206      12.124259276209198
   212   1      6.0779799112902912      10.088684401533133      14.120062294406335
   213   3      5.9604887438094805      10.311741271576293      12.091689706812536
   214   3      3.9768256622520486      10.182855427470182      14.120663896378225
   215   3      5.9308440291177495      8.0519006301405067      14.079655304542632
   216   4      4.2843443488205182      7.8045825970283467      15.959785218754108
   217   2       6.051269260299013      10.131184999976824      18.037054242569056
   218   3      6.0125446195652872      10.149809212386996      16.166978152980356
   219   3      4.0808297193239236      10.100944754763528      18.413098407706745
   220   3      6.0627312406878495       8.186186844277195      18.411890292398166
   221   4      4.0600247598838548      8.0705535659800471      19.846567159202525
   222   2       6.028911852391067      10.005258505744603      22.260523532936087
   223   3      6.0721187117290301       10.32416424367738      20.341919008360826
   224   3      4.0766894159090938      10.335722273421791      22.365178835974536
   225   3      5.9380429897860783      8.1296580243306131      22.275284504900252
   226   4      8.4322209496839324    -0.11100613589537241      12.095525842487479
   227   2      10.206698543128788      2.0445578982325685      14.087706714901033
   228   3      9.9040768152238385      2.0920306158649238       12.17319510983309
   229   3      8.0975784432963298      2.0722664513230216      14.360654138271501
   230   3      9.9261226670790297    0.038661936576204078      14.120907349891906
   231   4      8.2169166776826721    -0.04848685660696659      15.812799950737789
   232   2      10.151707742944833      1.9098267424525148      18.205469483176209
   233   3      10.115556400022868      1.8788747007766351      16.262735626212116
   234   3      8.0610274893558405      2.0554301654920852      18.234378064213605
   235   3      10.042030207047148    0.031977676870850749      18.454976930552924
   236   4      8.3495933850243436    -0.30268826143058797       20.37340454013275
   237   2      10.219438849258443      1.9906767996716699      22.353550038438353
   238   3      9.9764210764693164      2.2896045889762537      20.223583265422619
   239   3       8.051140533763256      1.9819717044915497      22.336432717479735
   240   3      10.149476523204642    0.073237089867826982      22.061439086520597
   241   4      8.0783747073307417      3.7061727646357778      12.037643428901211
   242   1      10.111083655557341      5.9934867369067799      14.148013510287269
   243   3      10.137982182511729      6.0979693013467342      12.079979541106779
   244   3      8.0613990618286984       6.105523942461879      14.206283194238621
   245   3       10.03347526998569      3.9796112652217239      14.379926957811403
   246   4      8.1103884671699582      3.8820718829278142      15.838155368628545
   247   2      10.056595469918321      5.9488698176109791      18.184160308116034
   248   3      10.064703178016259        6.36251263038963      16.224150677185548
   249   3      8.0924948227386704      6.2688269622648107      18.197357274563949
   250   3      9.9957583725602053      4.0337467385480146      18.056820824197235
   251   4      8.3820378092837906      4.0262025656341525      20.422238325178107
   252   1       10.06302025182922      6.0447488088828889      22.238260443777158
   253   3      10.067403149884218      5.8952170353899938      20.188733450457082
   254   3      7.9804082872611009      6.2477208604786485      22.347781924349626
   255   3      9.8582373768402256      4.0094678005574691      22.370432509542709
   256   4      8.2823078716145009      7.8178634900553039      12.021141455543431
   257   2      10.100847082184652      9.9909536035137076      14.212901004657546
   258   3      10.087732777708229      10.525456148888662      12.183170154334411
   259   3       8.122194795766017      10.375369769423775      14.129815054156865
   260   3       10.06445327058872      8.1290162503002872      13.917470787824199
   261   4      8.0559145535674208      7.7250087648621486      16.136183147989275
   262   1      10.069768134323889      10.108553326623786      18.177895045570853
   263   3        10.0417601945281      10.072946058616493      16.150590162064645
   264   3      8.0130795097730871      10.201464489922811      18.372833595042799
   265   3      10.079282779223014      8.0930333282237967      18.527733931987605
   266   4      8.0968473508234169      8.0176130861997539      19.868720657882534
   267   2      10.100882733771813      10.023748676872255      22.254201726650706
   268   3      10.052730176128973      10.486435834133257      20.316775624171985
   269   3      8.0528753354566085      10.228619514538387      22.296095737369665
   270   3      10.156915818714836       8.149366928399699      22.072369297283931
   271   4    -0.36016706983223723      12.187842981133269   0.0053111026251287507
   272   2      1.9169707871995163      14.085971355525748      2.0931249712207589
   273   3      2.0199103754884447       14.40514860695508    0.064830928550273448
   274   3    0.041896146069787608      14.206363579592473      2.1146029522305545
   275   3      2.1551726183933098      12.228288285091589      2.0011908935508163
   276   4    -0.24958635373093827       12.07559710128611      4.2359377170606312
   277   2      1.9838285163105218      14.086908958848808      6.1953939883753568
   278   3      2.2145175434143671      14.249178351808348      4.0204386819046487
   279   3    0.040756906505250566      14.159992640438853      5.8729268405008135
   280   3      2.1206558532198065      12.195754078868578       6.161654006619794
   281   4   -0.024480746639591881      11.841992651929793      8.2576572145731131
   282   1      2.0042070249655075       14.17394646597965      10.108829562351863
   283   3      1.9667933387342129      14.369767565053948      8.0545690881228662
   284   3   -0.061858700927968968      14.180456899471567      10.303473009600644
   285   3      2.1777536660204952      12.122548671262432       10.05642929751941
   286   4    -0.27980056555191113      15.866429228763923    -0.10658767228490365
   287   2      1.9665418594856459      18.109638992075659      1.9696020691424994
   288   3      2.0991241183745255      18.271926358076836      0.0462601817987736
   289   3     0.01057452741181626       18.40329622581832      2.0245752539894033
   290   3      2.0576538661028905      16.248425393588736      2.0987284975293972
   291   4    -0.32564932503516314      15.911938990260149      4.2590844182791674
   292   2      2.0296524978212016      18.158441826037972      5.9498772873611161
   293   3      1.9476913703697918       18.44840793640153      4.0307861003492116
   294   3    0.076286112142158358      18.498881510390632      6.0944941468702254
   295   3      1.8621431604370922      16.271109659219558      5.9393709305340874
   296   4    -0.39488928261912465      16.174102486335318      7.9098015076890391
   297   2      2.0043035346360578      18.190403237893932      9.9461938065142359
   298   3      2.0614579478828503      18.258801934540564      8.0560488260662968
   299   3     0.07240420308518504      18.482819556395992      10.192067743477141
   300   3      1.8463668738203083      16.322580786720071      10.257597272384004
   301   4    -0.26720346449727667      20.199838014566101    -0.15544769858954094
   302   2      1.9924865658025519      22.186664883536565      1.9944247748301962
   303   3      2.0631178656227962      22.496937696010455     0.06249076830335528
   304   3    0.053413236525339254      22.426805818177883       2.099114635037175
   305   3      2.0613260987019553      20.318490336611443      1.9718001934398732
   306   4    -0.20427254326707456      20.004056356997083      4.0833787646039035
   307   2      2.0427404801556479      22.143445455884031      5.9725489311165605
   308   3       2.072350384003427       22.33048498108414      4.0547623170735774
   309   3    0.064802069018997391      22.263168803147284      6.0925842631688019
   310   3      2.1471734145427126       20.28675789096782      6.1537131180870954
   311   4    -0.30812499560739315      20.138945421499759      7.8939060345510406
   312   2      2.0362335952170985      22.261383719524627       9.961855165503918
   313   3      1.9976837458916934      22.417347717480109      8.0725927017112546
   314   3    0.085211892479579832      22.210387529863951      10.273071256467349
   315   3      2.2263339147443184      20.300329222278169      10.171898214821757
   316   4      4.1090983785046413       11.80891429087839      0.1100402108270896
   317   2      6.0337047423129722      14.118412281304622      2.0753806344370749
   318   3      6.2452311838436927      14.365578332239291    0.032647529062375447
   319   3      4.0807423182009135      14.368473251653333      1.8641468038461417
   320   3      6.0212828576751054      12.200769296691451      1.9896812509194055
   321   4      4.2226047132380167      11.946106040222643      4.0098329163276132
   322   1      6.0723105551917369      14.124885421954154      6.0605216259539452
   323   3      5.8124915487404394      14.161298904088712      4.0014871473811819
   324   3      3.9521340952134976      14.455578436799346      6.1234584931808529
   325   3      5.7760987084103652      12.097668067919567      6.1894498359893841
   326   4      4.2809289487708657      12.117587165135362       8.017975754196911
   327   2      6.1214729688966987      14.142791266972187      10.060368043210893
   328   3       5.927744997175366      14.206408918656699      8.1417076228348648
   329   3      4.0554877535801674      14.542005303284331      10.082455989344833
   330   3      5.6950220729554921      12.171580239929146      10.090524589713715
   331   4      3.9103323789051267      15.951966336206965     0.02566579018725542
   332   1      6.0212653359990878      18.156849627768111      2.0606149316722639
   333   3      6.1420246832838838      18.254959747607774   -0.010398106099369937
   334   3      3.9633111654746997      18.383817548532399      2.0695038636654322
   335   3      6.2978793749354027      16.170465045284665      2.0770081562245548
   336   4      4.1307055518573765      15.900626350230629      4.2038534181127876
   337   2      6.1206985631440363      18.084311027142913      6.1105274877382012
   338   3      6.1249816503253562      18.435725885474646      4.1063078521853917
   339   3      4.0139324271766679      18.187722789330991      5.9382215243172274
   340   3      6.0624065352432144      16.222179661968436      5.9692737990294615
   341   4       4.102427480232679      15.886598425864875      8.0935263167575524
   342   1      6.0263881442871856      18.169355617420287      10.058953003865954
   343   3      5.9250943444428987      18.270040771013417       8.032105112615076
   344   3      3.9735168815523862      18.128821312795473      10.279634976885886
   345   3      6.2561313820487223      16.135644304136729      10.260780782168256
   346   4      4.2139338739799603      20.019696167837303     0.30699056472836211
   347   1      6.0907156785274443       22.25841781106244      2.0270729214225347
   348   3      6.1122455874068065       22.52737396995682   -0.010671318943264766
   349   3      3.9916647652385064      22.452046547504128      2.0306517348251858
   350   3      6.0433047633398012       20.25650872325491      1.9309177233587567
   351   4       4.388374362669957       20.07152971002418      3.9050443619927711
   352   2      6.2688178398492118      22.255120456071843      6.0373471089248518
   353   3      5.9454231462580172      22.245625276642311        4.08873325708407
   354   3       3.970990682651697      22.487496492177357      6.0986718175318089
   355   3      5.8679384617677437      20.285018395641867      6.1226607880380381
   356   4      4.4359537453944462      20.233077084293946      8.1374192823373441
   357   1      6.0928893059573612      22.266179617413094      10.072732250135452
   358   3      5.8950044478884189      22.280196137958974      8.0227714472156606
   359   3      4.0095663684347764      22.513062287392493      10.139404812212417
   360   3      5.9365936845930767      20.243469585112319      10.063961617123651
   361   4      8.0310777833050668      11.682168458738238     0.12357002007523005
   362   2       10.12746970011121      14.160472416413219      1.9136128661659897
   363   3      10.021460178023345      14.438641005645247    0.043044715069779041
   364   3      8.1143304104036744      14.151991467156002      2.2387546598544086
   365   3      10.185169494194566      12.221012205364245      2.0412186967660655
   366   4      8.1877163790515493      11.928050469413261      3.8099386629010303
   367   2      9.9105135018762898       14.26652854058586      6.0428486930985574
   368   3      10.295171679422783      13.922293788165051      4.1400377525088912
   369   3      8.0849979925291731      14.032523111344428      5.9790870674293313
   370   3      10.206060137054603      12.191486974885093      6.4254646413066423
   371   4      8.3921411997241222      12.092700857274385      8.1624400666515271
   372   2      10.240968213843965      14.201946694355161      10.221662576380508
   373   3      9.9783597093648684      14.424296010580004      8.0764049011081127
   374   3      8.0316115857310031      13.903382947384058      10.159795222545538
   375   3       10.21522283757492      12.252490855599039      9.7258175401301354
   376   4      7.7713902821302492      16.225689459127398     0.12294980455634026
   377   1       10.15986856781919      18.151204431456929      2.0078831308933558
   378   3      10.345740676326718      18.156382444957085   -0.036570159374493649
   379   3      8.1253457301314693      18.335464590845117      2.0755085155464483
   380   3      10.044625286061599      16.125684745568645      2.4065800872844876
   381   4       8.091621154874181      16.321988818435369      3.7374862538641653
   382   2      10.215173557513506       18.34274682325908      6.0380960654828355
   383   3      10.004021149417184      18.409769408276329      4.1196767612144978
   384   3      8.0601084977085318      18.315237045903668       6.156948799725507
   385   3      10.028758879684691      16.173650992154759      5.8592102687191172
   386   4      8.3188840138168487      16.366123088876538      8.3092146835263865
   387   1      10.170828082104702       18.20104162802458      10.098692537455287
   388   3      10.129231611679883      17.841482619149083      8.0456100966129611
   389   3      8.1078210873163616      18.359868271647546      10.054157401490968
   390   3      9.7519380038662788      16.109383894704884      10.245165886746793
   391   4      7.8278763980830171      19.946895926538573     0.35226512540338845
   392   2      10.161017877739916      22.129541949274369      2.0426404996098682
   393   3      10.190589114271878      22.515165623026558    0.041008808019657624
   394   3      8.1675396763153234      22.320277187902906      1.9869137999103672
   395   3      10.295056951716106      20.237112569514075      1.8832042492912207
   396   4      8.0385929296604015      19.920588457394725      3.8132973427564423
   397   1       10.15483000787591      22.184732042012453      6.0750089966854572
   398   3      10.153805026451987      22.232733678448259      4.0079535983361652
   399   3      8.1229091413595516      22.233892095857033      6.0939541883315265
   400   3      10.227539541455426      20.191005010963369      6.3932549488719461
   401   4        8.09797617283545      20.092559261745699      8.3682929766738869
   402   2      10.159531516044936      22.136329311206396      10.176590982835137
   403   3      10.239111411819881      22.564236604893352      8.1212874247347511
   404   3      8.1642650427713797      22.082908375664278      9.8731899826380491
   405   3      10.334792366600375      20.250334516128863      9.8673917948487233
   406   4    -0.17916279140517921      11.701751846766051       12.16105186973458
   407   2      1.9784533379105604      14.138802341812227      14.033820671508183
   408   3      2.0821399948673767      14.334623598678741      12.187056049800102
   409   3   -0.027888884264984416      14.223740621550281      14.130198423884492
   410   3      2.0103009796435511      12.231659967684754      14.217387756085778
   411   4     0.06048473917976506      11.819728006262149      15.989021205487878
   412   2      2.0403247219435316      14.107165175339182      18.086239615811067
   413   3      1.8997806702177238      14.266439587227076      16.229662174639561
   414   3     0.07760766788058808      14.160996610383842      18.479756886221093
   415   3      2.0680981549268189      12.216698131213725       18.34226354050773
   416   4   -0.085083439048888529      12.104264170379931      19.913400462152278
   417   2      1.9781388499966472      14.068997313298969      22.245871076510245
   418   3      2.1809279264046717      14.224484824873322      20.365014191025487
   419   3    0.086930219352796267      14.321278678886401      22.312411486433646
   420   3      2.0369354365519188      12.193291254879757      22.449972781303298
   421   4   -0.023804785720886002      16.082417388635637      11.858309278035655
   422   2      1.9787114053886101      18.198198418042875      14.055558964815811
   423   3      2.0328062463220724      18.361984230430291      12.191776356354449
   424   3    0.064229741585926078      18.446767053628118      14.274866980721715
   425   3       1.990470682063245      16.281309701838886      14.278399842308378
   426   4    -0.41503390316908628       16.21029341658117      16.335566240410937
   427   2      1.9360234562920382      18.180977044415638      18.181041771579139
   428   3      2.1016404694955542      18.286541104402911      16.308442665155148
   429   3    0.079008997250118965      18.370231966782857      18.300968260902973
   430   3      2.0264810178066002      16.260730095761165      18.412071555273435
   431   4    -0.38057306242708533      15.920637406847815      20.042084548711848
   432   2      1.9293729579070329      18.124422590268889      22.224364804670838
   433   3      2.0771143210984109      18.371711579393022       20.35279174216905
   434   3    0.035593228293136658      18.209189133484553      22.441749747391363
   435   3      2.1829028456015163      16.256780167569531      22.356137827820419
   436   4    -0.19527014260506506      20.286301168732447      11.851215929425734
   437   2       1.985442531537795      22.235604665297483      14.086198392005699
   438   3      2.1263196786390153      22.259638632009679      12.211000967074144
   439   3     0.09193542226784579      22.256635387332587      14.260596405795551
   440   3      2.1623874155755018      20.305335972067102      14.372563766664831
   441   4    -0.28951309155992655      20.113657895188616      16.119895244638098
   442   2      2.0285164602779098      22.233517223329372      18.134551188202732
   443   3      2.1322892860595135      22.365923503149865      16.277567818664966
   444   3      0.1290770096048599      22.265000645475997      18.344306896835104
   445   3      2.2115411666346558      20.297554965994994      18.352781199414501
   446   4    -0.35438391969984118      20.300195265995413      20.196402561218751
   447   2        2.03873231856429      22.149567907567672      22.243878531969834
   448   3      2.1263908597863175       22.28323004791503       20.35388100110109
   449   3     0.13226171474839679      22.441785719899809      22.395676763215111
   450   3      2.0149120426505958      20.273656466503404      22.452958324317667
   451   4      4.3239263928648164      12.115697334151905      12.270262058299238
   452   2      6.2195463308967955      14.259197410885466       14.19715173033789
   453   3      5.8591843764193543      14.117390897766979      12.167560195292362
   454   3      3.9349675849571746      14.285124786490471      14.321023198251309
   455   3      5.8393460007838192      12.237741384695969      14.167663416814333
   456   4       4.358233890582877      12.264902228469769      16.000940374115096
   457   1      6.0780526959519507      14.171479212184948      18.173042840228678
   458   3      5.9684549707619539      14.145157593044418      16.136616209339678
   459   3      3.9812618304777265      14.317435608815952      18.298045668174005
   460   3      5.9349463358565346      12.125310816363285      18.271364837791214
   461   4      4.0888164311407689      11.999357235751193      19.910340411597534
   462   2      6.0373203050317326       14.06886438407466      22.246616081787266
   463   3      5.9399987798502893      14.243271180654199      20.361587738458919
   464   3      4.0907296296555096      14.274101348252007      22.540562721853473
   465   3      6.1466116748051736      12.214713326840485       22.40368627269412
   466   4      4.0965612296546077      16.096142500157232      11.830405190663711
   467   1      6.0546882957220562      18.246682310755428      14.133013354539361
   468   3      6.1887847412675363      18.345754957966939      12.132524696593363
   469   3      3.9833571536142198      18.264278206011831      14.342234781696286
   470   3      5.9862369206616419      16.188347185513347       14.19258018381271
   471   4      4.1413807500171744      16.224067728480527      15.838950656636147
   472   2      6.0780094067351529       18.19071536124061      18.135907519852207
   473   3      6.0367357055238404      18.204185559281505      16.268525048092012
   474   3      4.0860324249545474      18.283933456176133       18.45958504395669
   475   3      6.0688819116718085      16.276099277097128      18.437225024423633
   476   4      4.0826273858156945      15.982268910362786      19.973193579630756
   477   2      5.9306220910837002      18.141531444109585      22.261279997133069
   478   3      6.1340668180518287      18.384636549994212      20.364405676597784
   479   3      4.0496681262890366      18.363614635918257      22.379825192710701
   480   3      6.0756178031289378      16.257089913926301      22.345232445692947
   481   4       4.274635074109475      19.982278955090518      11.810394063177149
   482   2       6.087213735735026      22.280824956315882      13.990675046098488
   483   3       6.113665360528981      22.219505074668728      12.132677230856162
   484   3      4.0822310871361207       22.30721277267396      14.327919495112729
   485   3      6.0488253767352846      20.319119857005813      14.371966035909264
   486   4      4.1272257065475326      20.146383390948372      15.844824031659419
   487   2      6.1310566119512986      22.304389440861407      18.174471437466519
   488   3      6.0159875667157294      22.336093151906766      16.313084354612158
   489   3      4.0752123011339156      22.332623091091545      18.466652142407863
   490   3        6.02972778702288      20.294623120467264      18.373866639603026
   491   4       4.053808932565544      20.187218297166734      20.008088682478775
   492   2      6.1219825327936501      22.148350254174826      22.313949171680633
   493   3      6.0328573394409668      22.311461155901142      20.370717642680233
   494   3       4.074777142916262      22.344171355649436      22.464036591275754
   495   3      6.1588777011720275      20.268473980845908      22.451136897843387
   496   4      8.2425427386963968      12.002401364435045      12.271806526299121
   497   1      10.126033757125352       14.23545774118743      14.113995663555905
   498   3      10.176895064046773      13.835253892222314      12.087991998474253
   499   3      8.0802609960480165      14.116552994193103      14.148402327853196
   500   3       10.14193209845517      12.187541600960559      14.414317235437775
   501   4      8.3220979035218932       11.99913037109339      15.916543572177771
   502   2      10.038237060515081       14.15899788325507      18.087243717871548
   503   3      10.069508286072484      14.415711212445048       16.23341146332449
   504   3      8.1407243148517416      14.213836574261164      18.427499336930719
   505   3       10.18660830177202      12.233383422276029      18.170275412228381
   506   4      8.0400998485282837      11.926290990578007      19.998322581658243
   507   2      10.022948462322175      14.136539183751299      22.202071302015259
   508   3      10.276870815975556      14.046889023960249      20.323442095215139
   509   3      8.0943477581966548      14.378815200711802      22.232722131346335
   510   3      10.038370947144633      12.251011049296419      22.529671110923363
   511   4      7.9348915919517085      16.546010126913785      11.920791284525084
   512   2      10.136575130423985      18.265941151715673      14.008214824038243
   513   3      10.101573213965649      18.353346383682617      12.127370803940867
   514   3      8.1373911205159164      18.280449102242759      14.324065700099183
   515   3      10.113672943033029      16.272247745123209      14.144082149009751
   516   4      8.3406357862166107       16.45686476070609       15.92698319642504
   517   1      10.128968605485035      18.192946877730744       18.20995205263246
   518   3      10.131349917919692      17.954218420051344      16.217607058367349
   519   3      8.0325674554115025       18.23726662818769      18.394187482321094
   520   3      10.117689164293466       16.14524331203279      18.565313026959881
   521   4      8.0598129996455619      16.147348987764698      19.930203418204663
   522   2      9.9967062927988781      18.162979537605192      22.362372023887364
   523   3      10.132078746928878      18.420224138544906      20.334329640906059
   524   3      8.1044293241435277      18.238721638929317       22.37481239165945
   525   3      10.285328387101531      16.225287694462121      22.145333085527469
   526   4      7.7836636903749863      20.001749304439937      11.814210330594978
   527   1      10.129123854409327      22.250515864980628      14.128559350280392
   528   3      10.000729524438714      22.251556620997782      12.093671106887623
   529   3      8.0287418254500231      22.242660315893037      14.367447233375495
   530   3      10.134626314193394      20.221715923572997       14.45932660237338
   531   4      8.1618142232144404      20.272000636143829       15.82128653931437
   532   2      10.227973130857517      22.164026589218832      18.205016700179971
   533   3      10.064297232515537      22.469367076504955      16.300340906057716
   534   3      8.0488987408160089      22.317552798836676       18.35695373467864
   535   3      10.045871445994866      20.268116457512644      18.231266662936925
   536   4      8.2327245841695635      20.029200595086724      20.043550371610987
   537   1      10.118907843830653      22.194284151033983      22.298314474698678
   538   3      10.031492033341577      22.227312084908203      20.236705504820719
   539   3      8.0510879369428334      22.501618135300429      22.345597849568865
   540   3      10.322501170272488      20.176607758564284      22.378004866357539
   541   4        12.1311387533614    -0.33609745812378466    0.042433983420003776
   542   2      14.189839126218722      1.8851604415201944      1.9851317860019495
   543   3      14.204582385038542      2.0569874896955032    0.037498031765305098
   544   3       12.21193181644697       2.174330053589173      2.0702391034099437
   545   3      14.221699951732299    0.025588096124550971       2.179240604172076
   546   4       11.98071277206129    -0.27378973288799807      3.8703821310251527
   547   1      14.162276772259599      1.9818683172808942      6.0160127649872646
   548   3      14.211063333898721      2.3122653172007137      3.9880619061622804
   549   3      12.089918990023495      2.1738912278578781      6.0414171846089131
   550   3      14.470030832317839   -0.025022494932617594      5.9427728604754488
   551   4      12.151341050498795    -0.33344930178668264      8.0559681367663245
   552   2      14.208389246960609      2.0159124325685176      9.9904352931035927
   553   3      14.144706410684147      1.9223504031993284      8.0940984987222073
   554   3      12.189404810592245      1.8755060038301743      10.337964578163787
   555   3      14.258283456685177    0.047319524346041343      10.424146230147814
   556   4      11.947171376965759      3.8675626499136664     0.29580700168729251
   557   2      14.099616149392007      6.0940234715892627       1.920416356500511
   558   3      14.269796525060542      6.2996447277408816     0.01657909380565268
   559   3      12.186193408798566       6.268882284972598      1.9677377154893254
   560   3      14.120327409226869      4.1743491902050707      1.8585994298098352
   561   4        12.1293862868941      3.6800587824416597      3.9849746914839619
   562   2      14.252912971409119      6.1065933742339986       5.976872185529583
   563   3      14.133221840305437      5.9882235960517978      4.0483714640127753
   564   3      12.131851745779917      6.2315942684827288      6.2326385770852646
   565   3      14.070186222406585      4.1425597812768604      6.3586001047481426
   566   4      12.303340777956208      3.8268177559447869      7.9023643238022752
   567   1      14.166991468663511       6.050426544383873      10.137482939838353
   568   3       14.12957871312023      6.3778474270209307      8.0758734956324876
   569   3      12.077873513830797      6.3377233820868772      10.106947989278975
   570   3      13.964688936847768      3.9972469343078609      10.013880221377073
   571   4      11.689943941984351      7.8851119619577412    0.055729463567964009
   572   2      14.023419952973519      10.172004258453745      1.9893608319122758
   573   3      14.227578630366326      9.9646221206696346    0.065776223533424605
   574   3      12.151262688109629      10.108067623068113       2.146964548700256
   575   3      14.237050420088803      8.1147315921665228      2.2771374502465593
   576   4      11.884423934581175      8.0495071937193483      3.7469517254455118
   577   1       14.14577880482766      10.143609996090959      6.0688795685640935
   578   3      14.376301912499935      10.213013971305006      4.0079286858462391
   579   3      12.129608869271046      10.187202010098558      6.2012881647225342
   580   3       14.37846068360771      8.0889503500866571      5.9696357366991339
   581   4      12.222928044332779      7.7858198083828691      8.1802867476838479
   582   2      13.994933440427516       10.10371123410774      10.136745032945127
   583   3      14.328805368157617      10.012057812809086      8.1729112807627367
   584   3      12.129118061062377      10.142709765451016      10.195562334140821
   585   3      14.301411816518018      8.1598003431757586      10.297859898223718
   586   4      16.094080754027047    -0.28942515908391026   -0.018527382726057508
   587   1      18.172541128758716      2.0567065004806695       2.002367874055472
   588   3       18.44775913105601      2.0441040037642773   -0.049975033878408973
   589   3      16.144895940842488       2.249567968096152      2.0345572172445356
   590   3      18.383656124710143    0.015048120742589087      2.0665897451670543
   591   4      15.977357876668501    -0.16019481009251824      4.1376123970957801
   592   2      18.216823392094156      1.9459077414913597      6.1588215920257854
   593   3      18.197550871151407      2.2349810644878931       4.059873357936949
   594   3      16.232561484389908      2.3323534841988618      6.0591961077623742
   595   3      18.008001316428896    0.045453542914519481      5.8779099972327353
   596   4      15.989962103551122    -0.28882045614101248      7.8462938431189651
   597   1      18.187178312120523      2.0256193619747034      10.114520950158349
   598   3      18.350065506020517      2.0239071107341822      8.0842626731247176
   599   3      16.147649326018694      2.1333571164260063      10.273998732689757
   600   3      18.132775882713076   0.0067372634014199254      10.407871267795505
   601   4      15.904753822075566      3.8205215905077816   -0.074174303373904418
   602   2      18.077772418169392      6.0921607954911652      2.0197853912314776
   603   3      18.361568380162662      6.1658713002355565     0.02738206049706007
   604   3      16.197548990094337      6.1078164714960286      2.1045505105922651
   605   3       18.41613293264458      4.1602900591001921      1.9409596298350302
   606   4      16.169990332549553      3.6975270473989155      3.9994560202386267
   607   1      18.191000704985527      6.0682428929965804      6.0435096277627256
   608   3      18.456046025842756      6.0269020984016883      3.9908521520579701
   609   3      16.162349265984076      5.9106126743604737      6.1838605030408758
   610   3      18.439838497513907      4.0482103727374534      6.1792858072912367
   611   4      16.080084566829719      4.0266166205583183      7.7451576741574026
   612   2      18.076637640402865      6.0617237756510383      10.058751921582573
   613   3      18.410448409219459      6.1123902784406887       8.149040878306149
   614   3      16.234033760594265      5.9764703831211934      10.121312099725793
   615   3      18.509882279826797      4.1222075739648369       10.08160609106454
   616   4      16.033838466652185       8.422111719749358    -0.28769674516309413
   617   2      18.150725226513021      10.216368731488004      1.9629909134002022
   618   3      18.290883605417051      9.8806908240421087    0.081802301810916342
   619   3      16.255060818272231       10.01293407078977      2.0449385243505009
   620   3      18.359584327336631      8.0734676029923236      2.1712998675830781
   621   4      15.888411865380142      8.3367096715174576      4.0213489437340781
   622   2      18.135513355201958      10.059808018106986      6.0175446078978618
   623   3      18.300133432750727      10.107700957873282      4.0775789695127438
   624   3      16.279859176119835      10.176404715481748      6.1298951380526301
   625   3      18.312512956610451      8.1315660104779024      6.0741338465402546
   626   4      15.806599898595008      8.0948078209026733      8.0870929763803616
   627   2      18.179105665617222      10.171957526693816      10.146690210406925
   628   3      18.436802225680669      10.016111929471224      8.0819130618028279
   629   3      16.276691512488622      10.108176048104554        10.1109582319275
   630   3      18.341894737162743      8.0415490339207985      10.180084733723588
   631   4      19.889382533944929   0.0041614893361913638    0.088592255105847464
   632   2      22.216796690407676      1.9880233750179106      2.0606829739518311
   633   3      22.363396470064373      2.2207994261568653    0.053962219961205565
   634   3      20.338146632135807      2.0650931637401357      2.1128299319505857
   635   3      22.404971634547611    0.070484343400801175       2.001841223245203
   636   4        19.8861178253247     0.14586341984168472      4.0704333592066613
   637   1      22.215239267904646      2.0090690801589348      6.0478164825103047
   638   3      22.545454022410937      2.0238591694448895      3.9855519132220811
   639   3      20.180563169250451      1.8719677702154149       5.891491164366137
   640   3      22.577497390453022  -0.0063548729921970269      6.0517854566427136
   641   4      20.104092685249316    -0.24791982196514428      8.1971602369235015
   642   2      22.249380771590523      1.9938165599700526      9.9940427136413899
   643   3      22.289704310935551      2.0768065350221416      8.1151682775491647
   644   3      20.337018695319816      1.9296288240672421      10.350007181569124
   645   3      22.537490568651716    0.082292753977431618      10.169909251630294
   646   4      19.930759229444956      3.9431937419105365    0.036613054315903358
   647   2      22.236335378292033      6.0186534440993515      1.9748606998995857
   648   3      22.498853912329825      6.1208925837327408    0.069660202606403807
   649   3      20.365182442070576      6.2025866221214114      2.0193963346859434
   650   3      22.352387066654824      4.1149530147689433      2.1116986308196579
   651   4      19.857078024086665      3.9556850656018621      4.1185362803872199
   652   2      22.266673953958716      5.9551994538951316       6.016861966026843
   653   3      22.349545153175068      6.2609087137392914      4.0635940731402256
   654   3      20.380982341026492       6.281653563964376      6.1472602701982462
   655   3      22.220397795317275      4.0929193869972993      5.9783988450096963
   656   4      19.913894882496532       4.016757201919094      8.0092708564573307
   657   2      22.258754535315131      6.0781418860646577      9.9987489297516579
   658   3      22.386700437815392      6.0575358346985988       8.093283841815845
   659   3      20.356097263310648      6.1892961477211097      10.185539791872316
   660   3      22.222909637336091      4.0568323165970908      10.285675090300629
   661   4      19.972185418677164      8.1497840320284762    -0.14416245953828358
   662   2       22.19526697490268      10.087897986095678      2.0458864525775073
   663   3      22.438603016994993      10.133915906612973     0.07527110656052996
   664   3      20.303037201297446      10.003682939531521      2.0689373964547562
   665   3      22.532260481222924         8.1228974060037      2.0562442058472454
   666   4      19.960085173669125      7.9132552821207227      4.0562374251321041
   667   2      22.236131151142384      10.061776023079918      6.1472668836223896
   668   3      22.446178393985296      10.118459935879978      4.0451860723481925
   669   3       20.32451567938455      10.035384809518913      6.0809523136815162
   670   3      22.524268498584981      8.1516386354490855      6.0941707042763422
   671   4      19.961458004981427      7.9881331681883845      7.9697060072478108
   672   1      22.313084311237269      10.034439355090671      10.127246733942089
   673   3      22.362224227505589      10.284162622437361      8.0644390041349006
   674   3      20.282805497590001      10.017912770961873      10.127060877128031
   675   3      22.508872481684598      7.9937606743360332      10.237019135532281
   676   4        12.2677832437953  -0.0069122413373042422      11.810028517631757
   677   1      14.144192124356289      2.0047220380076993      14.175277248191087
   678   3      14.198909246422046      2.3423698759760181      12.167283853760038
   679   3      12.098219366076792      2.0176646022459015      14.132387483149397
   680   3      14.249111178020511   -0.044950684839733752      14.081786941338535
   681   4      12.246997351600339    -0.30329699462644744      16.066201351478988
   682   2      14.276772218666629      1.9460374021228628      18.193411525791387
   683   3      13.995156519370218      1.8123471743802744       16.25746053183256
   684   3      12.069766435444945      2.1441930170388064      18.353705998110311
   685   3      14.169294174665316    0.068040704020989815      18.560120023640511
   686   4      12.239741688920709    -0.22315342140894062      20.485198129817771
   687   1      14.126378099917655         2.0338745388396      22.262930291002966
   688   3      14.161429511575731      2.4640152733215128      20.176087436671178
   689   3      12.097572919242706      2.1713023784851311      22.076433095418455
   690   3      14.140634764430917      0.0127251916258782      21.962599748349334
   691   4      12.380572373040362      3.8015090583779276      11.925805983532523
   692   2      14.018709057964161      6.0667620876910533      14.109809926564134
   693   3      14.142272930857152       5.805481144847179      12.205178329582917
   694   3      12.131070244294703      6.2157742022562621      14.232344768344525
   695   3       14.12507095690404      4.1066718400093807      14.543663914676396
   696   4      12.365132314598904       3.860122449351711      16.194776837267639
   697   1       14.15556557940995      6.0807539920431761      18.197530200377301
   698   3      14.173781396391455      6.3580018189013625      16.143369400943364
   699   3        12.0489651143576      6.2183495819446639      18.168496817211718
   700   3      14.085725008621102      4.0349156649758218      17.868745412852714
   701   4      12.228481865512599      3.8497510366626555      20.235360632546413
   702   2         13.976418242683      6.0670409802670244      22.209155114000954
   703   3      14.158843972176907      5.7820000574877195      20.295032285583371
   704   3      12.122171254921897      6.0756069855583235      22.367517288405438
   705   3      14.353191960069973      4.1440044572836197      22.465139762929326
   706   4      11.879831417909692      7.8807947702325727       11.93641486441788
   707   1       14.10625261613489      10.132665203017174      14.122846157449455
   708   3      14.364837592553849      10.265461963217515      12.095367108551065
   709   3      12.075132017559012      10.305901684490138       14.12393391224369
   710   3      14.358628232392872      8.0473336233481145      13.990479022977997
   711   4      12.078861070590747      7.7326471957548399      16.217363130713256
   712   2      14.027600753227885      9.9754120161705604      18.200695147307574
   713   3      14.202020335285685      9.9697506713030659      16.257657574751654
   714   3       12.13843376498356      10.135905575862596       18.38371054045534
   715   3       14.14082944308695      8.1106137910610165      18.447207422863283
   716   4      11.879419542602834      7.8893136477676338      19.999822947420242
   717   1      14.054089073677705      10.068323471840554       22.26866843589184
   718   3      14.316501753389726      10.279569854255563      20.191350644194319
   719   3      12.039255750076101      10.374434593584112      22.240838245899294
   720   3      14.256572387254201      8.0213551444893696      22.105055673173922
   721   4      16.195317445047284   -0.011577503081875454       11.82174454373626
   722   2      18.068942540002848      1.9463671473540785      14.173005973743294
   723   3      18.217424307796417      2.2941059520366562      12.239194188127787
   724   3       16.20505960106982      2.1966764046068228       14.29700187078781
   725   3      18.158659208046135    0.066065625232986189      14.075229805353624
   726   4      15.916624107736908    -0.21145399470107817      15.984975097767679
   727   1      18.158472827916398      2.0728044778176717      18.200899924434726
   728   3      18.508889585173502      2.0517914749679287      16.144646880654019
   729   3       16.15149457681844      2.1634673703713316      18.155145371887414
   730   3      18.368003865215165  -0.0030489813983902944      18.284489437433962
   731   4      15.901663726274975    -0.19537696543170979      20.373911991000803
   732   2      18.105061790445379      2.0145493809729289      22.250232456644806
   733   3      18.349754329193832      2.1515356234908145      20.316245579413884
   734   3       16.23149903465497      2.1050152753131965      22.302951725504823
   735   3      18.339475079743366    0.099889971966505911      22.269493608883941
   736   4      16.024389536148377      3.7991072307887741      12.065644978300393
   737   2      18.146419143483811      6.0533140038360642      14.062985430475619
   738   3      18.352496394612693      5.9823692360638745      12.157730280859969
   739   3      16.255072709620809      5.9748482357424892      14.232548827571952
   740   3      18.424964808392211      4.0856696884967079      14.331220182753533
   741   4       15.89506859792988       4.097871326053629      16.215144061137714
   742   2      18.087782110868243      6.1107905499762794      18.162027699403311
   743   3      18.358506702842725      6.0573465270358513      16.238491249134807
   744   3      16.240813772035267      5.9523017614314222      18.255392674664193
   745   3      18.485917522519355      4.1305924794587385      18.191515650812175
   746   4      15.893691952701271       4.044298270949291       20.24680671995101
   747   2      18.137886649603985      6.0725899338717371      22.201154587121238
   748   3      18.376480318623742      5.9912553106065705      20.278088346903445
   749   3      16.265897775046188      6.1153182988249455      22.254986283993148
   750   3      18.317089267774534      4.0817814745444707      22.444199646251562
   751   4      15.924417351166989      8.4168583365207663      12.231551985519104
   752   1      18.201481697457716      10.067319747792958      14.112594777887722
   753   3      18.374117367343917      10.056387457556378       12.08393231995653
   754   3      16.207955828458232      10.071664562627433      14.326807526812027
   755   3       18.30282323229261      7.9783565727203198      14.248316874976144
   756   4      15.948892197392325      8.2538723864409587      15.882760474017488
   757   2      18.109108824231171      10.233864683491605      18.264387117557821
   758   3      18.424207760219172      10.027033516548476      16.304789292252259
   759   3      16.213393212118035      10.123260482110535      18.175067259573986
   760   3      18.349371421626337      8.0402445241885001      18.301003168959504
   761   4      15.984042010545602      8.3927330699707063      20.459718483541931
   762   1       18.24643544976356      10.138171655744626      22.267862223454721
   763   3      18.292265414879132      9.9640921022639528      20.203624062966309
   764   3      16.205165056508381      9.9616021462604767      22.226309713952105
   765   3      18.436046795188428      7.9967981177332712      22.273294491297818
   766   4      19.994600469308068    -0.13420097044360102      11.896257351871185
   767   2      22.210270597533661       2.048560627478508      14.131127532756727
   768   3      22.545043417174448      2.0580496650900062      12.214467364081882
   769   3      20.325648691175857      1.9748696880758607      14.091168784562836
   770   3      22.495901700711503  -0.0070444008464018533      14.208567457826293
   771   4      20.177846809765256     0.40923007235932429       16.44364431322121
   772   1      22.350085664576469      2.0453427074456356       18.21297399791732
   773   3      22.271182006626233      1.8427707350716422      16.163574407078315
   774   3      20.326101329301416      1.9342318481812104      18.364142761516501
   775   3      22.502519533687259   -0.031769775200754351      18.314718415314797
   776   4      20.044467296354554     0.23922613910855287      19.989063249134876
   777   2      22.245220357966307      1.9887291820101225      22.267285543250605
   778   3      22.538263260029808      2.0650718316210832      20.374147650215118
   779   3      20.361679515803647      2.1676870215733111      22.256879263156979
   780   3      22.420149716527931    0.099562810481633957      22.400049823939256
   781   4      20.022884123799606      3.8738186388040683      11.929249635614136
   782   2      22.247400172330998       6.098529767741435      14.049411938147928
   783   3      22.351150242017621      6.0298346490401675      12.179615937243373
   784   3      20.327290683036303       6.057379733167001       14.29087944159253
   785   3      22.391349462158839      4.0000659437066348      14.309571342853852
   786   4      19.957302474712471      4.0262816012322071      16.191087147412574
   787   2      22.229678737546966      6.0298824000951248      18.153553179919889
   788   3      22.424542228204214      6.0343607818488039      16.279386663765536
   789   3      20.358541713339886      6.1398327770643624      18.318349636078651
   790   3      22.363096412303666      4.1212765549914083      18.426091814383533
   791   4      20.102067867705383      3.8386571149193198      19.902692810770457
   792   2      22.233966162948978      6.0511613737265781      22.200463824924185
   793   3      22.398402213718171      6.1829520405401235      20.332633603572397
   794   3      20.363408186865925      6.0256950466706893      22.402240774750538
   795   3       22.54358229092179      4.1289584261141794      22.353581459583935
   796   4      20.261992915612481      8.2746609935895492      11.863332710070688
   797   1      22.297190106946424      10.020624899505219      14.149768215531505
   798   3      22.245537041052742      10.238925766129986      12.151680723814893
   799   3      20.262553790251214      10.149440551727785      14.272441776116688
   800   3      22.397896104474714      7.9996987725219455      14.301919770540222
   801   4      20.035817089291051      8.2451073851622194      15.873993143308743
   802   2      22.292948536047412      10.070906778400854      18.106713283518378
   803   3      22.364655379815751      10.192089521258014      16.230349710841224
   804   3      20.348634925673561      9.9991957696109051      18.328358740160215
   805   3      22.511958540517007      8.0883110915800494      18.312037023896682
   806   4      19.977940421717893      8.2655855607784865      20.145536392493419
   807   2      22.182250138647149       10.14064529208291      22.219404579492014
   808   3      22.369157627148063      10.018523994568277      20.337154937903922
   809   3       20.31907895424991       10.05460069028924      22.379167688752077
   810   3      22.380551184675912      8.0923997765692448      22.505214376693189
   811   4      12.275525210428226      12.149197407211911    -0.43458328842379557
   812   1      14.158282323120631      14.164957330003112      2.0461116555727901
   813   3      14.309192324544361      14.290223471006657    0.018436303707099883
   814   3      12.092234759991795      14.329006021120593      2.0158922567878084
   815   3      14.280219271512703      12.086967312476746      1.9454345209194148
   816   4      11.898291881395687      12.127968015430417      3.8978656862216132
   817   2      14.024638645544787      14.221096522471775      6.1129457979817303
   818   3       14.21459735896873      14.011874769738668      4.1111420722384677
   819   3      12.143904021739862       14.15226342746157      6.2735624552611116
   820   3      14.305001490600683      12.199753828303168      6.2219066089429074
   821   4       12.00528216379702      12.163494830434145      8.0112625873845644
   822   1      14.145435834887694      14.191278042786365      10.094550177278279
   823   3      14.450263825152271      14.252263567980689      8.0477686863666822
   824   3      12.116086586350086      14.416169857600579      10.046696555568417
   825   3      14.305941362805912      12.101349690543429      10.017552526680152
   826   4      12.334951802050677      15.827410256472248     -0.1297209393343059
   827   2      14.211996645459143      18.202686229382241      1.9423098527955036
   828   3      14.109539350982237      18.120649575619627  -0.0015430203510189073
   829   3      12.191423504398729      18.101988938600481      2.2837668224452603
   830   3      14.258111295963122      16.234646616432354      2.2441960603744247
   831   4      12.078051205732605       16.18495855330778       3.747309832923944
   832   1      14.195824922887653      18.156767988846152      6.0531927432116541
   833   3      14.295216407695703      18.412369864301688      4.0238748250868488
   834   3      12.115880166094586      18.111773885871202      6.0852441769996366
   835   3       14.32325905975957      16.121985667248325      5.8854546043823106
   836   4      12.110734131202763      16.434587639280764      8.1098242488295753
   837   2       14.27691813807275       18.25085137694537      9.9761945156417564
   838   3      14.102963840687282      18.078578117288647      8.0943083080826987
   839   3      12.183484386743004      17.922534465443665      10.123677195323419
   840   3      14.330102502764701      16.264817147518059      10.368052619016323
   841   4       11.92174342953191      20.025748399977395   -0.079884443943813471
   842   1        14.1663022407371      22.193703173242277      1.9849286317617056
   843   3      14.159021098905001      22.596350868150292    -0.05350971504414069
   844   3      12.133548550066651      22.491497574702734      2.0088495109675941
   845   3      13.949789670323792      20.182088831445757      1.9630208362848454
   846   4      12.372061072875713      19.957293002055131       3.814722241629612
   847   2      14.107128767932135      22.197495252029274      5.9666144142655231
   848   3      14.257748321858653      22.235394992670848      4.0519394711459009
   849   3      12.190683997006325      22.460711466204451      6.0743752549301657
   850   3      14.082477319678713      20.276661232252994      6.2777229991829069
   851   4      12.269575669841629      20.230815029003846      8.0215832468539823
   852   1      14.173015827253419       22.24325112433965       10.07604200370605
   853   3      14.091991872703353       22.53188239796841      8.0617628784426341
   854   3      12.112242222131451      22.547304239760798      10.137847992161646
   855   3      13.840658246704605      20.204091121796569      9.9960758865635775
   856   4      15.821985319532985      12.320524552840039   -0.095937074191968313
   857   2      18.191899032465969      14.327535354393305       2.077895094026418
   858   3      18.071173638129114      14.253931759034534    0.043837695377099327
   859   3      16.266481043077285      14.111941229145845      2.1896933827469627
   860   3       18.33818424584161      12.085787703275518      1.9441659566948077
   861   4      15.793083270937789      12.224373487254706       4.054961451038289
   862   2      18.212271179047104      14.021781473738029      6.0890907152889104
   863   3      18.496135823993253       14.05159403403033      4.0482478514155629
   864   3      16.295989574685752      14.110335442855309      5.9180523577059603
   865   3      18.433562272978829      12.120359538472103      6.1879369620360887
   866   4      15.803420291463206      12.120895929175919      8.0936998738927723
   867   1       18.26141093152286      14.082872566600367      10.141046449165312
   868   3      18.209147447404408       14.37205406740425      8.0293913659222191
   869   3      16.224214340392685      14.196614772335968      10.240739803031614
   870   3      18.398336646357297      12.066414037807107      9.9973860121236768
   871   4      16.058316010490429      15.819019265673356   -0.092380117392281108
   872   1      18.244533310224398      18.174265001842965      2.0326480854736122
   873   3      18.302694862496782      18.418226473391641   -0.059414891395808245
   874   3       16.18496409183247      18.428459055012997      1.9786652732566776
   875   3      18.243481727344726       16.17937292513405      2.1211075536683457
   876   4      15.881272720998821      16.057036896354379      4.0486138751323626
   877   2      18.198685252491668      18.075574338970547      6.0740544973611286
   878   3      18.167905941816748      18.536516299796396      4.0742718492590484
   879   3      16.251514063836666      18.468500005634944      6.0523912457267768
   880   3      18.155172968792272      16.179908800149963      5.8928672196453711
   881   4      16.313412967342799       15.84087092011276      8.3914913583347737
   882   1      18.206382595587094      18.231405405700855      10.089026801283868
   883   3      18.323025049892177      18.199318192702297      8.0309247638905052
   884   3      16.169730786245808      18.450528887682335      10.209668711828401
   885   3      18.122649059161581      16.221131729184258      10.273104270908874
   886   4      16.401321041283861      20.001133386547259     0.10567388017482029
   887   2      18.103545984318544      22.301803914037848      2.1275024849398299
   888   3      18.222653570605694      22.563022024778778   -0.024193100364059184
   889   3      16.217669412412874      22.353709841965156       1.899782125576031
   890   3      18.308946629637308       20.39253209346834      1.8085544770236026
   891   4      16.180348548409633      19.895204536429489      4.0182657739624332
   892   1      18.194790591580105      22.283755549235924      6.0601812556091925
   893   3      18.253847564217949      22.249082287128459      4.0099853872037645
   894   3      16.158281144289028      22.187061678993757      6.2493504478454343
   895   3        18.3235880959128      20.266292411160094      6.2879739989834027
   896   4       16.27549727109345      20.212954241048138      7.6851220509224607
   897   2       18.12468566901407      22.222561744284192      10.087119556437633
   898   3      18.276285990482798       22.52354597136106      8.1393282836043248
   899   3      16.211184940868318      22.263610086857582      10.178778143303216
   900   3      18.453005700040674      20.309768654408085      9.9934291310748495
   901   4      20.331327585047973      12.406435240362395    0.076689077692566943
   902   1      22.253865750815699      14.157584091715593      2.0405776891751808
   903   3      22.414687016372639       14.14000350918178    0.011124793329448534
   904   3      20.200547312168609      14.120605934483708      1.7269371329876209
   905   3      22.235197435059021      12.079805008119767      2.0417878636306601
   906   4      20.526261407074418      12.391106138695084      4.0973340966846648
   907   1      22.259392784375706      14.112925170789337       6.151819897738072
   908   3       22.08964608401336      14.245835247807344        4.04352491436285
   909   3      20.212917538501415      14.376775807463279      6.1567378400311288
   910   3      22.201432001390252      12.105529329334551      5.8806992992530933
   911   4       20.25189097720817       11.82813070958812      8.3220716637346719
   912   2      22.319709492609459      14.082147523583224      10.118072879152821
   913   3      22.340599014539475      14.373636340608718      8.1805788001850459
   914   3      20.310111207465916      14.483624164674737      10.054463907281026
   915   3      22.099997786025384      12.213807419711951       10.09220372856662
   916   4      20.355558754795585      15.860769368274802   -0.037060974831470306
   917   2      22.211527941051148      18.127945813929689      2.0447470980899585
   918   3      22.296986692870728      18.451696779769431     0.05672104476379989
   919   3      20.312703061452684      18.451810586071392      2.0395500655019787
   920   3      22.279345160267336      16.256449479567564      1.9604975900149644
   921   4       20.51090927727531          15.98498106127      4.4065897533542939
   922   1      22.232004793142565       18.24478637253819      6.0564302684046574
   923   3      22.370651894059744      18.362871826990066      3.9871569472181658
   924   3      20.197772316908733      18.290155292068345      5.9269691495942007
   925   3      22.430713969169755       16.23019096713924      6.0059330520047816
   926   4      20.119824164451888      15.896806613633377      8.1675408766360249
   927   2      22.144320089052616      18.301678690203687      10.084995341974425
   928   3      22.414664294420231      18.263198192750668      8.1456895361300052
   929   3       20.28779135382246      18.137915728706307      10.169799027678177
   930   3       22.52496587717286       16.32499256229541      10.184442069186758
   931   4      20.063679283849197      20.027708765182563     0.11822431008168248
   932   2      22.201067794153456      22.235687311089023      1.9910118271177635
   933   3      22.477308349151652      22.323541180081399    0.080671119849433495
   934   3      20.309802068935142      22.382114626030091      1.9749075753762142
   935   3      22.378863946457635      20.351858983535983      2.0901933477163128
   936   4        20.0227837396497      19.961464084208888      4.1477332384057695
   937   2      22.119509481621147      22.306981386482391      6.0617725273228098
   938   3      22.379119884866281      22.433228638296299      4.0486941115626465
   939   3       20.25346444220731      22.516761914311896       6.109900708123897
   940   3      22.293777029838665       20.36055093139289      6.0894908685834475
   941   4      19.924887130105283      20.070741376233595      7.9743788163019689
   942   1      22.238353635929059      22.275071942755009      10.093608898754082
   943   3      22.376032003336711      22.428287031834323      8.0325380931125476
   944   3      20.227641652005079      22.614956364983374      10.081258516855893
   945   3      22.303352792794286      20.245245791177414      10.151131929361883
   946   4      11.925562740344159      11.993388191649711       12.27649244969472
   947   2      14.058985362901408      14.250028883456237      14.113895699978224
   948   3      14.181860157613745       13.97437671734315      12.206227197019695
   949   3      12.169051416036641      14.115714608738683      14.313280433997424
   950   3       14.20327254541183      12.209539114941045      14.435451956169111
   951   4      12.066477808844823      12.068789540958333      15.845386662007254
   952   2       14.14224183884915      14.033132194049685       18.20870596297388
   953   3      14.279114212741266       14.39037745400041      16.235136528548523
   954   3      12.179622949221255      14.313202200402406      18.272138959228705
   955   3      14.167331862583804      12.146642329466628      18.085227223027129
   956   4      11.934205996662591      11.912645373978384      20.088293627758418
   957   1      14.136202181403942      14.166613299913783       22.20235930120468
   958   3      14.306938536813501      14.106567581112742      20.177430648513766
   959   3      12.075697961610985      14.134175601783227      22.543464105273745
   960   3      14.283484693510372      12.137967790084529      22.430633530639149
   961   4      12.476603269667525      16.409799893725307      11.939498521039903
   962   1      14.186021783744174      18.196136884394146      14.165499414550302
   963   3      14.059710567873861      18.478665737525027      12.112058757147551
   964   3       12.10970579913841      18.277815416838063      14.284741174544875
   965   3      14.119847311635478      16.168106225366582      14.029857230457338
   966   4      11.945813206741978        16.3859368975296      15.929405040411204
   967   2      14.102822450359524      18.230354885688033      18.101809970438875
   968   3      14.188376395794231      18.111229717101661      16.238577721603097
   969   3      12.212952818513665       18.19195023792275      18.416387917759074
   970   3      14.247534444849498      16.269839735045988      18.461960373065111
   971   4      11.987414853773842      16.168983160042142      19.998949183413188
   972   2      14.156810715776503       18.12227642744897       22.19043993859059
   973   3      14.348290474420805      18.413957834663673      20.315072425306372
   974   3      12.240061888697063      18.323726716647631      22.187739803562959
   975   3      14.174002604181599      16.236807078313632      22.245778794294729
   976   4      12.382378158321135      20.123134058392203      11.923922327032777
   977   2       14.15338383912527      22.298512237178482      14.025532887358956
   978   3      14.098784637558994      22.031502046096609      12.146919193842566
   979   3      12.172953975709493      22.279925365219476      14.363425024892916
   980   3      14.094617823498073      20.302593742954734      14.458328416403612
   981   4      12.125993776374431      20.238206451802409      15.847565583540561
   982   1       14.13184294789186      22.255074058859716      18.252902895237494
   983   3      14.175231017404069      22.554689140825669      16.225403539059325
   984   3      12.105658280760046      22.352654949313195      18.257954904226185
   985   3      14.336810881276685      20.194329851675086       18.17632572405358
   986   4      11.832401878077496      20.067514637810561      20.336974149151288
   987   2      14.170568774501703      22.150056891243732      22.303953760095119
   988   3       14.35235358397988      22.171764860328416      20.323101600445643
   989   3      12.218056655904267      22.364398001016152      22.260538239765626
   990   3      14.269121961115106      20.249134693228186      22.491028587587348
   991   4      15.891947915348403      12.306201112735257      11.858551977369155
   992   2      18.204231158733531      14.075468748572298      14.162715789281799
   993   3      18.347034296012399      14.218232412417276      12.239547240590767
   994   3      16.237916743926391      14.183715097832753      14.246502115263965
   995   3        18.3071854745568       12.18878211283997      14.329431275817564
   996   4      16.030733769113382      11.848903656936086      15.828665104965689
   997   1      18.189871602130552      14.101724534748985      18.209468002288553
   998   3       18.22521634046171      14.423627926488644      16.164243509915838
   999   3      16.161343686497638      14.374113031224585      18.203647431523024
  1000   3      18.399632385461512      12.088502398061395      18.249583918677676
  1001   4      15.884042620147493      11.948846670241693      20.658504101047914
  1002   2      18.231058256908032      14.003768011439957      22.198720194788852
  1003   3      18.343847218239645      14.220679106968396      20.312425671348787
  1004   3      16.268187223559593      14.328911454072767       22.30299469664725
  1005   3      18.152630214494582      12.150256344694203      22.360434526065589
  1006   4      16.341773984195171      15.956820422829253      11.796900681739537
  1007   2      18.105009894001224      18.208704133937772      14.122043526112808
  1008   3      18.234111298597892      18.497909930583958       12.20222026723313
  1009   3      16.229397235789079      18.478752254830972       14.18361015713451
  1010   3      18.223687859811882      16.297751253755816      14.137853430773639
  1011   4      16.230907756194675      15.841268574125484      16.278517672194639
  1012   2      18.233595305662636      18.147406794501467      18.165014719325494
  1013   3      18.283157869862531      18.346516543326974       16.23849656726226
  1014   3      16.266434848569734      18.296451667005424      18.331994133767456
  1015   3      18.236531927518023      16.277265378727385      18.302526033036063
  1016   4      16.081994688198034      15.839414958612926      20.075096585601457
  1017   2      18.164310390678487       18.08406826916319      22.261323188126706
  1018   3      18.241986400030513      18.439199102256197      20.335094467713503
  1019   3      16.228044739089533      18.257055037831051       22.42851468785295
  1020   3       18.35624469504555      16.239274122892979      22.325373128654594
  1021   4      16.115166074094461      19.999125428013176      12.103826825966273
  1022   1      18.197282224808465       22.31380011677815      14.169310153183954
  1023   3      18.370851428573673      22.145017315515084      12.108022647103951
  1024   3       16.13192299513786      22.195811390974463      14.351529542750752
  1025   3      18.450820182570293      20.238159270231211      14.263649816011629
  1026   4      15.920258234956155      20.331477501259563      15.994896360646743
  1027   2      18.093063699264146      22.357880532187789      18.133756550385545
  1028   3      18.320274945987723      22.256064055349835      16.257463491741724
  1029   3      16.216314864884293      22.347321412660722      18.219023142807774
  1030   3      18.318411578882607      20.353566399674001      18.346583966537374
  1031   4      16.025940900794605      20.208689746970339      19.950069652140321
  1032   2      18.359696519733031      22.215306588200221      22.215406323966221
  1033   3      18.200822542975047      22.354653997991079       20.28960201302986
  1034   3      16.208395256044923      22.543097414360744      22.371542408189512
  1035   3      18.133676114735781      20.346153618720631      22.406609614736343
  1036   4      20.405010244773585      11.662845132732913      12.225404883127638
  1037   2      22.260994092744109      14.109025332400883      14.152190638020398
  1038   3      22.148986293987612      14.344282720427866      12.173552165295904
  1039   3      20.267472320694729      14.330596092607053        14.3178566325721
  1040   3      22.204379022309872      12.232889719438765      14.205906093646332
  1041   4      20.120446281080099      11.789144374022966       15.94191139045294
  1042   1      22.309239311159523      14.115132750021717      18.149722149928113
  1043   3      22.336207546200562      14.386216025547634      16.127460429352936
  1044   3      20.253965269006578      14.261946432804402      18.245182994412673
  1045   3      22.270504075187418      12.063881253897186       18.44075640343242
  1046   4      20.386415511844593      12.453060397422121      19.879583902009731
  1047   1      22.250622777362693      14.116230136300413      22.263236037725051
  1048   3      22.151886098576473       14.27580237961009       20.28507670414383
  1049   3      20.187343417823428      14.148133328368809      22.616925870196003
  1050   3      22.403070188465826      12.053028433626865      22.382030931619056
  1051   4      19.968985239978071       16.02860282284167      11.848181479399994
  1052   2      22.174598731079222      18.175385482813958      14.146568557367662
  1053   3      22.415519429955069      18.365357545004997      12.191133122638249
  1054   3      20.294843620059034      18.289530357814762      14.214485105998019
  1055   3      22.427291683514547       16.29630959736815      14.183009022182326
  1056   4      20.213470502011738      15.769323179224211      16.381383761040386
  1057   1       22.23568206627926      18.259318443049899      18.204628389389143
  1058   3      22.450981417933381      18.279827771646445       16.14695131392925
  1059   3      20.190841712288435       18.34994451576198      18.392854448944952
  1060   3      22.398208827816671      16.231271075591653      18.264476180423685
  1061   4      20.462561073678756      15.914404403068284      19.900285396074793
  1062   2      22.162842747913182      18.236844746869242      22.213111255237603
  1063   3      22.346663856743636      18.286581372579533      20.328375023301358
  1064   3      20.246146643200689      18.437321442519153      22.327844665856709
  1065   3      22.237997333509192      16.310830991615468      22.486341141578119
  1066   4      19.890734312620332      20.314384946705442       12.15814305856539
  1067   2      22.181185382755139      22.313611242813266       14.09908914677213
  1068   3      22.351952922346332      22.280272769353232      12.214153729118552
  1069   3      20.323468824469945      22.315071862899735      14.260796960379951
  1070   3      22.343041503375179      20.327658512466666      14.323027005124553
  1071   4      19.965627033517308      20.345631692979751      16.003804767451228
  1072   2      22.191683509342781      22.300388749286387      18.223845457357665
  1073   3      22.445053800596529      22.332289668154626      16.265158508022385
  1074   3      20.299287667014884      22.340705453858011      18.353064361334386
  1075   3      22.373522324589334      20.335829824896429      18.317901286224867
  1076   4      20.121811170183602      20.094881956881917      19.987010117089355
  1077   1      22.234386948693288      22.282920010146604      22.278618970404946
  1078   3       22.51900841616899      22.317369349459483      20.235837468119009
  1079   3      20.219081566701533      22.296690455502766      22.337147426194175
  1080   3      22.531258557979385      20.232762407625433      22.303451033658455
