(written by ASE)

1080 atoms
4 atom types

0.0      24.299999999999997  xlo xhi
0.0      24.299999999999997  ylo yhi
0.0      24.299999999999997  zlo zhi

Atoms # atomic

     1   4    -0.16487591186112091    -0.22478454233987721    -0.12968298684998394
     2   2      2.0128287401191183      1.9388005537392965      2.0496336275966316
     3   3      2.2644754867086965      2.1335113868440145    0.082217511991147449
     4   3     0.11025314063659865       2.201358081063792      1.9270386749748936
     5   3      2.0999125805863761    0.081848383425062329      2.1395663576301458
     6   4    -0.23757452346638627   -0.063795730715731372      4.1371481480916881
     7   2      2.0783878883475739      1.8997666025942843      6.1389747410557174
     8   3        1.98761640409714      2.2473580071421915      4.0389786964472867
     9   3    0.088537087018102964      2.3054677292358439      6.1046665001842966
    10   3      1.8584798114773633    0.033105177918318761      6.0454920454806915
    11   4    -0.24502464367884386    -0.16377747452014341      7.8645535995262872
    12   1      2.0348749229265346      1.9752683407093015      10.072637689490646
    13   3      2.0432629753201508      2.1578314289222749       8.038175132899525
    14   3   -0.028516657435580479      2.3024059995724495      10.079177617726206
    15   3      1.9540722628210707   -0.072637672740651887      10.324095162672249
    16   4    -0.15326887525637647      3.9309188068311185   -0.052740867901221164
    17   2      1.9673525960769118      6.0007476948087888      2.0722332224338924
    18   3      2.1782590038830327      6.2869896372302385    0.099945620960735934
    19   3    0.085431019874063402      6.1501988397793799      2.0816229600351974
    20   3      2.1937287975917728      4.1430455700835296      1.9979060677512244
    21   4    -0.11357683409540634      3.7771900596951413       4.240287137206403
    22   2      2.0668104676077008      6.0298209399747371       6.086859976857065
    23   3       2.138290338629266      6.2388256171314609      4.0353328033545015
    24   3    0.048020092439954941      6.1077537123142838      5.9404102224139121
    25   3      2.1621278223321787      4.1505501316501787      6.0475602109169921
    26   4     0.11216795422673788       3.718073052112508      8.1346513146457529
    27   2      2.0657829169352446       6.021895712972305      10.231302310409268
    28   3      2.0010250259019893      6.2723476598706149      8.0343861714053073
    29   3    0.015989435193014639      6.0629219499406641      9.9928461785993132
    30   3      2.1152593673117881      4.1333541915740817      10.105303645438381
    31   4    -0.25085629876136883      8.0974249006862866   -0.017146970916388747
    32   2      1.9950997058536657      10.068209393950143      2.1159372315684948
    33   3      2.1879830861301128        10.1598936329603    0.010362035785014006
    34   3    0.060263114628073988       10.23804812264521      1.9462996364554461
    35   3      2.1019432301498897       8.178517443014421      2.0509350500573591
    36   4    -0.13824932445031246      7.9861152487652953      4.2181403404003399
    37   2      2.0124299942216091      10.100296633878671      6.1478461072391637
    38   3      2.0496354185740255      10.313610233303432      4.0274901459597894
    39   3    0.020180376641735002      10.376726271393732      5.9187152746796894
    40   3       1.823546337149107      8.2009140335620589      5.9680557914520387
    41   4     0.06548897831556541      7.8955105831206023       8.290585220186836
    42   2      2.1140273818189841      10.124482828884917      10.239681585971105
    43   3      1.8283524081438045      10.176693658477786      8.0703352789586873
    44   3   -0.054406129903802454      10.390716154617776      10.114712864800353
    45   3      1.7785524115943925      8.1955008175679698      10.045815465407506
    46   4      4.1560774150083866    -0.35943851693352546    0.047994723903463203
    47   2      6.1147210987440213      1.9060478180324396      2.0782375397324477
    48   3      6.0454867465737765      2.1550161570957651    0.071652264292226667
    49   3      4.1015807163317275      2.1853703346314437      2.1354075045259844
    50   3      6.0845155865097267     0.03832812066910337       2.136455574517492
    51   4       4.239935492016178    -0.35010015359833635      3.9874662084980574
    52   1      6.1153114914596278      1.9552438688637237      6.0583705887014556
    53   3      6.1229099119625978      2.2512794581725557      4.0213836222049411
    54   3      4.0052137572069961      2.0419474123871026      5.9293830071970355
    55   3      6.0378159465223593   -0.074644694365293029      6.1240725319129679
    56   4      4.4257246551217957    -0.13276677495806061      7.9116280441822724
    57   2      6.1731096368143312      1.9363486191939661      10.065100266605258
    58   3      5.8969340703298769      2.0364235467113323      8.1108950401767643
    59   3      4.0517193188893934      1.9325588933921058      10.343987155454659
    60   3      6.0500246443498762   0.0035207261113077179      10.144677430651083
    61   4       4.019945528899755       3.827166892027146   -0.012638782822771153
    62   2      6.0318949823498595      6.0557328094810421      2.0189875932830943
    63   3      6.1862816370014411      6.3130274318404744    0.081351916451767925
    64   3      4.1071747653248796      6.3300951483187946      2.0491768158177686
    65   3      6.0806315877833379      4.1603369322520027      2.0205066207471929
    66   4      4.1883934756721368      3.7423714469299498      4.1969996944783219
    67   2      6.2328609828969723      6.0497673332762059      6.1204951300777939
    68   3      5.9995089107491903      6.2031886375800243       4.090410455021936
    69   3      3.9944838848396791      6.4134893507770867      6.0455368530288487
    70   3      5.8649920160726161      4.1598066568035286      6.1211261493895464
    71   4      4.3323676479427498      3.8720196661504196      8.1296795101845838
    72   1      6.1074172229977766      6.0051587762987308      10.082044920456847
    73   3      5.9031817362627832      6.1978366881646085      8.0385264978583297
    74   3      3.9672600745304085      6.3607927493414005      10.083711933370058
    75   3      5.7735355509976669      4.0046861535351841      10.037788921522367
    76   4      3.8760404083423206      7.9991556482148667    0.059173493607636088
    77   1      6.0207915243468992       10.14088412127172      2.0673766311329067
    78   3      6.2424992571789319      10.163314575328416   -0.028068457551164227
    79   3      4.0011108820294705      10.299512202609439      1.9935764195872439
    80   3      6.2645210355703691      8.1306068285800066      2.1458405484700394
    81   4      4.2296715741522686      7.9867759217225185      4.1099328927198533
    82   2      6.1703291972476206      10.148189693078045      6.0976228852160919
    83   3      5.9792921949390445      10.263151974670228      4.1490163552299739
    84   3      3.9618193130196047      10.068664661058277      6.0820050450553786
    85   3      6.0775455603542445      8.1875309233453208      6.0786409142694371
    86   4      4.2389802526532865      7.8739594751549031      8.1885967979780059
    87   2      6.1734013809979942      10.049646102282102      10.180093586502679
    88   3       5.967130943546211       10.23755322429192      8.1341620928655445
    89   3      3.9907228741136178      10.046464085429209      10.063880968261989
    90   3      6.1293662787279839      8.1614715528449917       10.14668872439335
    91   4       8.173829732461817    -0.42957339087032137    0.054567212175895469
    92   1      10.102433113336211       1.987931963578184      2.0262759463484583
    93   3      10.158914174184053      2.0768909606698043   -0.041713561881878997
    94   3      8.0524936172176105      2.2090292671372103      2.0225267703061527
    95   3      10.098748043879828  -0.0073749963860569884      2.2735464639269152
    96   4      8.4108532024046614    -0.24514212527703649      3.9435658465544523
    97   2      10.207327043198301      1.9343039217958529      6.0338021812991709
    98   3      10.064198791860539        2.28317727967787        4.08065045595428
    99   3      8.1231308303944729      2.2832825123654006      6.0557307460215402
   100   3      9.9530420473568348    0.022539885396025378      5.8925016693413106
   101   4      8.4683094355040183   -0.078535840742823451      8.1284733950722252
   102   1      10.167112397915144      1.9542949998766499      10.075551056175472
   103   3      9.9889861184177509       1.821825228896526      8.0396192338030499
   104   3      8.0695388219990889      2.1561031904523307      10.090042439263618
   105   3      9.8514447336662965   -0.061265372659128098      10.236808296040859
   106   4      8.1353545639220179      3.7224866796813445    0.083674850689821528
   107   2      10.092505657016465      5.9834923453678348      2.1284359783887425
   108   3      10.115856311461821      6.3645432969290736   -0.039064068285735727
   109   3      8.1202674379461826      6.1858626846238378      2.0879889944179015
   110   3       10.17522744631218       4.109807454733553      1.7979795022373131
   111   4      8.1285853336223468      3.7044922618792668      4.1319170098286824
   112   1      10.129435956024999      6.0425727057977081      6.0486033808642672
   113   3      10.244827718379002      5.9776964818313632      4.0123265051242338
   114   3      8.0856076746785259      6.0025991463135986      6.1593648708148363
   115   3      10.196906455277235      4.0175847855414286      6.3848510590887715
   116   4      8.3432289249971134      3.7745329149831135      7.8909900928588028
   117   2      10.105518500970714      5.8479371621610543      10.129670021500244
   118   3      10.142513458333775      6.3247588069043834       8.173578796937452
   119   3      8.1462203706645813       6.110527926376693      10.127953242151531
   120   3      10.231822337739899      3.9902906117114658      10.000832980423274
   121   4       7.828394041895681      8.1783567976940663     0.18528405054979488
   122   1      10.102016852226404      10.169737050446809      1.9899314401171972
   123   3      10.128540163141325      10.003505712686566   -0.036959328425657467
   124   3      8.1008576040163955      10.222714312130774      2.1836460335499361
   125   3      10.151745519755172      8.1278676959433653      2.2123872443614063
   126   4       8.109459302537747      8.2872423005572706      3.6680065171437337
   127   2      10.244347656265576      9.9968794014111975      6.1002186488561874
   128   3      10.118006469174755      10.477228254142272      4.1909598360768534
   129   3      8.0654469306010039      10.356826525679407      6.0704572707420059
   130   3      10.057421960279679      8.1446820356877421      5.9614191160124443
   131   4       8.457729429000036      7.9683582667838371      8.3031538569518037
   132   1      10.100934912575282      10.150305986807602       10.12220877454768
   133   3      9.9006545498841323      10.080784626699634      8.0687260579290108
   134   3      8.0314818989001324      10.357911124652846       10.16714921497673
   135   3      9.9601304065780685      8.1372634233751437      10.306748205547681
   136   4    -0.11810505410848958    -0.16469125503377655      11.913769236706788
   137   2      2.0279280098674191      1.9956020350391592      14.043563472568916
   138   3      1.8371789874019837      2.1015565072342111      12.179869946127543
   139   3    0.066667052553358169      2.0417337868981829      14.425479411749157
   140   3      2.0658340545333678   -0.016005558866042408      14.258517629992262
   141   4    -0.30479542534231929     0.11485379301829411      16.152605072375405
   142   2      2.0152132050156633      1.9706675424481097      18.170353650649069
   143   3      2.2289151037220902      1.9621348802908596      16.303793838396622
   144   3     0.12672157283287758      2.1638869859127179      18.275220017685506
   145   3       2.080019970092525    0.035012543133726204      18.456085399329503
   146   4    -0.27561128872675711    -0.11819422446691284      20.211191037598478
   147   2      2.0425959777963065      1.9558649482098873      22.262450310011122
   148   3      2.0268325431204031      2.1883203375445599      20.375471985177231
   149   3     0.13274033851729325      2.1296788237343498      22.520136273084532
   150   3       2.167578243133069     0.08527724188146292      22.327336773293801
   151   4    0.018362575048649358      3.7984199205797249       11.93372604211984
   152   1      2.0570296134018191      6.0182706718638448      14.141669247693368
   153   3      1.9968060321929961      6.1786535024841927      12.109432296543273
   154   3    0.019711478077643202      6.0745967081515015      14.276832219326051
   155   3      2.0609593323258077      3.9594358303099164      14.381947450661931
   156   4  -0.0062309142326741895      4.2172400605073479      15.780266863999106
   157   2      2.0465501624422493      6.0930695017695786      18.100943482367114
   158   3       2.075002235072728      6.0991247946701952      16.239354398213273
   159   3    0.079598443073546202       6.017108239217654      18.394044484292273
   160   3      2.2173609799918235      4.0564856829992912      18.341310554085531
   161   4    -0.12743887502130141      3.9372517491180465      20.015439040984297
   162   2      1.9923411345023021      6.0181587574544144      22.264713016049001
   163   3      2.1284989102829925      6.0427321558933169      20.382839932874347
   164   3     0.11180867933473811       6.191232547827477      22.423009033264652
   165   3      2.1180787648122608      4.1298349992122896      22.527911191459435
   166   4   -0.092922884003410658      7.7520028579237179      12.486369513442721
   167   2      2.0862456987981948      10.010689335528971       14.32017390671588
   168   3      1.9371253964484876      10.248133939462647      12.147542472753864
   169   3    0.064651009532517248      10.422918677222393      14.135420025720585
   170   3      1.9326179182693597      8.1420078650988987      14.171792366833744
   171   4    -0.22919078996009759      7.8442054960189749      15.840672534506647
   172   1      2.0325934591054882      10.099938664850949       18.20476215148916
   173   3      1.9133199978890794      10.260084425505145       16.19029109227186
   174   3   -0.011787641374030187      10.216624617639555      18.437186760401342
   175   3      1.9943469686976396       8.047158762900942      18.453554143089605
   176   4    0.032390988378727385      8.1653351847585842      19.942378766124726
   177   2      1.9535862690996058      10.048582066025393      22.260796897231842
   178   3      2.1083018576529735      10.235262956132857      20.374624178361632
   179   3    0.070579241518826275       10.05665559683051      22.358604771194603
   180   3       2.239147888583036       8.140989159251415       22.35972761715454
   181   4      4.0544906414232695   -0.011250725510200881      11.731904153954865
   182   1      6.0754155236642351       1.947809282035573      14.119848650567413
   183   3       6.134162577330839      2.2149935047918907      12.092662850720581
   184   3      3.9972262418894484      1.9972023841861661      14.205305962411998
   185   3      6.0458785276701974   -0.080370398841180482      14.225547325326064
   186   4       4.147297998659444     0.01099761462952273      15.817119382718181
   187   2      6.0930576328451211      2.0361515365843155      18.112515494883763
   188   3      5.9567390237392361      1.9608245902568231      16.244908120356929
   189   3      4.0741865309752292      1.9705296993222896      18.548461358689973
   190   3      6.0892544702140903    0.017574028533208601      18.453019395311888
   191   4      4.0983140263897564    -0.13476786301592089      20.098930650175848
   192   2      6.0822489723085349      1.9450925990328194      22.256205125097026
   193   3      6.1817331339275192      2.1731296026094706      20.368388830501559
   194   3      4.1150759258728149      2.2503049354660312      22.366144374376418
   195   3      6.0186072310260439    0.079077903174207778      22.313996972221315
   196   4      4.2746768251229144      3.7622830271319141      11.870011062174646
   197   2      6.1388271387876951      5.9340090708008724      14.097532285716875
   198   3      5.9872044323011142      6.0986273253132195      12.159482970097683
   199   3      4.0843498284961663      6.1880164269007514      14.229597024458828
   200   3       5.961277580620874      4.0437096306911311      14.287295704597961
   201   4      4.0380966353646013      3.9513869959641976      15.839867282290321
   202   1      6.0523993242577987      6.0270776077507842      18.190982347746257
   203   3      6.0769536949317766       6.269479673010478      16.158512368756927
   204   3      4.0169077228200605      6.1863867709929838      18.356017645990665
   205   3      5.9021616942448798      3.9851588649409972      18.290877591218507
   206   4      4.1100323735813378      4.0570222581002726      19.918541808867435
   207   2      6.0208935902765237      6.0061122185791014       22.20037684532808
   208   3      6.0528055579740609       6.101127553191291      20.336588736929222
   209   3      4.1190631469856278      6.1579131929213142       22.49086035306728
   210   3      6.1659303702691011      4.1367979148098835      22.467112616524329
   211   4      4.2971433581889595      7.8316780883540167      12.269385666951854
   212   1      6.0834220325850561       10.11543808737658      14.104071038887431
   213   3      5.9044235972476713      10.267063633590572       12.07232343630209
   214   3      3.9758719160474048      10.190384323121455      14.139160151612559
   215   3      6.0252975902836479      8.0779743610121422      14.176776382680028
   216   4      4.2868680721474544      7.8251909105117887      15.941409757821676
   217   2      6.0512539832286523      10.159954603310421      18.039057612778734
   218   3      6.0348015734052503      10.204935006235539      16.165029456615869
   219   3      4.0935522819606787      10.095635942825169      18.411267894154566
   220   3      6.0992190323533553      8.1883973584164611      18.364323289681113
   221   4      4.0360151900096923      8.0733076541736981      19.859583127066891
   222   2      5.9986940179755885      10.033742836696435      22.251158070125367
   223   3      6.1408590929775508      10.257933472645057      20.330967626827764
   224   3      4.1152302383434298      10.299554589759895      22.354958176347779
   225   3      6.1003406668984379       8.148085620794987      22.324483677172712
   226   4      8.4395708731110481   -0.017347608317475009      12.121414608781372
   227   2      10.243872661438665      1.9984749421871091      14.147351633110542
   228   3      9.9619384192907852      2.0273637439580847      12.173957610526873
   229   3      8.0869066153807818      2.1650843810317797      14.194726390160207
   230   3      9.9089969085360536   0.0080622067508232184      14.114133255726614
   231   4      8.4061265895477248   -0.059173642855397647       15.99961624220758
   232   1      10.119319522764181      1.9449535781815694      18.217221971096969
   233   3      9.9826512658851954      1.9350126826755012      16.165781514092433
   234   3      8.0195135362868211      2.1648621845877396      18.281121657840263
   235   3      9.9041972858798424   -0.064884776401700192      18.354897142057062
   236   4      8.3284900865576077    -0.25330103153950406      20.138938292692657
   237   2       10.15181704161979      1.8977418899792928      22.308248272833829
   238   3       9.985816248945234      2.2640680752873625      20.322359754940653
   239   3      8.0792167323986774      2.1235601802285431      22.435362562943808
   240   3      10.175343305286647    0.024448187819343617      22.155720214470414
   241   4      8.1394984834222512      3.6265261056710325      12.213262383825597
   242   1      10.140432230707569      5.9732892497606427      14.142384056053269
   243   3      10.139949275681092      6.1139081026167101      12.104788822005343
   244   3      8.0749604614031849      6.1025037217212041      14.220474776137298
   245   3      10.101490418939431      3.9714259598607695      14.315511943928433
   246   4      8.2751535308189226       3.717092226334954       15.96560077320083
   247   2      9.9836030163712515      6.0497504069374166      18.145302704482432
   248   3      10.126089231284913      6.3220991494805947      16.248283045785278
   249   3      8.0874877985057623      6.1759705338143887      18.289859538131815
   250   3      10.087882434191336      4.1344548021759007      18.186522239507784
   251   4      8.1745251446178262      3.7894203482773112      20.024811222603244
   252   2        9.95710209875811      6.0140475672562017      22.279433869397849
   253   3      10.173892148813794      6.0627780542767509      20.305188487042642
   254   3      8.0803068983180548      6.2772042064748961      22.318375081212295
   255   3      10.005864151791783      4.1368540774779277      22.425776108883802
   256   4      8.2773586139308684      7.7653590177413045      11.974101566180844
   257   2      10.074849083471937      10.011459746399773      14.176017996287641
   258   3      10.124538607668105      10.466023772943577      12.185631838189275
   259   3      8.1186085760055189      10.365892973387348      14.136846543577033
   260   3      10.083353909200452      8.1225057964069389      14.049246427648335
   261   4      7.9235658895153378      7.8217939301001342      15.946965864495164
   262   1      10.075225640202452       10.12325391568012      18.167403726678298
   263   3      10.080553471072086      10.134694431851072      16.136316583306719
   264   3      8.0312305699184581      10.206284083867898      18.358514596957377
   265   3      10.090289123644039       8.095816503682947      18.508503819098973
   266   4      7.9967425759569064      8.1199869981197494      19.868531985350067
   267   2      10.051030025535578      10.061092327902449      22.327166090774433
   268   3      10.135857318569482      10.399544260228788      20.315147796534056
   269   3      8.1128176660416962      10.189270358117312      22.274691673040454
   270   3      10.271276331270007      8.1557301140115541      22.108613286154345
   271   4    -0.34575226512272189       12.12321134780375    0.097037967278186268
   272   2      1.9068027286347098      14.091330424938651      2.0887073232152935
   273   3      2.0106524179077128      14.426721326106396  -0.0013698536724279329
   274   3    0.039040115742298619      14.212366867927537       2.049075688789431
   275   3      2.0825803381736354      12.218686720043372      1.8087505362889833
   276   4    -0.21439542453044108      12.230254725811696      4.3104491156453859
   277   2      1.9880343437478301      14.188404540362985       6.215730293913218
   278   3      2.2266741828404188      14.109777342053304      3.9633774774114756
   279   3     0.03204323647534861      14.096801866937119      5.8185925371408223
   280   3      2.1266738556852802      12.199908301732501      6.0570897348152517
   281   4     0.21297909719774247      12.084536367447219      8.3901779528734952
   282   1      2.0040150310905021      14.166954027234549      10.135564087555602
   283   3      1.8848761581102313      14.259723949812638       8.084225227959184
   284   3   -0.049968731540033721      14.116116897741911      10.355116456631931
   285   3      1.9955616800013452      12.096737147422289      10.007379017753063
   286   4    -0.28391339670218579      15.854493055235613   -0.081106571065787364
   287   2      1.9560119964410081      18.099716067589227      2.0393577759683312
   288   3       2.184476169895913      18.249700760770025   0.0018707514953793687
   289   3     0.00533496680238911      18.323137585558595      1.9112480576536264
   290   3       2.125317008933401      16.208845187068466      2.0408377937231732
   291   4    -0.14979229344023487      16.135205145784631      4.4267448942354841
   292   1      2.0420764188403155      18.189935620324292      6.0425713588969572
   293   3      1.9424208997385346      18.406129413317224       3.938800221347063
   294   3  -0.0087245794521342724      18.412669280744804      6.0379463885476863
   295   3       1.884103482207736      16.149773780099462      5.8112654417278868
   296   4    -0.39078047519312775       16.24813670797608      7.9271777996741903
   297   2      2.0235536920411157      18.188332009809521      9.9472626190101092
   298   3      2.0051940500909353      18.258623378371539      8.0927012204471858
   299   3    0.067016314742651489      18.441159131930849      10.208844433890947
   300   3      1.8521540797893978      16.302452403045237       10.27827718601872
   301   4    -0.28252962089594813      20.199680385307758    -0.13805438696418842
   302   2      1.9878229591146637      22.173464793586017      1.9824556901972477
   303   3      2.0800579999305815      22.513529066503491    0.048140542021398176
   304   3    0.061324426053903119      22.454838344643409      2.0557581412019017
   305   3      2.0419692495964124      20.305205398352062      1.8928499734059987
   306   4   -0.072602625334845017      19.878459749020308      4.2200054125541042
   307   2      2.0378389700155295      22.133658599110145      5.9652064882228393
   308   3      2.0468192768178088      22.346304313468448      4.0359456534282545
   309   3    0.047838498043013017      22.255392111029018      6.1232255144187864
   310   3      2.1042658843704256       20.28344228377297      6.0789463537500206
   311   4    -0.11825259685578318      19.943071855874418      7.7916178378378218
   312   2      1.9956646839537249      22.314962000451047      9.9564432866122896
   313   3      2.0462815304730269       22.36922809769289      8.0701367804655035
   314   3    0.071026729847185166      22.178216542167011      10.255082438270081
   315   3       2.199509959426873      20.273230732391177      10.220266545342959
   316   4      3.9770327142131587      11.859688789172269     0.18817132039554579
   317   2      5.9831739832023381      14.156642539240586      2.1230309886601719
   318   3      6.3316210739904148      14.333248593981068  -0.0040109288416443371
   319   3      4.0809362296780805      14.256252023385663      1.7636586108383527
   320   3      6.1561753537785959      12.226709947467596      1.8855035597477539
   321   4      4.1892740717506776      12.022143485628243      4.2326040653780828
   322   1      6.0781398982515675      14.140264390784191      6.0797016725833775
   323   3      5.8538257851407414      14.100889753019535      4.0054944273618158
   324   3      3.9687026069117839       14.40125600278475      6.1348527934126329
   325   3      5.7204615757693933      12.113316363300964      6.1582501914496914
   326   4      4.2940066464018107       12.17028669466359      8.0706973851018038
   327   2      6.1147640571209099      14.133399353650338      10.106664819780457
   328   3      5.9017806535249262      14.192015694694776      8.1680238993964416
   329   3      4.0296992070613955      14.514194517829706      10.093563658805962
   330   3      5.7900370489977613      12.206397689277189      10.126819463686937
   331   4      3.8675248985092989      15.992988045269348    0.026832576349700057
   332   1      6.0193840862419306      18.152062184997963      2.0540058248245088
   333   3      6.1331522264753104      18.242944469159969   -0.025693854095150688
   334   3      3.9823564913176486      18.381188986348349      2.0670145937708893
   335   3      6.2798551833800911      16.152249660963484      2.0430559631566259
   336   4      3.9550837745325897      16.084175313935706      4.3845541016632845
   337   2       6.091465068271769      18.066388523219544      6.1318992604484821
   338   3      6.1788192321249609      18.389964499532439      4.1078772516027007
   339   3      4.0888274559442026      18.138273266490323      5.8155566786786963
   340   3      6.0971491523937154      16.200758667567293      6.0216026669946361
   341   4      4.1759101410219115       15.93756144535824      8.1756892682047759
   342   2      6.1466928357631669      18.237070541849629      10.245910258980235
   343   3      5.8578571234822761      18.261392054270448      8.0707231497944782
   344   3      4.0053193974717001      18.091622931821849       10.21684312339822
   345   3      6.1117341008401063      16.238403082015704      10.103715689847604
   346   4       4.209524539689065      19.990517969978722     0.32744656689715496
   347   1      6.0817151921632639      22.228411786386193      2.0327684969604856
   348   3      6.0998049496154305      22.498708816424212   -0.016368795357038921
   349   3      3.9896692341421338      22.427505368709742       2.035564547165599
   350   3       6.136009309168224      20.236284291285713      1.9226404856220758
   351   4      4.1974340135693646      19.865496595596735       4.073865079803527
   352   2      6.2506546515144432      22.251810101500933      6.0282295021586725
   353   3      5.9862015331353557      22.277374083883856      4.0958684482045715
   354   3      3.9622239570377702      22.475237371229792      6.0457290915918511
   355   3      5.8611145665337414      20.274897279825634      6.1175949526277522
   356   4      4.3523152820502116      20.261382071839456      8.0572399242600792
   357   1      6.0958675310392598      22.252820549708009      10.059858368944433
   358   3      5.8300459414383798      22.230847990570506      8.0331335129148869
   359   3      3.9838913366203039      22.349063088601334      10.302623106049987
   360   3      5.7752742645583313      20.189988989025153       10.03911146465793
   361   4      7.8844109406548482      11.872090288129048     0.18234210427693989
   362   2      10.111139404730467      14.174316470320992      1.9027977601772184
   363   3      10.038857053094736      14.430489254436429     0.02328895031568471
   364   3      8.1348437005836889      14.194029956753274      2.2096167037886296
   365   3      10.168765024773919      12.242149000024977       2.072246654689069
   366   4      8.1475277804778479      11.931742348063963      3.8067151098100309
   367   2      9.9291006574551428      14.232382119607445      6.0233443099062765
   368   3      10.296985919220711      13.987163236434172      4.1437539816680315
   369   3      8.0988479581784159      14.037804590918453      6.0305770661290481
   370   3      10.229946638694088      12.237827486950504      6.4342984124672666
   371   4      8.4197451057094739      12.027679053687425      8.1235295823882332
   372   2      10.302570458833173      14.169790919679459      10.145838646136687
   373   3       10.00198741236246      14.427578197652032      8.1297726925529883
   374   3      8.0110485148777073      14.114456751768577      10.184420580746774
   375   3      10.108141199146754      12.251745677704236      9.9012442042153648
   376   4      7.7849933208808126      16.195953469999811     0.11307097360766398
   377   1      10.160864526804406      18.168031399249141       1.994864210236134
   378   3      10.342087550854455      18.183001256653341   -0.054163551639099125
   379   3      8.1329168324829713      18.304181687339295      2.0729718725805366
   380   3      10.066336620880854      16.145814924536143      2.3783187227564229
   381   4      8.0932094381392439      16.372521968114054      3.7111898587752483
   382   2      10.162934411703555      18.334310133000976      6.0156609137267383
   383   3       10.04724284569661      18.379701948720253      4.1200469966523041
   384   3      8.0712328602151633      18.338239752213642      6.2088097800099087
   385   3      10.039218584616201      16.184674115429164      5.9748490191431456
   386   4      8.3857668314333704       16.32579514404329      8.2728403303147307
   387   1      10.152080559384075      18.238329854321613      10.095388785423848
   388   3      10.145505402600316      17.891897557198863      8.0740439013253127
   389   3      8.0349341734870929      18.400883777803262      9.9195247941049267
   390   3      9.8430162880646339      16.169690387437406       10.24271487284129
   391   4      7.8332426405742392      19.938794822286571      0.3318924131607679
   392   2      10.148975597917538       22.12815938121166      2.0635673120479829
   393   3      10.203465484099205      22.470673593270647    0.040131650361233714
   394   3      8.1645202301633795      22.310350039971294      1.9475957361611649
   395   3      10.323386950398666      20.235868801341688      1.8915082212138223
   396   4      7.8959990254593722      19.977351140972985      3.7507252565553699
   397   1      10.165812464368615      22.217958624016148      6.0352233104554296
   398   3      10.078990721525802      22.214146385841449      4.0067316714166878
   399   3      8.1068178109118652      22.188176140004167      6.1536662560207542
   400   3      10.227671506011212      20.206357184345553      6.4142145267158766
   401   4      8.3059397165075399      20.315852672467862      8.2058182640313237
   402   2      10.220827588092453      22.230973828726878      10.124454487756847
   403   3      10.152757738608504      22.537852084051426      8.1228074851172281
   404   3      8.1254131857569654      21.963314572204034      10.023910298904491
   405   3      10.276570270010117      20.281933422961082      9.8818359743186459
   406   4    0.051349306408943217      11.888896344344547      12.227322805746525
   407   2      1.9832357018943425      14.168795835543976      14.079295120560062
   408   3      2.1183471172239328      14.324180980154717      12.210749846461811
   409   3  -0.0034975761161563919      14.152612904978353      14.117898047792291
   410   3      2.0645713248277415      12.251803616206484      14.198771746871449
   411   4    0.021127455978014378      11.865645075767389      16.034582547383856
   412   2      2.0487274801269502      14.105577585885007      18.109391140259088
   413   3      1.8899601251144875      14.236155472607321      16.247065213592208
   414   3     0.08698410926010483      14.138884698604965      18.510785354579177
   415   3      2.0863933774470844      12.212524872247947      18.378679111159762
   416   4   -0.083878478072613658      12.094894842375036      19.952687568124492
   417   2      1.9508073977370073      14.065158367642141      22.255511718182557
   418   3      2.2149595133046764      14.213373851934168      20.364053628069719
   419   3    0.072012518086067873      14.319381927092804      22.268013095137885
   420   3      2.0682633228391034      12.187852182943947      22.428668441820964
   421   4   -0.047289197223764963      16.094165460006305      11.858488940918651
   422   2        1.98500442352107      18.205013747742168      14.072695087949413
   423   3      2.0501502158923648      18.334719108515007      12.216294607165569
   424   3    0.071913566723296699      18.465096242292944      14.289975424025648
   425   3      1.9666203697223306      16.274805736150412      14.313869374429688
   426   4     -0.3991503294270578      16.192611664584739      16.326947178100941
   427   2      1.9336548885917535      18.169783662943082      18.217560926627712
   428   3      2.0902107091588435       18.28477270229833      16.342382078345842
   429   3    0.077889724024520268      18.387925596328458      18.328604470954865
   430   3      2.0060664042525076      16.250534991925946       18.44045179355518
   431   4     -0.3814940965386947      15.925179478028292      20.049577845349749
   432   2      1.9284727799989538      18.120326721886471      22.278084197683317
   433   3      2.0936427670033932      18.410761755411286      20.365317205871712
   434   3    0.035076449872848844        18.2140496838696      22.432942441160396
   435   3       2.199299938423275      16.250500148856283      22.300984350530808
   436   4    -0.16538546187711226      20.265856459999853      11.850891910410017
   437   2      1.9697776035645278      22.230083957481995      14.116501508818144
   438   3      2.0613640232813917      22.202509612438696      12.233723378472671
   439   3     0.07915839598381276      22.209143985803596       14.29341741343308
   440   3      2.1884310579364175      20.289173403357786      14.377520436112677
   441   4    -0.29043571561529241      20.104740614425626      16.138921226499026
   442   2      2.0198015204097812      22.226311437980947      18.147422322322516
   443   3      2.1301934607058119      22.376404212839262      16.284055892572741
   444   3     0.12804170140589285      22.264709309539125      18.338493230191016
   445   3      2.2292297952017313      20.310693878211566      18.363549469998045
   446   4    -0.35265273014331383       20.27432425241572      20.213653150310208
   447   2      2.0492703200625049      22.162371195155703      22.243224970152934
   448   3      2.1638940192362499      22.320826527475528      20.341731929538696
   449   3     0.14402486032005485      22.451157994742733      22.376418857025538
   450   3      2.0392098453926293       20.28946017830868      22.421876675360931
   451   4      4.3047859078783484      12.060477520025159      12.284681568076895
   452   2      6.1884438648876472      14.270606626480344      14.218174854107183
   453   3      5.8411701965138967      14.214970940591467      12.158901787637676
   454   3      3.9554985833219938      14.327937474296714      14.339554372370827
   455   3      5.8054658402641444      12.246023025919175      14.119967790833984
   456   4      4.3429515048363241      12.249901157048029      15.984726156345216
   457   1      6.0772531411247872      14.158008621740384      18.187121417010289
   458   3      6.0076095874633104      14.078505228605882      16.147198476166203
   459   3       3.989028963360294      14.312944600543835      18.300169913864188
   460   3       5.971745196721308      12.122333145112062      18.334884820039768
   461   4      4.0117856030745944       11.97853047247896      19.941324076829257
   462   2      6.0249068534822818      14.059873712821982      22.265988084286043
   463   3      5.9750930629378542      14.256814599230024      20.369737812686804
   464   3      4.1116336195698731      14.261937417127605      22.520680038807662
   465   3      6.2362981636523775      12.191121842055555      22.394528158655916
   466   4      3.9833406846548853      16.020803138776479      11.883953983202959
   467   1      6.0762058983342522      18.261263471963808       14.12144891051971
   468   3        6.15168329650934      18.306463146278784       12.10712688623417
   469   3      3.9822916996343101      18.215346927030581      14.398765394868121
   470   3      6.0290740239876266       16.20076716849545      14.274337783262531
   471   4      4.1563312903468734      16.284855103064213      15.873971405255059
   472   2      6.0857137436674993      18.173355659825738      18.157410736402678
   473   3      6.0071684039639539      18.212336933924373      16.287880714887816
   474   3      4.0812721330572979      18.260699630628135      18.475341198420761
   475   3      6.0999813586367893      16.261825732515145       18.42103800094981
   476   4      4.0781923939867255      15.956708959834261       20.00920585177176
   477   2      5.9560235027557304      18.132501730203987      22.251819912982754
   478   3      6.1409351709847213       18.37648376116935       20.34290452647252
   479   3      4.0750527452369454       18.36003223292472      22.312463078260464
   480   3      6.1009741483589792      16.245751851861954       22.33215011889471
   481   4      4.0655063550661419       20.35684212559838      11.808387501517229
   482   2      6.1044654395630706      22.289846767716487      14.025748981447649
   483   3      6.1392928586466944      22.113649052098623      12.145112322754359
   484   3       4.065257002213631      22.313787556086989      14.308121565972742
   485   3      5.9987365892579758      20.312864622005868      14.410589440371073
   486   4      4.1405702514806588      20.117922498981702      15.873038578667508
   487   2      6.0854039241890208      22.263461227050552      18.171947261492765
   488   3      6.0670770691175289      22.368931091916803      16.300457869822726
   489   3      4.0820211700023927      22.423508381025293      18.407752861585553
   490   3      5.9878015493523895        20.2989930865158      18.349862587818858
   491   4      4.0132896105327296      20.085118033430589      20.092216542219713
   492   2      6.1511260452312229      22.142198833313351      22.295213361595497
   493   3      5.9990205796437852      22.332611552390134      20.359871033276374
   494   3       4.082112744786512       22.38580358948791       22.44624621387257
   495   3      6.1537819355306649      20.262096289541031      22.423768441252879
   496   4      8.3631983602662725      12.065835128332234       12.22155591769241
   497   1      10.135795796511482      14.220567606432567      14.137872314381081
   498   3      10.007021972961942      14.088945167817284      12.078682895298973
   499   3      8.0569149771528146      14.099353007844645      14.111053609498041
   500   3      10.122380687863819      12.195494533983879      14.355958255686012
   501   4      8.3291049520997849      12.027798763645224      15.917979746332282
   502   2      10.049293553330953      14.159754826974286      18.077931323043952
   503   3      10.034283479982014       14.40888091559658      16.219852261731116
   504   3      8.1493131182925342      14.192375640398783      18.449623537656233
   505   3      10.184467561246574      12.239128085347261      18.180608164470826
   506   4      8.0450226937643112      11.948694194829447      19.975094744266229
   507   2      10.035627691975828      14.139922264099138      22.189513465535157
   508   3      10.324918863686271      14.094155785168928       20.30886070821381
   509   3       8.129643501366937      14.385291569659534      22.187975984257989
   510   3       10.07010683788501      12.241839174523413      22.474935204902064
   511   4      8.4350331801425664      16.100248823486044      12.118398863250848
   512   2      10.125000969606237      18.288061626369633      14.018821459328727
   513   3      10.016566483224006      18.354585774191033      12.127532743041492
   514   3      8.1329982541053703      18.327110802449901      14.393966376110168
   515   3      9.9393006743171295      16.256721869957893      14.046756545803095
   516   4      8.3093733272912704      16.465707372880615      15.945313349089416
   517   1      10.120785729779884      18.210268728776875      18.192096271847188
   518   3      10.163353140137032       17.92222416692351      16.188061967380111
   519   3      8.0373075507347096      18.284717177329931      18.344115042607356
   520   3      10.098330893942933      16.150511670614161      18.539209148351041
   521   4      8.0386989186355766      16.106298545134472      19.947214042630272
   522   2      9.9980576517401225      18.175433802492591      22.342961217117388
   523   3      10.186373952022457      18.364241972547845      20.319284026110793
   524   3      8.1113866183076571      18.222174419869312      22.348500043065815
   525   3      10.328798776395015      16.227439487514946      22.152371862383852
   526   4       8.155964533132714      20.498729897439116      11.966632836370533
   527   1      10.155093660504264      22.255923818747949       14.12965524970668
   528   3      9.9232775245498992      22.169090846044533      12.098584960650378
   529   3      8.0425903619799097       22.13945251257498      14.273388418582178
   530   3      10.161435877900445       20.21976103871571      14.423429144045697
   531   4      8.1512605507111164      20.270344908375144      15.862575393317796
   532   2      10.254038177634712      22.272665774573685      18.192819456531815
   533   3      10.011494358963908      22.403073416323636      16.255879563995343
   534   3      8.0225125466735605      22.229812743905121      18.426281901635413
   535   3      10.077797331673381      20.291877496112754       18.28575244012665
   536   4      8.2664934405815416      20.096652369905467      19.972705512087344
   537   1      10.087201520824376      22.194204927536344      22.293800258138639
   538   3      10.112567210642705      22.226376635760744      20.242448063104003
   539   3      8.0542473469047096      22.464637689278952      22.338212525594979
   540   3      10.313841304322089      20.177548271063461      22.330660807578763
   541   4      12.112317625819855    -0.33852990219782009    0.013130326551236126
   542   2      14.219797139002475      1.9777388598084611      1.9043557327910785
   543   3      14.105234689854973      1.9152181258937602   -0.012659873774121715
   544   3      12.170660313282244      2.0954265734271571       2.118114610598774
   545   3      14.175722397740643    0.054090481117886571      2.2708563758479245
   546   4       12.08304379383604    -0.10129551018096115       3.688789862219874
   547   1      14.187151820341182      1.9900310942517505      6.0262211593862514
   548   3      14.225700361772633      2.3097174162598844      3.9995227835787825
   549   3      12.135698734918284      2.0558735861768556      6.0362793048466497
   550   3      14.461373130507484   -0.036617049686691265      5.9058853988082278
   551   4      12.230081334118088    -0.28638814199734525      7.9721947340552779
   552   2      14.200770303501262      2.0378617653594389      9.9421871956289465
   553   3      14.215293928730571      1.8225414777581896      8.0816844798285743
   554   3       12.21472401199547      1.8633941583829645        10.3276346067339
   555   3      14.266467296928775    0.045186521940121599       10.42837960206095
   556   4      12.059019599862758      3.7513760022218241     0.17534147408452888
   557   1      14.115480807242657      6.0949323955088355      1.9696648112366864
   558   3      14.259434817804189      6.1969272857221611   -0.097034316367820228
   559   3      12.069591724034666      6.2878570286475739      1.9184981862927895
   560   3      14.081793599489705      4.0402250064837819      1.7563630264826684
   561   4      12.260320027290769      3.7111043412750937      3.9274011629530756
   562   2      14.147847644819084      6.0720169962806017      5.9289236469315254
   563   3      14.093044466312181      5.9703524171681854      4.0436830654730702
   564   3       12.18630044712865      6.1401778273568484      6.2575654018694822
   565   3      14.092504000203267      4.0972245318914666      6.3430539421531451
   566   4      12.152148366335053      4.0297708060498758       7.751082008244091
   567   1      14.173138401339834      6.0566442784833141      10.135902789181795
   568   3      14.148170772851101      6.3641425475990792      8.1132922957718634
   569   3      12.091155391657153      6.2769207990691109       10.14450083931448
   570   3      14.046387659287348      3.9870823813779115      10.075989637058026
   571   4      11.826234311570396      8.0037063983153871     0.18127231792202375
   572   2      13.995965085109226      10.131866781379838      2.0278979636330918
   573   3      14.257087588590354      10.014700459212472    0.072920066756169355
   574   3      12.122121179559802      10.168504761694923      2.1379236711590934
   575   3      14.145905474690121      8.1567265037838546      2.2609848737362799
   576   4      12.003273412036076      7.8836536724558899      3.8032865820990747
   577   1      14.163256909174784      10.131316493104295      6.0558250246802547
   578   3      14.358040405988266        10.2382533999227      4.0179568756687107
   579   3       12.12520192802198      10.217477871941025      6.2077738708227095
   580   3      14.365222547918531      8.0721082170961012      5.9632928591663088
   581   4      12.174931620005637       7.700194100630056      8.0972187064528747
   582   2      14.009291781971081      10.069680866822699      10.085506374056429
   583   3      14.315226363525049      9.9694830791671425       8.169250603743297
   584   3      12.138334146265006      10.163233567725669      10.221864814481167
   585   3      14.281480259956906      8.1630086444427601      10.401937223475301
   586   4      16.095076066779257    -0.27125321603889635   -0.018534810768876652
   587   1      18.183861755994705      2.0550356679143968      2.0082226942289583
   588   3      18.444228445970051      2.0184015062085439   -0.056479308716991576
   589   3      16.157068241235969      2.1393437455991053      2.0509251560055377
   590   3      18.412265788358756   0.0097915459272635633      2.0661131969483191
   591   4      15.920585686088938   -0.052293991762822505      4.0062523360296032
   592   2      18.205617946888086      1.9448658322232681      6.1562831372419957
   593   3       18.17697828729553      2.2637913544158086      4.0655774009001648
   594   3      16.245345704589386       2.325423522443558      6.0612724011655272
   595   3       18.06746331131141    0.043536745093819176       5.885631450538483
   596   4      16.004676766365527    -0.27580300506207978      7.8346302000418619
   597   1      18.199908534181741      2.0028496328829979      10.103797138562015
   598   3      18.377454901215721      2.0392034854852303      8.0821341068188861
   599   3      16.155767315041537      2.0799622829606612      10.315182177426943
   600   3      18.157521462592182   -0.014516301522560249      10.393156516427371
   601   4      15.784884735671161      4.1608535923602936    0.039565036340325724
   602   2      18.044224056598864      6.0798984715332942      2.0472739477833994
   603   3      18.355829424784552      6.1455208027565948   -0.010601208338507733
   604   3      16.190650116473293        6.09233842539403      1.9963788732570085
   605   3      18.362637598696434      4.1488399149850093       1.908366595764031
   606   4      16.155408196445375      3.7162578703023135      3.9985837635202923
   607   1      18.156951960869804      6.0699008477379728      6.0527275960893645
   608   3       18.39189824288346      6.0406943454932076       3.993175830750145
   609   3      16.137895439775349      5.9353785301327981      6.2313805705467225
   610   3      18.447469225967065      4.0604022978803895      6.1813192232254952
   611   4      16.050986539121528      4.0849689504476832      7.7325279038869246
   612   2      18.078742348368596      6.0521008783811041      10.083463226735541
   613   3      18.413849222497195      6.1089197692253396      8.1557993960851665
   614   3      16.237461359170048      6.0062842599922686      10.104149495761272
   615   3      18.491305913511439      4.1265576373242201      10.105551329986397
   616   4      16.016973673424626      8.4331229983707843    -0.21710010284723472
   617   2      18.144740310716163      10.210398232313874      1.9732324888915245
   618   3      18.225364868540176      9.8521794094391222    0.075232998052640054
   619   3      16.251673577927448      9.9734341022205388      2.0621039800611087
   620   3      18.374457240430843      8.0630793710187874      2.1329452327178884
   621   4      15.820134255962868      8.2314364282815031       3.946041155921133
   622   2      18.121882605594248       10.05338903091374      6.0206461099222297
   623   3      18.325457699381779      10.091038745336373      4.0702853469822662
   624   3      16.274740458718945      10.213591082745722       6.129229589085349
   625   3      18.280802962272883      8.1391206385674764      6.0962876092589315
   626   4      15.834203155221191      7.9664535347330112      7.9462804455455718
   627   2      18.163808482238935      10.046579889708992      10.161205617726026
   628   3      18.433747153872396      10.109420713949172      8.0858243696073746
   629   3      16.287434409841445      10.149073111268631      10.145416753817583
   630   3      18.323594696029659      8.0865226299481208      10.104521060538623
   631   4      19.899555720359647  0.00016071194139738652    0.095149374114155166
   632   2      22.198803804234391      1.9966833158554291      2.0541646214506244
   633   3      22.369981732735148        2.21630719334888    0.040791708245189344
   634   3      20.331629867444395      2.1057821065789049      2.1014041299099091
   635   3      22.382707137380578    0.082002216602647948      1.9903500203602964
   636   4      19.913000282984527    0.087456676936780581      4.1298362238267607
   637   1      22.217137926711651      2.0152336545425418      6.0510320936902566
   638   3      22.552874475439555      2.0420221607417481      3.9750560442732494
   639   3      20.188554758706502      1.9176187638343032      5.8552069836767098
   640   3      22.590821796359297   0.0034484600752960346      6.0186311672307093
   641   4      20.140253757443272    -0.30659094321363284      8.1691378351131458
   642   2      22.248176631035456      1.9198286365700785      10.010773722395248
   643   3      22.291429771622091      2.0188654059126541      8.1271739228831112
   644   3       20.34833632718836       1.980830209186508      10.383243966022139
   645   3      22.509227534661772     0.03914291795440334       10.21513094145222
   646   4      19.894606322023119      3.9862491434378202    0.054875927119190759
   647   2      22.203405177913833      6.0306119179726938      2.0374204804340708
   648   3      22.480286016399006      6.0735852688901701    0.060751896088975889
   649   3      20.338729652383186      6.1510177087962923      2.0009972585898832
   650   3      22.400172784535606      4.1117488322690434       2.083792216404432
   651   4      19.869565012386559      3.9248051085462627      4.1773334291656292
   652   2      22.239657269294568      5.9865478221291371      6.1314007721017978
   653   3      22.365563497831605      6.2626637108178631      4.0308558071679181
   654   3      20.358861374391836      6.3062922832100714      6.0664890471595267
   655   3      22.238817426535714      4.1194876328260319      5.9556303240229527
   656   4      19.896935995839314      4.0022117684691638      8.0383508155384451
   657   2      22.214051155709491       5.989363796395839       10.20553072912227
   658   3      22.369051489704965       6.153756358196353      8.0560883207567837
   659   3      20.343598175364178      6.2140166702830779      10.100979736507631
   660   3      22.234180596144288      4.0746341211076968      10.149473157934713
   661   4      19.936912751196662       8.159275301454505   -0.071532788622183208
   662   2      22.191401337298263      10.086905138540503      2.0961356205890325
   663   3      22.452383849755893      10.110044314276911   0.0085577542062456428
   664   3      20.292891227845285        10.0259715773105      1.9675942901536445
   665   3      22.473880736400098      8.1103364780394607      1.9411994778798194
   666   4      19.956136150332984      7.9169641193470515      4.0984799949257189
   667   2      22.242110273745283      10.118737821759108      6.2105805949703878
   668   3      22.361898454314584      10.095640894940955      3.9971570328576327
   669   3      20.339148868464587      10.025299238718691      6.0830439597439794
   670   3       22.54458025904885      8.1740819412243937      6.0229786407865813
   671   4      19.989475753881006      7.9379345473853196      8.0378998608932228
   672   2      22.269653038319674      10.009352249443261      10.245433706757995
   673   3      22.397517866845632      10.251209869881601      8.0886817157335766
   674   3      20.352143111560633      10.089087595880269      10.003163256197256
   675   3      22.473727509862456      8.1269233817222997      10.033412587290904
   676   4      12.388885066120574    0.046374260869963053      11.865940604899393
   677   1      14.167976275371316       1.999478840714995      14.189162380348433
   678   3      14.180516070871468      2.2960963417887865      12.195270561626943
   679   3      12.138955082350286      1.9714531977996013      14.191654167407744
   680   3      14.256742221990333   -0.056247654122478521      14.139324591609817
   681   4      12.326712530330385    -0.31411448083474425      16.081014223625406
   682   2      14.174788919030661      1.8619396267972437      18.245174241243408
   683   3       14.10567873705423      1.9451835438273473      16.259892547579348
   684   3      12.172428055344847      2.1886040872788501      18.269022852234837
   685   3      14.202953485497458   0.0069157764625047118      18.473779429595446
   686   4      12.198501334835091    -0.26003346882932576      20.476975517444014
   687   1      14.100980665205789      2.0148012450933144      22.247697447649909
   688   3      14.140365688013087       2.395914042470713      20.178240636184483
   689   3      12.057882300029576      2.1913325473627601      22.148542911332502
   690   3      14.102365859276581  -0.0070342077980849269      21.922686019547076
   691   4      12.366902563840899      3.7671343978701497      11.920265445269713
   692   2      14.084939270339163      6.0240204787317122      14.105064815732307
   693   3      14.156995597976618       5.850799299568437      12.227143646099186
   694   3      12.187408947430196      6.2635836748307412       14.27857317606456
   695   3       14.11699022044519      4.1327735204774747      14.572539047539255
   696   4      12.210274020067242      3.6700601571859752      16.238520582230134
   697   2      14.064912550303767      6.0761110791440416      18.209101962675163
   698   3      14.137251011629035      6.4228776771648537       16.27486352924306
   699   3      12.134465691617944      6.2432941033926967      18.256092008158816
   700   3      14.101221677569598      4.1710182660400399      17.927053350936447
   701   4      12.020842745564359      3.7051835087384433      20.168169874502315
   702   2      13.975403503158606      6.1026520394231385      22.314407463351106
   703   3      14.224095847381287      5.8660618600213787      20.205955140668742
   704   3      12.094964650251717      6.0750439223927541      22.303004060397001
   705   3      14.375375144010125      4.1360468630761851      22.357231935227492
   706   4      11.901021159013967       7.856192478512102      11.893232098080308
   707   1      14.124008987898934      10.138772680491806      14.145212695835992
   708   3      14.307462552851481      10.325407967208346      12.108626435504672
   709   3      12.087092546585128      10.292040629933211      14.130025744540214
   710   3      14.376865083640794      8.0609984143996414       14.06443540956953
   711   4      11.993581958665768      7.8856039985594597      16.012615336856694
   712   2      14.034847360649131       10.04520802246207      18.183293468560588
   713   3      14.201107787381417      9.9997540836780896      16.257321505029644
   714   3      12.155105438238126      10.125697836689993      18.336861378390733
   715   3      14.232597969195798      8.1310005601757194      18.455732850559432
   716   4      11.804863427403385      8.0800247165086194      20.118202626318237
   717   1      14.061194617473925      10.091272397487357      22.267708399009781
   718   3      14.288058317306556      10.307084793451539      20.179911975417838
   719   3      12.064262221978895      10.418008744476786      22.240570488329645
   720   3       14.19039405242186      8.0370746436284382      22.049387440827235
   721   4      16.190105674484872   -0.001015096410629687      11.791086694273899
   722   2      18.109061163783728      1.9017375649740862      14.166466417778127
   723   3      18.216158397014702      2.2910531105272032      12.240110486871696
   724   3      16.230804167172909      2.2130722580953144      14.290593081078217
   725   3      18.135829444813986    0.035156644088173233      14.088555832859807
   726   4      15.949177711673199    -0.25594361949336131      15.992700475778975
   727   1      18.102023575340198      2.0708583506035154       18.22823584510877
   728   3       18.48281611320024      2.0740460561691307      16.143200650720317
   729   3      16.094122242043749      2.2405522966507823      18.174279026243994
   730   3      18.329801893542914  -0.0020772514950197041      18.282251875086974
   731   4      15.928652280021291    -0.19228641822381906      20.418964670228885
   732   2      18.065707864935817       2.025913917866176      22.288886683892986
   733   3      18.363552033784988      2.1383981930859037      20.319928935189232
   734   3      16.202467886173309      2.0236919557951492      22.217665369262395
   735   3      18.346884709255132    0.098069213060949442      22.245630014803826
   736   4      16.027356808213174      3.7463083680646747      12.043962093396534
   737   2      18.176585774294086      6.0480317257904659      14.079296128145753
   738   3      18.260361432795865      6.0100437973191392      12.150247397631508
   739   3       16.22622420606389      5.9910093465102303      14.319640061431592
   740   3      18.435100560662377      4.0927765721774811       14.31771815105243
   741   4       15.97610787068858      3.8268951340779611      16.178823779369036
   742   2      18.074351300456154      6.1189294676918022      18.189073346752583
   743   3      18.374666730765671      6.0714716358708296      16.263407952656355
   744   3      16.203550995034941      6.0304596662337842      18.229097804652941
   745   3      18.461220717297245      4.1372083723062421      18.182856024670727
   746   4      15.863871510078509      3.9493918657161884       20.36427406809748
   747   2      18.124832770189688      6.0882234921033369      22.211740935235877
   748   3      18.361860310706902      5.9816849650248365      20.265789092027621
   749   3      16.248189867612783      6.1420277942412094      22.209278211786209
   750   3       18.27858979941778      4.0703466498602898      22.414952259883613
   751   4      15.883386152519705      8.3954392743082717      12.269067462366415
   752   1      18.198811293644336      10.095599834491196      14.131153344345973
   753   3      18.407217794678836      10.169659805647514      12.076965825652389
   754   3      16.206116030803177      10.150967477796456      14.314787822123712
   755   3      18.176507684291323       8.034381592453272       14.25412313949888
   756   4       16.06203329048736      8.3037742348943766      15.834557577379915
   757   2      18.108944057104146      10.252539485452505      18.273980231436045
   758   3      18.399290531719018      10.054802935468475      16.301970910637415
   759   3      16.216563489450689      10.159805137511645      18.194473723631344
   760   3      18.346604001145835      8.0482312071400379      18.303979011846963
   761   4      15.972461920642777      8.3795789142165411      20.480466864060833
   762   1      18.226516846708066      10.134058070320338      22.278416339716884
   763   3      18.317572562656224       9.990260781108816      20.204730507472075
   764   3      16.190736854117901      9.9469643621467085      22.217932841991779
   765   3      18.432503957420604       7.997196987312071      22.238027255808245
   766   4       20.00777480389312    -0.19746209052087232      11.898481986953124
   767   2      22.201596909589725      2.0728470456339068      14.158358953135698
   768   3       22.58105760326999      2.0643809480991591      12.197256700195831
   769   3      20.303366792214298      1.9543516959557594       14.04599784552004
   770   3      22.524635142370567   -0.027248280513800991      14.177006175697477
   771   4      20.167170028663865     0.40216187083728105      16.501381949000066
   772   1       22.33911490965998      2.0512810654893308      18.218953459892099
   773   3      22.236487586551718       1.821196946204181      16.155979561581852
   774   3      20.310448684284232      1.9352975597981281      18.346545783760973
   775   3      22.520468777447885   -0.025952962617651645      18.293687733177485
   776   4      19.997686141118685     0.26455877959209934      20.028603123296993
   777   2      22.222101693225628      2.0093369847375668      22.263101809250688
   778   3      22.540369686727427      2.0707277679864009      20.364888745594907
   779   3      20.350507940844729      2.1616562001090922      22.239474071752099
   780   3       22.43349841210728     0.11303372623957059      22.381758338465492
   781   4       19.99395917309274      3.8333170990639376       12.00205328910482
   782   1      22.207843330324121      6.0097945415014182      14.165594492998867
   783   3      22.384838742104641      6.1416699440496094       12.08727387854853
   784   3      20.195844406137134      6.2830706239148029      14.179778082800336
   785   3      22.351604474615101       3.968030082138204      14.279771283585029
   786   4      19.947321399083989      4.0380597987175415      16.227035032863299
   787   2      22.210687493205818      6.0251356940110696      18.175929853677967
   788   3      22.388918762784975      6.0959923270894718      16.288195593644303
   789   3      20.338286120933052      6.1330719384701826      18.332002758606833
   790   3      22.347763834065727      4.1194121729587048      18.404656856933634
   791   4      20.051678578042154      3.8401256755297113       19.93582559056113
   792   2      22.205811971329606      6.0727068966752551      22.226346665401302
   793   3      22.432924453376767      6.1537613288194564      20.337358481812608
   794   3        20.3399072381468      5.9922301491498162      22.353748491067307
   795   3      22.545835811710109      4.1150733675573461      22.347794095556132
   796   4       20.39467144125112      8.1672405597188522      12.644023096951356
   797   1      22.312486621410049      10.120807675462695      14.170348742385544
   798   3      22.303240095763996      10.185576847075286      12.114214161727224
   799   3      20.272419458460227        9.98483311347883      14.293914995771175
   800   3      22.462689271920546      8.1029090790693772      14.133107371685622
   801   4      20.005070372333897      8.1840711400705306      15.973211077188598
   802   2      22.285060573435455      10.081178554105572      18.136220434108452
   803   3      22.419891339321957      10.215024945640449      16.252508416518786
   804   3      20.344734300592719      9.9946503110116005      18.295053295407342
   805   3      22.507925397009938      8.0866683685054195      18.315546710039808
   806   4      19.976485664188179      8.2825802963228146       20.18557732053894
   807   2      22.148717522600283      10.160647159277557      22.245936975232592
   808   3      22.331400687223063      9.9912974487273711      20.339239306878767
   809   3       20.28809592112659      10.045103753230315      22.377502103839547
   810   3      22.373316127223241      8.0637317609134769      22.474821937046297
   811   4      12.270188929670736      12.134064851552761    -0.42327919543498083
   812   1      14.149755662316657      14.169581342147689      2.0403145730033456
   813   3      14.327603649084622        14.3019180935935    0.018610452844372079
   814   3      12.096363939171761      14.333170080698407      2.0257644648970965
   815   3      14.338480070702696      12.091517005275906      1.9618978515452807
   816   4      11.903002809531458      12.112564857218779      3.8565124354239657
   817   2      14.039641867586697      14.242318465420638      6.0862824509366122
   818   3       14.21063549203344      13.976892304911644       4.125938146680598
   819   3      12.154540003813207       14.20766181356262      6.2958340863642075
   820   3        14.1792387115387      12.195760411015355      6.3478021337882735
   821   4      12.156006209688005      12.077696272028041      7.8379351522746417
   822   1      14.163647976269829      14.164686726800856      10.096253540129473
   823   3      14.465531682708086      14.282930453566184      8.0535095475627045
   824   3       12.15768591745266      14.376357235749623      10.121971697093754
   825   3      14.329136037278873      12.084486227134148      9.9982405707253648
   826   4      12.322321519930975      15.827758818900948    -0.14478428041098865
   827   2      14.201333508098182      18.222419924920665      1.9217000263448805
   828   3      14.139587364156958      18.111997351355654   -0.011777386305219033
   829   3      12.197591673906119      18.113903238901084      2.2575673089510371
   830   3      14.250872749537647      16.244807763451394      2.2674798545389967
   831   4      12.075565063933837      16.196302136931575      3.7125705773711513
   832   1       14.19865770268887      18.168552934685657      6.0395244879370464
   833   3      14.290012992378443       18.43710613627135      4.0185791761879619
   834   3      12.102859049184195        18.1414454492201      6.1476113540551722
   835   3      14.346167867704381      16.133304154602691      5.8819411364748646
   836   4      12.067897492774549      16.465399015051194      8.0152343989064061
   837   2      14.272743031775398      18.257633400367954      9.9590697031218145
   838   3      14.115804344620276      18.039921838229628      8.0893273737549158
   839   3       12.20301319766077      18.020431417448076      10.210847736776719
   840   3      14.309369223810805      16.263537393067843      10.394629728926573
   841   4      11.883279329632984      20.072378407360578   -0.097205802488810583
   842   1       14.16332088076849      22.212553094763351       1.967433362385602
   843   3      14.162614718112129      22.614772566154659   -0.064190198134844653
   844   3      12.131164470937341      22.498468182499547      2.0189285255066869
   845   3      13.958013531563216      20.195510943658505      1.9418321767009958
   846   4      12.365866373141317      19.989197052333601      3.7844433644750133
   847   2      14.131311185042527       22.22472727113308      5.9302781715603334
   848   3      14.253520593896141      22.184559787460234      4.0345906604600223
   849   3      12.204902664186752      22.403349388501137      6.1508528305538706
   850   3       14.10108641393834      20.284516294049549      6.3062846163340955
   851   4      12.262762576821626      20.230465490624375      7.8968620335678024
   852   1      14.188078063161669      22.252324826128323      10.062079193855856
   853   3      14.127231247004781      22.587655958075217       8.061584570844234
   854   3      12.132268902750294      22.530251490880651      10.160496666756814
   855   3      13.928513420758529      20.212240904829322      9.9874170268469271
   856   4        15.7964714627556      12.292683033346892   -0.059084180319009146
   857   2        18.1955454293016      14.338758003878921       2.048116067459925
   858   3      18.027071927147201      14.256051376397986     0.03965686239092206
   859   3      16.259315363895091      14.137142243015932      2.2376321841736209
   860   3      18.275839497409549      12.079564109050761      1.9449426772422878
   861   4      15.840703673722283      12.232356934454842      3.9272943368328184
   862   2      18.206730579557913      14.047088034286146      6.0566261420006455
   863   3        18.4567017811247      14.030909376058515      4.0417631585710971
   864   3      16.274339730614106      14.059520262927526      5.9570153595336581
   865   3      18.445733380692062      12.126964860246142      6.1912377196550477
   866   4       15.82319676980608       12.14141344752055      8.0804725521066434
   867   1      18.230490790741811      14.090752388998625      10.135651943868567
   868   3      18.203664332416775       14.33259754685036       8.035804289403103
   869   3      16.222520949881655      14.214875955129578      10.236916088707336
   870   3      18.510000313935258      12.063463362715463      10.072738835458074
   871   4      16.045472679912461      15.839297315175921     -0.1294872325399368
   872   1      18.249599672674407      18.178544155934226      2.0248724312150483
   873   3      18.300161778473171       18.42013747658255   -0.069011959280888338
   874   3      16.183530180531115      18.419071190147271      1.9881467017236165
   875   3      18.239905679226887      16.184907983050778      2.1306995264226547
   876   4      15.903375939299577      16.096409889977359      3.9818288056974489
   877   2      18.189273741766787      18.079194686034185      6.0572017560365223
   878   3      18.164563407786353      18.527714710567263      4.0691412948512173
   879   3      16.252437985430472      18.470348584500449      6.0604485470959792
   880   3      18.129598132180703      16.169347894615594      5.9027735878674079
   881   4      16.238652612207776       15.82471648873833      8.3325953601302718
   882   1      18.214086582814343      18.215165465685715      10.092855881380819
   883   3      18.367791217234085      18.157095804126776      8.0306769104357159
   884   3      16.182620734509268      18.373818253720273      10.218673196384373
   885   3      18.207067538758874      16.194803330755409      10.256508163713356
   886   4      16.406670728679075      20.003946436018211    0.099108676074649613
   887   2       18.11149195772748      22.309518367256413      2.1309942002955347
   888   3      18.211187905067003      22.567919590042742   -0.034634207962608236
   889   3      16.218580305469441      22.398321233418923      1.9188399938720686
   890   3      18.284721173102863      20.396282213318123      1.7930869413584869
   891   4      16.177012623982318       19.90533339101998      3.9954724119319986
   892   1       18.19258848531349      22.268517113211214        6.04801826270905
   893   3       18.28988492294776      22.231737341163868       4.004908329239222
   894   3      16.163347967791648      22.162841568894194      6.2655219709201351
   895   3      18.337685536564859      20.244228066071372      6.2836992134392107
   896   4      16.240177270382091       20.23450587332411       7.682646870847365
   897   2      18.131630155780496      22.206881389137525      10.081245944940267
   898   3       18.32808785234781       22.46263473865821       8.131232966369911
   899   3      16.223861271976762      22.264398496341222      10.155956271467391
   900   3      18.462236919376576      20.284350398838885      10.008386453943569
   901   4      20.382677818009945       12.38860551261102    0.093130671088382536
   902   1      22.258761068922748      14.169422245013225      2.0505198151816089
   903   3      22.370240215020498      14.173143864075216  0.00074395372813120409
   904   3      20.181181144680227      14.090846731130066      1.7293483281237221
   905   3      22.258808426543716      12.065670882274512      1.9166556050722285
   906   4      20.486680364715237      12.411748499605535      4.1288804637958547
   907   1      22.262141911542439      14.122946498353407      6.1552098839687766
   908   3      22.042573679771706      14.157014604630053      4.0316290762260341
   909   3      20.203972145028711      14.340937387469166      6.1331985914315821
   910   3      22.223749455120661      12.093269472125469      5.8657862037421342
   911   4      20.050281797316369      11.983094178388473      8.2528973613758669
   912   2      22.318980912159976       14.08590955562387      10.080248096135863
   913   3      22.423535293389946      14.325700413397595      8.1768760457547955
   914   3      20.327707902206328      14.425253958788124      10.059853928038738
   915   3      22.137145037665771      12.190053946317535      10.096143356240294
   916   4       20.40935989803101      15.855914136848753   -0.052973292437295844
   917   2      22.211204507511134      18.124097016924814      2.0400931111818785
   918   3      22.264433032382772      18.448269042271686     0.02554912200250279
   919   3      20.309370451461842      18.468263401319025      2.0240352114711953
   920   3      22.237715805450616      16.252118723504516      1.9333726362695431
   921   4      20.586285387331259      15.971056838651334      4.4022285681951816
   922   1      22.212669187345064      18.232185267585269      6.0655510292758983
   923   3      22.363427177887509      18.334788653886243      3.9647346916461941
   924   3      20.195444012536278      18.266882378923793      5.9082645981123711
   925   3      22.433107232288016      16.203542709508778      5.9947179764345391
   926   4       19.96485675611898      15.990227260028087      8.2705198586119426
   927   2      22.161736267273742      18.301915387651501      10.097294625478712
   928   3      22.412620413776892      18.228536892699925      8.1565329041126233
   929   3      20.303825810398251      18.103574938327647      10.170979885100428
   930   3      22.551238092662299      16.283392620301335      10.168629676789166
   931   4      20.070156130963387      20.031423693449941     0.12554664718067149
   932   2      22.211776791871831      22.211601404500321      2.0023676981272605
   933   3      22.482425514325101      22.342061000939001     0.07490960731765843
   934   3      20.317490144739367      22.355971594438319      1.9566834735822984
   935   3      22.392429972718855      20.336879641952461      2.0291547518555855
   936   4      20.039310777717329       19.95055020162788      4.1525551842630151
   937   2      22.141050263502134      22.264986443650319      6.0627872862089687
   938   3      22.383343183059271      22.445607146912337      4.0309533806361619
   939   3      20.268230218506588      22.524841181683428      6.0559279395542251
   940   3      22.253769521350009      20.346901188350742      6.0782690986475663
   941   4      19.921341400213986      20.065186962055556      7.9782312488006291
   942   1      22.249510137824767      22.232185808406747      10.075441446844673
   943   3      22.291886461250904       22.49264002633161      8.0246595076533236
   944   3      20.242059854224326      22.576428418663287      10.095695938846683
   945   3      22.280569905645411      20.218728015783341      10.200195454573675
   946   4      12.077673368279486      11.849728979316737      12.204570837646939
   947   2      14.027257980182158      14.255736663750652      14.115834394508145
   948   3      14.191152537255528      13.939830335587198       12.21344438076499
   949   3      12.152089850128444      14.182922102481156       14.30375266499099
   950   3      14.164033890428485       12.21860257017217      14.464792700742898
   951   4      12.045118674868755      12.042478960854014      15.835988368953638
   952   2      14.123053128637213      14.052892235837048      18.232137155471715
   953   3      14.315230465914459      14.390807418745045      16.217568888078933
   954   3      12.183259796857591      14.340497349417404      18.210625488068402
   955   3      14.171524832973091      12.153319277340813      18.058463941270439
   956   4      11.944309770118378      11.876732716248595      20.187082992054485
   957   1      14.137385091468744      14.168759665932791      22.207463077556646
   958   3      14.275934399662482       14.11828446621816      20.170187578935348
   959   3      12.094665344606067      14.123939449142441      22.545511676071634
   960   3      14.307372881513716      12.151952284423031      22.424973021273665
   961   4      12.458470074696326      16.377089186383394      11.910042553449985
   962   1      14.187960608568718      18.185291079952055      14.151407646037049
   963   3      14.123971724320505      18.509320365435208      12.123662644310462
   964   3      12.093648204881408      18.185287896902452      14.242213977048602
   965   3      14.207195797417398      16.155814586857737      13.999035148095089
   966   4       11.99328138157018      16.419406138663582      15.997707696151112
   967   2      14.098529875060962      18.224832783381917      18.100938952028539
   968   3      14.177494616613178      18.083224928238856      16.223308918295317
   969   3      12.209203782663046      18.143124305873098      18.346643224324936
   970   3      14.312566035506503      16.254486976125747      18.388901943600725
   971   4      11.899322513548277      16.214533828471584      20.043558152377699
   972   2       14.14133765891685      18.134932112235269      22.174962600345253
   973   3      14.350090915462985      18.389361482787901      20.288090258194689
   974   3      12.244577453305077      18.332368231845464      22.199232696799154
   975   3      14.171318355622645      16.245739611329512      22.242719965550794
   976   4      12.381158969726416       20.07009174816017       11.84567905233232
   977   2      14.172673881244352      22.265679444520337      14.023039150936878
   978   3      14.115634323734856      22.053287476766211      12.147978705125173
   979   3      12.187027824614091       22.28458650372438      14.389672318751304
   980   3      14.092299316208154      20.288871247085048      14.468861047765403
   981   4      12.133728247666889       20.26053560000851      15.863248451955947
   982   1      14.159016819937968      22.218635466428278       18.25323626603203
   983   3      14.200020616263677      22.515855610504143      16.228559726019398
   984   3      12.139072676388331      22.358881065506814      18.186980844960342
   985   3      14.313124564369611      20.176988651980302      18.150590165697452
   986   4      11.777171710351777      20.133088522672978      20.280178841919518
   987   2      14.164019442752783      22.149581651785887      22.291124068514627
   988   3      14.331641032450106      22.154014603831207      20.311716833674325
   989   3       12.20993818996679      22.351775177030298      22.259281199051763
   990   3       14.29226097712391      20.247843278910736      22.483628108928162
   991   4       15.86991927702319      12.258504176492727      11.883093454949307
   992   2      18.161380275322951      14.141696821568594      14.213033572358308
   993   3      18.465608992358277      14.119999855044886      12.235372775041702
   994   3      16.252004929559916      14.098378394590751       14.19556937528894
   995   3      18.452955121219777      12.209620811716714      14.262185730012748
   996   4      16.000774278406972      11.899150977915266      15.851739806046712
   997   1      18.192837906125131      14.107446914814632      18.216753100857748
   998   3      18.244635889272686      14.388846644024348      16.161287497185246
   999   3      16.166790630960389      14.351880309111829      18.215422196678798
  1000   3      18.418653965097246      12.101344778747375      18.234405505578369
  1001   4      15.906693441335129      11.937589684428856      20.677615710942515
  1002   2      18.230895680159186      13.999704681173537      22.207171337554335
  1003   3      18.359786131811049      14.222629976458357      20.315254826559752
  1004   3      16.266974751103874      14.372485219211582      22.254535402907159
  1005   3      18.118794164906404      12.148056766322105      22.347032628889899
  1006   4      16.292937594276278      15.977566916155817      11.765161878562314
  1007   2      18.109591793712429      18.204344276993169      14.121522671552084
  1008   3      18.252519443817906      18.462352330077085      12.204400293001779
  1009   3      16.241209376370456      18.460836949216112      14.193243198892834
  1010   3      18.227282280321866      16.257170825186076      14.088959342304939
  1011   4      16.153007134574274      15.887407655221407      16.370801861136069
  1012   2      18.243163606440053      18.136358704796208      18.165151616979646
  1013   3      18.310174055116367        18.3182328175767      16.233232412909718
  1014   3      16.276712609893192      18.321130427974911      18.288168030047409
  1015   3      18.225452665440194      16.266005195807455      18.294825042198291
  1016   4      16.101105812808157      15.822515847031408      20.107222161786581
  1017   2      18.160634285890715      18.085793022255448      22.258640222106159
  1018   3      18.231704685345129      18.446514483854784       20.32044534611563
  1019   3      16.229873946863371      18.256496451800558      22.404039620607783
  1020   3      18.358950277987063      16.244290924435369       22.31131072307992
  1021   4      16.091989118297679      19.972364385430396      12.065459816763434
  1022   1      18.200616482108725      22.277761549920825      14.163897040411618
  1023   3      18.391840014934306      22.132151520935832      12.104823331732327
  1024   3      16.141758229898812      22.169949077767573      14.353906513812134
  1025   3      18.470345855228128      20.204441692121257      14.268407068984748
  1026   4      15.933054176721745      20.308319966705259      16.010696488257551
  1027   2      18.098794405241865      22.345757234147989       18.13948125854327
  1028   3      18.310520294399012      22.238419586958507      16.257711867364446
  1029   3      16.224479439641044       22.28633742778851      18.221739366935896
  1030   3      18.352911841830363      20.344593247824079      18.330348694330542
  1031   4      16.039732071567546      20.191298956884314      19.957443088448514
  1032   2      18.367989143394318      22.221645357149228      22.220270416797661
  1033   3      18.199219934021858      22.353275276352768      20.286497313777542
  1034   3      16.198570860377579      22.567378212561206      22.353519789508294
  1035   3      18.116518936678947       20.35305594542103      22.392986438308458
  1036   4      19.934421078993225      12.042478603244874      12.131957763805847
  1037   2      22.233071345396727      14.094169786508459      14.141094117226107
  1038   3      22.170978300627123      14.346376519449462      12.179807837093531
  1039   3      20.300058485357038      14.354526252273198      14.328704751086109
  1040   3      22.210410301389516      12.219772246162425      14.205621093334541
  1041   4      20.108867250980484      11.778074457994451      15.937315491748004
  1042   1      22.323318800475793      14.110900209101869      18.161477421339125
  1043   3      22.378135891100857      14.354094843162654      16.136848318023429
  1044   3      20.262174782989085       14.26664326393186      18.245458286468811
  1045   3      22.279164434671003      12.062970266901081      18.454420475462193
  1046   4      20.387968754455933      12.469452093269632      19.903326316397322
  1047   1       22.25717851673452      14.110076191883747      22.260811309882889
  1048   3      22.138192764896061      14.275269829595471      20.285008273925172
  1049   3      20.177976332963738      14.144102673944449      22.606272675755594
  1050   3      22.369617909226513      12.059755033306811      22.338306206008664
  1051   4      19.965634039218212      16.019532399256487      11.888662046282665
  1052   2        22.1841014046216      18.161220668820512      14.159812201516115
  1053   3      22.426690902477713      18.310493357151838      12.201973064916306
  1054   3      20.306486944747824      18.229526743891853       14.22098338966914
  1055   3      22.497461845937693      16.281436569901523      14.217474927810517
  1056   4      20.270239201032783      15.768350487772224      16.414707017280232
  1057   1       22.24266347310683      18.252594669687156        18.2116311424221
  1058   3      22.455241389878804      18.273697093157693      16.159595244705645
  1059   3      20.200303079873475      18.327108246975587      18.398638445685712
  1060   3      22.404910194861888      16.224126135248873      18.258632608661273
  1061   4      20.459893524082073      15.910630443372463      19.919796943828064
  1062   2      22.154485031064649      18.240534958444737      22.218059405219055
  1063   3      22.356454698793172      18.298440972803199      20.326507258759793
  1064   3      20.237994821950473      18.456544034390074      22.296094600206455
  1065   3      22.226298033528941      16.313160884462214      22.462263929143795
  1066   4      19.903078930333194      20.292885604453691      12.130661470259026
  1067   2      22.171025200209471      22.298359049663325      14.124036926886861
  1068   3       22.38357594463049      22.274204489494984      12.227889986317694
  1069   3      20.314526427167532      22.310829057857156      14.250623800973752
  1070   3      22.316802152138159       20.30573610669083      14.329340043339378
  1071   4      19.975561712132507      20.324104172056078      16.026108807148027
  1072   2      22.185804291915634      22.302723092030501      18.245903735658139
  1073   3      22.439153042565362      22.335062020648163      16.267145362264451
  1074   3      20.295301818946005      22.363790865286756      18.339493093043384
  1075   3      22.360586806995876      20.340192259621965      18.317998093510273
  1076   4      20.126708629900374      20.076821763912204      19.997597655266585
  1077   1      22.240596450743574      22.289026374370682      22.280803871523958
  1078   3      22.511152827628496      22.332591933197619      20.234377616141074
  1079   3      20.224707639971676       22.29075444817158      22.333115028266032
  1080   3      22.533937094062527      20.241318595875789       22.29480628793419
