(written by ASE)

1080 atoms
4 atom types

0.0      24.299999999999997  xlo xhi
0.0      24.299999999999997  ylo yhi
0.0      24.299999999999997  zlo zhi

Atoms # atomic

     1   4    -0.14487637703040956     -0.2596104900477425    -0.13370837777696984
     2   2      2.0362032162040977      1.9124298740237688       2.032026911634345
     3   3      2.1326369517526707      2.1564909468792437    0.086054011647382161
     4   3    0.051813629940308678      2.2840010845144056      1.9544877965883127
     5   3      1.9617966424970992    0.055734059217403778      2.1142633560900115
     6   4    -0.23224331184696567    -0.10026801964132365      4.1683533893035536
     7   2      2.0951212767945728       1.903325746360665      6.0990217202938881
     8   3      1.8790863546903065      2.1934345556736896      4.0568313678128574
     9   3    0.054671091879002182      2.2814210548439728      6.1170087822553167
    10   3      1.8411086260310576    0.023504983938492423      6.0694303911370531
    11   4    -0.23779540434134019    -0.11255096986817444      7.8374575398306234
    12   1      2.0406891885041185       1.983619570707525       10.04792271255136
    13   3      2.0197113990645263      2.1602694568592793      8.0208642032787427
    14   3   -0.033221613645472221      2.3007054609134525      10.083649387289002
    15   3      1.9456230283419864   -0.061234953084239291      10.307952404105507
    16   4   -0.047925494185390917      3.8444827489037423   -0.047238748401779482
    17   2      2.0197883858514607      5.9859168155537441      2.0580496503785146
    18   3      2.0500095655298489      6.2874255784562356     0.12178330394316059
    19   3    0.048003559382769248      6.1865993162590662      2.1816574402403122
    20   3      2.1340445750266293      4.1250944181298488      2.0754295276379415
    21   4   -0.049259370242638524      3.7154974134510357      4.1633474424174599
    22   2      2.0339040582511179      6.0036543205627559      6.1147201246910949
    23   3       2.076963372859824      6.2672468449093799      4.0903309655853555
    24   3    0.022204591757310335      6.1530411511378977      6.0101445955074961
    25   3      2.1027380241562641       4.132953158914864      6.0550638951699804
    26   4     0.10455217154990339      3.6811694414787612      8.0789903767252174
    27   2      2.0720731896911309      5.9985283759606904       10.20692486934238
    28   3      1.9857938856620732      6.2423826880017685      8.0588100330049688
    29   3   0.0033350540708642104      6.0645649730303237      10.030476742027675
    30   3       2.083216822177854      4.1086181589281283      10.121022518597647
    31   4    -0.14933542912964687       8.015240576166379   -0.068168903576156847
    32   2      1.9567769650434121      10.086051062901802      2.1119808025307449
    33   3      2.1193757379345231      10.272477769895941    0.087573085076841944
    34   3    0.068023729466265809      10.366608691504398      2.1102844272156558
    35   3      1.9856670253108386      8.2162571428961471      2.1344315628065038
    36   4   -0.095659960580542755      7.9042276400003137      4.0928825756434408
    37   2      1.9883696995416291      10.087170463141783      6.1473642322871926
    38   3      2.1322354914831316      10.347843347433384       4.044121600448344
    39   3    0.066503017332932943       10.36176509817998      5.9755366332671267
    40   3      1.9174575810507419      8.2047182831501289      6.0271085941815459
    41   4   -0.093868205209879388      7.9318116738982019      8.2463705058649239
    42   2      2.0532250502091216      10.048787610230228      10.169172096785035
    43   3      2.0123526975916737      10.236892880930524      8.0672623211966137
    44   3    0.077060126795302414      10.384997505696875      10.055553713710031
    45   3      1.8520838902594217      8.1775612566593932      10.051620953658286
    46   4      4.2244772184851067    -0.31555154737207997    0.084353428280535603
    47   2      6.2146338860405343      2.0244528086632587      2.0252926677062102
    48   3      5.9216006494316495      2.0159258525999144    0.046933103694664496
    49   3      3.9958768484557488      2.0443695894442175      2.2052630359827026
    50   3      6.0450328930248309    0.073857539330598493      2.1805016899293426
    51   4       4.357439351896101    -0.20364433785487754      3.9298364631377809
    52   1      6.1150915583348002      1.9653584565030799       6.050820218450097
    53   3       6.099801983495075      2.2277303902012986      4.0269933226007781
    54   3      3.9990450965421149       2.024147863706705      5.9647301861760464
    55   3      5.9926006043858431   -0.066825194745019453      6.0718988448153768
    56   4      4.4209858901787111    -0.10549090005376019      7.8958680111907231
    57   2      6.1656629017383962      1.9315830422390592      10.072860138841204
    58   3       5.901863801513751      1.9897112545190723      8.1116733967492269
    59   3      4.0607794211592632      1.9332765402051066      10.324745722493423
    60   3      6.0856808336718879   0.0012079284798462108      10.170042648869499
    61   4      4.2603165673756003      3.9195104852822995    0.074535299673746308
    62   1      6.0603686440759308       6.019773932969585      2.0704424836000812
    63   3      6.0386861421168714      6.3368443093330749    0.033487474165991439
    64   3      3.9823304675520719      6.3466136582069668       2.074591445079506
    65   3      5.8536230950445027      4.0109331290079853      1.9676726017473301
    66   4      4.3286512152717345      3.8240334417272468      4.0221373498383324
    67   2      6.2057062808589265      5.9954716688839849      6.0989452229097285
    68   3      5.9148727078624672      6.1039476206894561      4.1384843383580465
    69   3      3.9891070462592166      6.3484862564732758      6.1076675050512446
    70   3      5.9162727286413093      4.1061233587348083      6.1892045553833386
    71   4      4.3192453757994382      3.8319418810481358      8.1217528035087003
    72   1       6.095832435507992      6.0128051256455954      10.083631689924456
    73   3      5.9445977627672288      6.2542198863805938      8.0329140202472544
    74   3      3.9717640715690536      6.3039593143347483      10.038333676252648
    75   3      5.7931107323768725      3.9994434405206545      10.013803909758778
    76   4      4.1237161535928006      7.7655371007039502    0.094492569828169323
    77   2      6.0558488037791989      10.052087491736375      2.0775448124343958
    78   3      6.1818331162426334      10.181360676361113    0.051712434036651468
    79   3      4.0951897194691531      10.253986400753112      1.9888488245438316
    80   3      6.1563937073398307      8.1866515100361088      2.1812117439219914
    81   4      4.1492684318987907      7.7852681718038665      4.0676878425467535
    82   2      6.1128153748157938      10.101998415348389      6.1518864951624428
    83   3       6.040789853272857      10.394980446699066        4.04236797373279
    84   3      4.0329928669314814      10.158409055121696      6.0092636054420465
    85   3      6.1075848537225896      8.1890002638125381      5.9772505323924712
    86   4      4.1960308556505952      7.8221496483641264      8.1814223588851416
    87   2      6.0952532626867209      10.040037509268553      10.243255623678605
    88   3      6.0165100390453778      10.208770778015225      8.0873943688194547
    89   3      4.0176035658529443      10.092439206379662      10.051830399331225
    90   3      6.1457665852227708      8.1600288498984046      10.146179705678236
    91   4      8.1716980020600829    -0.38876798987264904   -0.018141108093188033
    92   1      10.133758711147305      1.9748408480660604      2.0055544062781618
    93   3      10.157762428639986      1.9331396674737957    -0.02982934551398423
    94   3       8.095946510033917      2.1220388901544815      2.0700365106881726
    95   3      10.094646453212398   -0.020379058362194058      2.3048347269142253
    96   4      8.3143261325676274    -0.23353924516047581      3.8548293694522764
    97   2      10.172211501737973      1.8922633135949858      6.0563644645823258
    98   3      10.107952361513144      2.3159819234434385      4.0851187281821142
    99   3       8.144707070250421      2.2597455008928691      6.0434393854941515
   100   3      10.048471298700644   0.0082605287674085461      5.8270451625547004
   101   4      8.4418987709583693     -0.1334339634640315      8.2412344134748956
   102   1      10.164009243959153      1.9554102430081548      10.084526933352064
   103   3       10.01393017175025      1.8022921084775005       8.042200248822855
   104   3      8.0743117954466346      2.1625555804065946      10.083978705679669
   105   3      9.8549181881968497   -0.064659458945272058      10.249372821230233
   106   4      8.2828369164196882      3.9525201254113713    -0.20631795901187489
   107   2      10.087452578005237      5.9071952452650063      2.0385792227519599
   108   3      10.054935381243416      6.3337250801693221      0.0618398103009817
   109   3      8.1208444805547622      6.1785065488085875      2.0561878487414491
   110   3      10.205704442606725       4.041640416555027      1.8497810684843523
   111   4       8.174015300122953      3.7154815757168529      4.1338415380735629
   112   1      10.126988941998569      6.0387988773564754      6.0701891961709897
   113   3      10.154258893341778      6.0420781810481028      4.0134816169784431
   114   3      8.0785288044516523       6.038821220937403      6.0882464029451544
   115   3      10.183381382096316      4.0273886595702368      6.3907225035009985
   116   4      8.3356553014625732      3.7787482135742398       7.914948661409686
   117   2      10.116781144862665      5.8589427559012295       10.12588439816461
   118   3      10.148169010680951      6.3473952928917727      8.1617713280257629
   119   3        8.15057035798357      6.0988987989205974      10.101446190643458
   120   3      10.251777177394333      3.9981009562540075      9.9464956856125504
   121   4      8.0072784541010389      7.7229719836679633    0.079897667402503911
   122   1      10.061663578332858      10.136309420277232       2.029783214719215
   123   3      10.273796748085442      10.133867143381602   -0.047097683763538775
   124   3      8.0367731073245192      10.400228627829206      2.1188685143509627
   125   3      10.077716018766678      8.1351903991331262      2.2980710375149007
   126   4      8.2558659302020594      7.8380250352969645      3.8701738612398029
   127   2      10.214484192442148      10.018538729291054        6.09599837534806
   128   3      10.108205841709507      10.528418534536229      4.1579898089274501
   129   3      8.0447428898723832      10.366001040612025      5.9915971534553343
   130   3      10.037376262045962      8.1618242298106853      5.8761316084156734
   131   4      8.3825075625587111      7.9296941849752214      8.3462386715410908
   132   1       10.11545363329088      10.138026841375293      10.119721035645423
   133   3      9.8755581056806871       10.06834283486524      8.0452566976588127
   134   3      7.9947221917630031      10.378454052370737      10.119239399877394
   135   3      9.9461803265250257      8.1263753654677284      10.307484392786659
   136   4   0.0076698726223198089    -0.15937547355771028      11.830575443933434
   137   2      2.0739324679051228      2.0370198898802063       14.02885057937611
   138   3      1.8344713436562556       2.108993953844319      12.163603470391923
   139   3    0.048930025561228538      2.0724461969730195      14.434741754538818
   140   3      1.9813879616467156    0.049253053589204142       14.26529499564656
   141   4    0.063674050855382483    -0.14073655442185951      15.987449053859359
   142   2      2.0168912633663996        1.97512364121409      18.177698187866003
   143   3      2.1721562083609172      1.9946844919506068      16.302652484341742
   144   3    0.069463597116678349      2.2137273080635129      18.312102460566951
   145   3      2.0385322032246953    0.086357384194266126      18.434224238856849
   146   4   -0.056126924139874856    -0.34408371065914906      20.212656324304714
   147   2      2.0699836201338844      1.9586040005526004       22.27744491221328
   148   3      1.9471902726652142      2.2040613384251464       20.38367063307393
   149   3    0.077600785703808961      2.1341102222061128      22.521104074357197
   150   3      2.1263243940865291    0.085378975186347419      22.333799417711504
   151   4    0.082884460963448842      3.8220234152446215      11.873816628237883
   152   1      2.0357656058976668      6.0454640143601184      14.120442789945594
   153   3      1.9959574117406893      6.1778062371931641      12.084620098519055
   154   3   0.0055341418513287621      6.0511962681332427      14.276434549261369
   155   3      2.0574731565709716        3.99188238314018      14.369675310721298
   156   4   0.0056641990370348482      4.1672238390376588      15.748636292542223
   157   2      2.0456035373323145       6.111064485419174      18.091670925005118
   158   3      2.0772841294776736      6.1406518964404579      16.232592989909858
   159   3    0.052787122263859954      6.0840449565051253      18.388050913181836
   160   3       2.126112912514162      4.1049185523289013      18.384659851922876
   161   4    0.017652490872313034      3.9557559527916464      20.055245055099327
   162   2      2.0309468407387756      6.0122460352573022      22.267572769151386
   163   3      2.0399773441769429      6.0921254245444443      20.385077911118699
   164   3    0.082651080608735342      6.2551090596118692      22.469679980216888
   165   3      1.9916006509691691      4.1325973502271429      22.488078784548254
   166   4    -0.17271855341312448      7.8072305448350789       12.43974125381656
   167   2      2.0749693371547711       10.06912520101298      14.300778893890717
   168   3      1.9682581196475706      10.304284497645112      12.089282709071046
   169   3    0.066351765999440357      10.529564133559241      14.127016961585692
   170   3      1.8001744131561934      8.1760115388265735      14.122286322337606
   171   4    -0.12762334863506042      7.8486243423435607       15.81592322529397
   172   1      2.0306793504767353      10.114005911827951      18.195151407909584
   173   3       1.981315803673604      10.248023304576506      16.181451405416883
   174   3   -0.016667952926249275      10.193439019601021      18.453950600371478
   175   3      2.0027313547750416      8.0710326532687784      18.463062962041381
   176   4    0.079564152752550285      8.1609368124048682       19.93696413239762
   177   2      1.9644458822978008      10.051753790277205      22.288904399975117
   178   3       2.077353554613806      10.261969400744125      20.408674653959121
   179   3     0.06531126261301079      10.172163452141197      22.416775749218161
   180   3       2.122745716417116      8.1676983145006581      22.380952117578566
   181   4      4.0045104405084384   -0.014934103355219058      11.727364693192802
   182   1      6.0649389087172159      1.9404358947085671      14.150313241708634
   183   3      6.1423615387352095      2.2430695875500613      12.098639568555329
   184   3       3.993974732312418      2.0253466182212052      14.173560616387196
   185   3      6.2152250434717056   -0.074651630432579164      14.134874361228746
   186   4      3.8572121145402107    -0.17736050705705064      16.021453299556821
   187   2      6.1043181451012103      2.0669123944114252       18.11100059905872
   188   3      5.9663402368911616      1.9630930767143338      16.251450050461717
   189   3       4.016143083777159      2.0056120742049512      18.515903261598798
   190   3      6.0637089139096245    0.012296620523972766      18.445980337389862
   191   4      3.9797083071542287    -0.19136946491014009      20.029564398993024
   192   2      6.0577194521695619      1.9242181918507066      22.225985016290167
   193   3      6.0995817232256409      2.2121704373355882      20.352639681314528
   194   3      4.0488123684588535      2.2432739872512695      22.337690975356807
   195   3      5.9650894373278218    0.053541115588278357       22.26782311522231
   196   4      4.3169051001468803       3.805700893631915      11.888639886919863
   197   2      6.1610509204427606      5.9799671650834147      14.097291215250355
   198   3      5.9839777731985668       6.036630429959752      12.157298445058348
   199   3      4.0591087280754907      6.2538425994351412      14.210884013236356
   200   3      5.9150317533393899      4.0736707858963257      14.301394075922298
   201   4      4.0930951280351824        3.98319805787713      15.854429060347918
   202   1      6.0403814011119508      6.0324509991574233      18.194384354473623
   203   3      6.0369638814691706       6.277801552149862      16.160490568077581
   204   3      3.9943310583557827      6.1826050188383235      18.383013600954417
   205   3      5.8419039069109235      3.9948483706357178      18.232920086115858
   206   4      4.1425607701290081      4.0842488494365572      19.931777725825651
   207   2      6.1180666549508356      6.0014508737108896      22.235326238255656
   208   3      6.0057520864186609      6.0337175505098717      20.347800769041417
   209   3      4.0401534544545541      6.1376380213852055      22.491279722656078
   210   3      6.0829095506963755      4.0896040564992644      22.549916715719192
   211   4      4.2315850558426931      7.8482621305883713      12.364683389918882
   212   1       6.086580905898539      10.104624141454581      14.126303146035932
   213   3      5.9920256595870649      10.286154468554153      12.102921607584538
   214   3      3.9991068174186108      10.001853268491992      14.052476796767335
   215   3      6.0455090915596115      8.0577591632918288      14.106626139710453
   216   4      4.3006178202846623      7.8634713388637412      15.938079479665706
   217   2      6.0378881416735934      10.168301025919426      18.026373992244299
   218   3       6.037721220361103      10.147686381552369      16.170604608689494
   219   3      4.0941021573609984       10.14186383978566      18.428386585580501
   220   3      6.0555300267326801      8.1965929691896804      18.428585078762339
   221   4      4.0663069697556855      8.0747884985738985      19.882754621917524
   222   2      5.9699360906856471      10.045520207294041      22.266575471423351
   223   3      6.0981955886847707      10.269602882564476      20.388294331167213
   224   3      4.0828013798178819      10.311002805810601      22.429780768785495
   225   3      6.0207003272524329       8.153104625202932       22.28507151294508
   226   4      8.4049036518817992   -0.015094600920387884      12.134965195000001
   227   2      10.221357101836942      1.9892395778251448      14.142793560131754
   228   3      9.9974535580911681      2.0760591926947876      12.177676555867922
   229   3        8.09660399281716      2.2414259202093132      14.171296554559174
   230   3      9.8602384367357114   0.0098061066828486459      14.110990466192357
   231   4       8.417149435528458  -0.0047777775342453628      16.078846838046253
   232   1       10.11640499887088      1.9598886285080241      18.209657877507446
   233   3      9.9515995990467907      1.9033169885193109      16.169452739115453
   234   3      8.0049317022762772      2.1658275979596433      18.301318780707714
   235   3      9.8914861213763121   -0.055879774117057537      18.322043297701512
   236   4      8.4034179984741542    -0.18399318591462585       20.19643367229283
   237   2      10.214620597905984      1.9865776130988115      22.362696756989703
   238   3      10.022611157546697      2.2402834326866943      20.274589344260338
   239   3       8.021222375933645      2.0749493164172379      22.387995921274669
   240   3      10.144142141143163    0.054828747395460981      22.073715700447227
   241   4      8.1051149111171323      3.6546599516785627       12.19935509261045
   242   1      10.159683541197108      5.9752994814366334      14.158595589542887
   243   3      10.142316793012554      6.0767038469824204      12.103760951127986
   244   3      8.0913926055498138      6.0436309871485427      14.251776660588561
   245   3      10.183682038448818      3.9752287024336237      14.409686092837877
   246   4      8.2777013525838026      3.7668445017845817      15.974309644652989
   247   2      9.9818407310845121      6.0096636137065849      18.241080710303684
   248   3      10.120132045612671       6.371051096837447       16.24971584253068
   249   3      8.0731349589236867       6.211511873082606      18.217537537519686
   250   3      10.103666168284112      4.1016374188411744      18.064899934320646
   251   4      8.3044129768712338       3.790834351640251       20.18482205151318
   252   1      10.067614593499149      6.0333664899625381       22.24869523890812
   253   3      10.200365584370852      5.9789135608367054      20.191916588055069
   254   3      8.0219209253466168      6.1622780003134974      22.440315742137599
   255   3      9.9178964607757845      4.0028342074195749      22.404529192645342
   256   4      8.2914880332423877       7.786483580976391      11.985835361060698
   257   2      10.084632345874107      10.008929415679829      14.194684127391413
   258   3      10.116364608996809       10.43656558881497      12.189195090087489
   259   3       8.115965673763835      10.428918934422674      14.109544993627489
   260   3      10.030447748921441      8.1220231851424227      14.008743268986144
   261   4        8.06583387849102      7.7454702630614696      16.055979701648486
   262   1      10.073447502559393      10.112875797587755      18.177666109880878
   263   3      10.035113891848777      10.086782170978346      16.146224303912799
   264   3      8.0160618675940203      10.163889957170227      18.417794638687639
   265   3      10.079632119173525       8.103497429077434      18.501421489621737
   266   4      8.0022785817023241      8.1166080009963242      19.861800349354557
   267   2      9.9725813442379128      10.029181142283127      22.304580969082693
   268   3       10.19937852873244      10.369446169312157      20.359534239135783
   269   3      8.0836293756418769      10.171708884824479      22.353348588825401
   270   3      10.203521932326256      8.1596667950672526      22.135502824703899
   271   4    -0.31714408128491095      12.093325085932316    0.059690942742427498
   272   2       1.885940394262597      14.121237011665446      2.0937039957035055
   273   3      2.1157577247550443       14.36546722944281    0.036446699757891242
   274   3    0.028025430541156464      14.158500069898071      1.9824091023494961
   275   3      2.2021571221540972      12.247821597921835      1.9285567055221942
   276   4    -0.25506549464140216      12.163060289410767       4.176344814121645
   277   2      2.0019764806685076      14.187095663115441      6.1946739210309794
   278   3      2.1344623676635508      14.202621639804413      3.9887235711729931
   279   3    0.025738372730124928      14.211848026526326      5.9407197922231854
   280   3      2.1685314288964772      12.251295977737346      6.0406498553835002
   281   4     -0.2846366358054081      12.066846290848273      8.3148169047253564
   282   2      1.9924826805578619      14.090303756312283      10.235143597784251
   283   3      2.0359028357066098      14.376152024787419      8.0877495103541523
   284   3    0.055469077828123374      14.203998392363546      10.032393528446274
   285   3      2.1596922365216407      12.222857106258127      10.028820812275043
   286   4    -0.34968855963201312      15.910418561885965   -0.085368014015064025
   287   2      1.9540725810165633      18.121530350935448      2.0282542712032239
   288   3      2.1988973231455806      18.286161812186894    0.026967798258861041
   289   3  -0.0011108340166754375      18.356190747015123      1.9029410404898048
   290   3      2.0771031146429708      16.227691892766604      2.0128722549014793
   291   4   -0.017920033057397301      16.348000056585885      4.4760952542957186
   292   1      2.0642843718956208      18.217435322425853      6.0624479340052417
   293   3      1.9196991563203898      18.389753939289694      3.9443863610097001
   294   3    -0.02094755461315467      18.350244047984287      6.0033340542692519
   295   3      1.9578569216556383      16.195190831390811      5.8259928015723697
   296   4    -0.24479513199014014      16.037140550903199      8.3018485727757518
   297   2      2.0653062634987989       18.17121367265144      9.9753474935045698
   298   3      2.0023440153714334      18.355619967086518      8.1074683070147824
   299   3    0.070404712758779367      18.493795880508227      10.122463188520642
   300   3       1.821100790197641      16.287925234067039      10.116991349981658
   301   4    -0.28350661826344031      20.126294714619281   -0.099661664985491519
   302   2      1.9853782031525391      22.180610715344741      1.9920301665331526
   303   3      1.9799784862375855      22.490927393510336     0.04757426993449633
   304   3    0.019275621597585571      22.392217303432368      2.0757192983229493
   305   3      2.0579690674180915      20.309644624634007      1.9215651290406102
   306   4   -0.079448404918856561      19.913069139276626      4.2473878524691768
   307   2      2.0592678452389834      22.153911946146938      5.9517632760855879
   308   3      2.0195552478525167      22.349567168141785      4.0311335969336533
   309   3   0.0012871638597875333      22.278606371376522      6.0591132680460191
   310   3      2.0310939618434114      20.295134432956001      6.0625309705770531
   311   4    -0.03164511326495887      19.849828441459611      7.8391285388987173
   312   2      1.9936155003162983      22.285526060915036      9.9437868742099074
   313   3      1.9743732479000513      22.353510025669479      8.0625691189529523
   314   3    0.072807110635155742      22.197549105349825      10.298149265724291
   315   3      2.1804380106025376      20.303085561278039       10.22952724052281
   316   4      3.8806445846462183      11.977035432571926     0.11701096817510842
   317   2      5.9747111715672263      14.187047601779428      2.1450537353539891
   318   3       6.314224893524905      14.354913100903353   0.0056922287418587113
   319   3      4.0947109694291575      14.368267681113425      1.8717736203634345
   320   3       6.076745975242523      12.249886470011521      1.8229471095034275
   321   4      4.1036053501516552       12.08631666105094      4.3431284596145332
   322   1      6.0936889873659359      14.159211125843358      6.0947717901484166
   323   3      5.9993565121200181      14.121467578697724      4.0162186981036774
   324   3      3.9813776174063649      14.395705428483341      6.0376554979225601
   325   3      5.8001413231791688      12.136834061110346      6.1323041779135892
   326   4      4.3035986482766226      12.148795154084953      8.0338309415036999
   327   2      6.1459086159153697      14.111333715477187      10.119960873904132
   328   3      5.8215976214531588      14.226003606142454      8.1663175540068131
   329   3      3.9705427095586141      14.530869418008713      10.113740262448761
   330   3      5.8346247997846366      12.220262434793884      10.058287260091891
   331   4      3.8643334367116595      16.021547393753124    0.019123222217317219
   332   1      6.0290181368677649      18.155028427940596      2.0402736970540842
   333   3      6.1422977331823763      18.245177764850386   -0.024680496901673569
   334   3      3.9897980891635547      18.379894275058163      2.0872375192148986
   335   3      6.3652229625236858      16.158135596063648      2.0443147757563276
   336   4      3.9282011491768554      16.118327468098531      4.3831651626910864
   337   2      6.0918883855744195      18.094906061197175       6.120091142869124
   338   3      6.1961365649720666      18.396379155078694      4.0911727384700729
   339   3      4.1018357286765639      18.192117422064552      5.8053451719776872
   340   3      6.0877934481577718      16.225820149586916       6.036664428999206
   341   4      4.2351014432546128      15.979445603801141      8.1582979106064712
   342   2      6.1368563176922768       18.21750677821823        10.2453498661149
   343   3       5.882044947294637      18.306226367349023      8.0512763774421039
   344   3      4.0118123008731308      18.146631033978053      10.175346738447178
   345   3      6.0998482533607286      16.253851269429241      10.015680787782621
   346   4      4.2080107438811307      19.993740983438048     0.32374846869196078
   347   1      6.0790981004206648      22.255138344670382      2.0172464589953747
   348   3       6.116752162483893      22.531662819308941   -0.019796906791426719
   349   3      3.9631411076260075      22.449898175411512      1.9962382205776061
   350   3      6.1244308419913631      20.254110462205961      1.9194603293438288
   351   4      4.2141865839340378      19.896183092997315      4.0426880296638581
   352   2      6.2614275411402085      22.263089842917751      6.0175789355550364
   353   3      5.9852533955818483      22.279305662523914      4.0830691854556536
   354   3      3.9541979473986739      22.424444083720633      6.0797705219714064
   355   3      5.8953368748372563      20.290302713085499      6.1021679283495383
   356   4      4.3706576775641013      20.290238967397723      8.0574478206794939
   357   1       6.093447201999302      22.263150867400562      10.058493971498013
   358   3      5.8650425964655319       22.26618488386903      8.0244361546509833
   359   3      3.9833968835808471      22.365702892097346      10.264731888067685
   360   3      5.7944198101907771      20.196321576998219      10.025973279838611
   361   4      7.8797637070282276      12.009540115742658     0.15571936880001275
   362   2      10.088056718220857      14.199738252681104      1.9543050670725077
   363   3      10.109258709374052      14.397029602840199    0.052503949358676534
   364   3      8.1564992573369093      14.090617010527387      2.1425807195716842
   365   3      10.366772904509446      12.230966949239189      1.9469389852312113
   366   4      8.0889794867865632      11.955250719852229      4.0336992819729032
   367   2      9.9652526824123857      14.223387280004388       6.053119540032073
   368   3      10.277573609319743      13.941898324838162      4.1225700773173894
   369   3      8.1290125031640219      14.096553081288338      6.0614470939529932
   370   3      10.230499341496602      12.238295089523458      6.3799669708672759
   371   4      8.3597918492088183      11.957916137171326      8.1816146706713102
   372   2      10.279811267692857      14.162493363305364      10.177228768136297
   373   3      10.102662619367464      14.463664334954435      8.1133933956213902
   374   3       8.025061373395177      14.134094667259465      10.054711300209203
   375   3      10.084206208766741      12.260825846063803      9.8939164584746315
   376   4      7.7889179981053038      16.196076544281667    0.050091859176267559
   377   1      10.154657395558097      18.171647438767895      1.9737532392814157
   378   3      10.330824121954022      18.221986817394697   -0.061019457129487413
   379   3      8.1461273393933329      18.346037678225013      2.0880790803456928
   380   3      10.046667186773712      16.155805805962689      2.3944439253203114
   381   4      8.0588880573998729      16.424667784861281      3.7384184374840848
   382   2      10.147535449232988      18.332938203857672       6.015847691762696
   383   3      10.124945636063806      18.417216321165757       4.108313393674548
   384   3      8.0951761480364812       18.31853501181395      6.1599589247077109
   385   3      10.136837840118154      16.185043496644148      5.9197085209219447
   386   4      8.3845656266186293      16.321151407603903      8.3026693840298638
   387   1      10.161531351831567      18.223820245349472      10.102652184033229
   388   3      10.157708009761958      17.898792550290516      8.0615725894538048
   389   3      8.0301486187014159      18.397414090189017      9.9023599610565967
   390   3      9.8338640292880406      16.160905491838339      10.231032938198403
   391   4      7.8172438335322445      19.928335694750459     0.30022778324745136
   392   2      10.151954506440909      22.149847650208198       2.023224319532686
   393   3      10.189523706113622      22.483309345685729    0.026028596128246647
   394   3       8.174470705521701      22.316428786229149      1.9993670005239237
   395   3      10.395878494485492      20.247893123805387      1.9092210108218941
   396   4      7.8793085358692041      20.018882922220982      3.7260628310956552
   397   1      10.153003987400631      22.218087778797102      6.0360948802874468
   398   3      10.216351290527703      22.200798947531798       3.990404129840571
   399   3      8.1162123597356253      22.232070552475374      6.1207917342616041
   400   3      10.254051308092558      20.210023077753732      6.3974789714505871
   401   4      8.2755912436158603      20.289118633553514      8.2755242634828399
   402   2      10.229238462812216       22.20871695715736      10.149274536432671
   403   3      10.175816747479953      22.560015718989927      8.1260796668706625
   404   3      8.1311770330181741      21.999889275478953      10.009598905452561
   405   3      10.257407966367772      20.275448295250332      9.8507975147296349
   406   4   -0.034426310990025223       11.88057709042797      12.202236216156617
   407   1       1.966574158088424      14.194768617146941      14.155283078047306
   408   3      2.0598546421287076      14.273348103405608      12.107152051682668
   409   3   -0.061037199205383773      13.883711434278883      14.225869962813938
   410   3      2.3389143770579146      12.163284464946731       14.20092762539546
   411   4    0.087594448878078171      12.054031466104554      15.925894220861693
   412   2      2.0466714712013205      14.161170080466642      18.093001608605483
   413   3      2.0659526038721001      14.172073783609019      16.232215488868533
   414   3    0.080198827527378974      14.155293436235052      18.393906365148933
   415   3      2.0632231551829232      12.231426270773312      18.407612614514292
   416   4   -0.036251298095171559      12.092837427554111      19.903503110157953
   417   2      1.9324917052933996      14.096431984451758      22.270229863383104
   418   3      2.1228962062298655      14.243452914582207      20.385551153820447
   419   3    0.053269288206544023      14.294818467107396       22.39186964308724
   420   3      2.0988362614094456      12.220231387302302      22.449450097328207
   421   4    -0.25573380228053333      16.090951679345689      12.013291559604037
   422   2      1.9862995041864167       18.10349832541473      14.032042836804798
   423   3      2.0056327951774993      18.340028612999408      12.161056641809108
   424   3    0.081725429336846275      18.531204561393864      14.269197289109862
   425   3      1.8658441039783684      16.255927368328727      14.211549091859776
   426   4    -0.40182392776687359      16.147616125305426      16.333575983923627
   427   2      1.9755065335217181      18.240155431574063      18.147916559020459
   428   3       2.061772646852245      18.254466037125869      16.267463693842799
   429   3    0.070694256395190613      18.384075957652467      18.309009415829557
   430   3      2.0308210390167813      16.233094369045141        18.4148144595217
   431   4    -0.35811124338347761      15.938454152009106      20.019617326345251
   432   2      1.9238258897534486      18.124522424892923      22.270473899618043
   433   3      1.9873741454350526      18.295612260054405      20.381042756106069
   434   3    0.025148628390621014      18.198297499111508      22.510905689482804
   435   3      2.1749685747633403       16.23946562555966      22.395087921302245
   436   4    -0.13528408165999606       20.19675951192211      11.831207829058924
   437   2      1.9947632793177204      22.169237738597122      14.156372966128364
   438   3      2.0798186051448395      22.286317348978773      12.246896936819752
   439   3    0.052279294015058791      22.265905428350699      14.309045959269733
   440   3       2.204919065991775      20.287718788495798      14.336048939178465
   441   4     -0.1933228840441073      20.061578103940686      16.063450345882842
   442   1      2.0214696149655844      22.250338984152688      18.185353683284212
   443   3      2.0759259905388201      22.517196684944352        16.1818767215394
   444   3   -0.006661040188034823       22.27106796748404      18.449924390251685
   445   3      2.1485740054018647      20.196193077549548      18.411990945164344
   446   4   -0.084177773834205341      20.166767548153551      19.996435377808929
   447   2      2.0541054433203945      22.145605605204736      22.272686581047349
   448   3      2.1575255783927201      22.332564964070322      20.369759699568949
   449   3     0.11344209337456147      22.481812038909073      22.301541064310882
   450   3      1.9978241137840469      20.267185196349704      22.409239703296752
   451   4      4.0745803167351484      12.027763555152687      12.420198280731789
   452   2      6.1596614132899159      14.217145820755707      14.254222305246708
   453   3      5.9280220093986404      14.281915675937773      12.102711686857148
   454   3      4.0414325353401273      14.473387306199005      14.138572435994609
   455   3      5.7151901106780594      12.237425762037759      14.144052063676142
   456   4      4.0574795233189729      12.269613148875072      15.903918240690949
   457   1       6.053222235704907       14.15949417958578       18.18253737305324
   458   3      5.9295668530694146      14.161895945241234      16.159335758137352
   459   3      4.0009783617964212      14.264668819191474      18.402018085916186
   460   3      6.0437946776110572      12.120232850905721       18.38602941673944
   461   4      3.9726384295656256      12.037247549960441      19.920789421204731
   462   2      6.0322614717842873      14.082179977088442      22.263238775557678
   463   3      6.0899215172269372      14.247676145428933      20.371140849174736
   464   3      4.1247760413539538      14.284114554689081      22.465476066407508
   465   3      6.2070893118184092      12.195447109646876      22.444865415866705
   466   4      4.0728694836084349      15.919328530920868      12.210648859944758
   467   1      6.0679268650481619       18.25965691715265      14.123477672048786
   468   3      6.1304282777005739      18.293105921087697      12.104557453102153
   469   3      3.9676371303715778      18.156678631691079      14.340797342555044
   470   3      6.1596239956064966      16.200150024563822      14.244944427687154
   471   4      4.1488179060069683      16.162094934613567       15.83424559927081
   472   2      6.0835931184820078      18.184457529032134      18.143490091458677
   473   3      5.9731665136808001       18.22550598052123      16.274038127259519
   474   3      4.0590573367898841      18.205551557310361      18.466472073525626
   475   3      6.0980523600797909      16.266506831885419      18.426821606042409
   476   4      4.0261184761585973      16.025280514242812      19.975884590221206
   477   2      5.9338037590787946      18.158601392730763      22.223117024746042
   478   3      6.1523669234378211      18.351427900821772      20.334085294831969
   479   3      4.0575095505333776      18.321122738348915      22.324357205526503
   480   3      6.1408246499195585      16.258776518409821      22.341363888744539
   481   4      4.1080112606641528      20.376349735098032      11.810474567271878
   482   2      6.0914473603567112      22.344436267228055      14.024050833329818
   483   3      6.0945031913773198      22.084737269044609      12.137756887484638
   484   3      4.0645780182440676      22.410276811351164      14.301864395484028
   485   3      5.9228720072310068      20.314116973991769      14.396130741421072
   486   4      4.1496179176212111      20.090185632811743      15.874272123412267
   487   2      6.0778481369385817        22.3230096935843      18.139785863917187
   488   3      6.0973962011078813       22.36276916371331      16.264828606659357
   489   3      4.1019190347623606       22.36806655223484      18.368674730414185
   490   3       5.976014643386157      20.289580962180391      18.344851041133335
   491   4      3.9699092663959807      20.294436030799151      19.920940801895426
   492   2       6.130757204613321      22.148413052627561      22.270863828175827
   493   3       5.957248601045432      22.269273152474199      20.357262647237242
   494   3      4.0546112524718101      22.347218541215543      22.490621996063417
   495   3      6.1352028487043642      20.261366552425955      22.450591187524761
   496   4      8.2989412023101679      11.961719726046208      12.195379621155547
   497   1      10.124258049599723      14.196874049671314      14.130274165991214
   498   3       9.952179154368995       14.11443502737629      12.072035153627988
   499   3       8.044708563531179      13.975267894190724      14.164533446555202
   500   3      10.160108798729947      12.177523476042232      14.404131809275658
   501   4      8.3000860540722208      12.042709011691057      15.880957506814182
   502   2      10.045032384360146      14.176335639777422      18.067104437952295
   503   3      10.054782177173218      14.381205404669707      16.212260486019098
   504   3       8.139292977602226      14.181570279209065      18.427298308070277
   505   3       10.18614030173215      12.236392028698033      18.231305311901583
   506   4      7.9641269721672261      12.045681190365919      19.906890313907308
   507   2      10.089308915667589      14.132464311224105      22.188354854235051
   508   3      10.284989762204185      14.093166306650621      20.300699692817989
   509   3      8.1541885553349722      14.336457513787844      22.266956158343145
   510   3      10.131749538049538      12.217261734388293      22.487119620744025
   511   4      8.4262073203083805      16.136982228336809      12.155756956649807
   512   2      10.120015634261444      18.311303849421375      14.049505174946765
   513   3      10.003225513993335      18.322970926075971      12.146178882745252
   514   3      8.1220429596371417      18.372521454812112       14.38492334058124
   515   3       9.872123169048141      16.242286242519221       14.05771051163936
   516   4      8.2612861735122749      16.450005065815944      15.895616524843655
   517   1      10.099931690050418      18.212811423525835      18.180225806896349
   518   3      10.163698825253075      17.923841236835074      16.172278743472514
   519   3      8.0257119177298861      18.305429008112981      18.320708488800971
   520   3      10.098017038071303      16.144712236277467       18.51605718681402
   521   4      7.9882647994474407      16.076939336554339      19.967004175234244
   522   2      9.9864958639665105       18.18371722995839      22.328366316812318
   523   3      10.233129676371233      18.318754946707188      20.316551724942947
   524   3      8.1074392205641068      18.262507407922968      22.344445460702342
   525   3      10.271214457740502      16.234528393396683      22.174394569658244
   526   4       8.118328931615471      20.519108695289276      12.049617355377737
   527   1      10.146393634481923       22.26283522778877      14.139128323209603
   528   3      9.9391331609128333      22.153866495320578      12.099957284567083
   529   3      8.0401852456489777      22.013286774773103      14.180627415565578
   530   3      10.211856431149677      20.221848918496384      14.416676140891807
   531   4      8.1070168295894653      20.298164739862656      15.851623682277355
   532   2      10.240373230674049      22.275608299424285      18.187975928137515
   533   3      9.9669283865655007      22.387164632439294      16.249883011339278
   534   3      8.0193970725684398      22.200401790292208      18.448272155108164
   535   3      10.092631127534808      20.290438452556938      18.316132204607825
   536   4      8.1943999632854947      20.145016102877452      19.931912161893781
   537   1      10.088195881380962      22.214505626427005      22.277999274525566
   538   3      10.143466685507454      22.259196762386331      20.231270264132913
   539   3      8.0404755301873188      22.463389814475804      22.317203963630941
   540   3      10.330536298479364       20.19238868990999      22.298853609589578
   541   4      12.145594899046763    -0.32356391883399466    0.030544938752185474
   542   2      14.187263476320625      1.9269691863608536      1.9815996674422103
   543   3      14.120085321711469      1.9588733492220263   0.0094292477453369727
   544   3      12.198268842776633       2.067320250641083      2.1253571218404024
   545   3      14.320583930485961    0.027200021005417175      2.1746982369544496
   546   4      11.968049266047114    -0.22832776974303096      3.8129900887186943
   547   1      14.182644666167619      1.9843649865877246      6.0246606047121114
   548   3      14.266404802261965      2.2741563746296514      3.9867622135845386
   549   3      12.128860822537682      2.1191742036276775      6.0270455273121293
   550   3      14.478366935949975   -0.040364527039512481       5.940222999158447
   551   4      12.209054836060133     -0.3244103724495922      7.9993583254757148
   552   2      14.198115705759301      2.0417317772331316       9.946184671008778
   553   3      14.206836960888184      1.8551523422280927      8.0861877376657816
   554   3      12.213573385985683      1.8680311656605502      10.324027150458047
   555   3      14.271085285272491     0.04602849880039394      10.422261258849248
   556   4      12.275638811170101      3.7919744517890615     0.14918758898208548
   557   1      14.114424348938043      6.0706303049452517      1.9772081561920021
   558   3      14.199556547869388      6.4248391074533586    -0.10460902721986781
   559   3      12.076069873940515      6.3090272524278728      1.9597307942176407
   560   3        14.0780334943721      4.0657413242757068      1.6940789536018428
   561   4      12.155732984386768       3.672048577804762      3.9666291081281178
   562   2      14.110420712486002      6.0655011465064392      5.9397060885334767
   563   3      14.205567249201033      6.0608485422050951      4.0375567238640642
   564   3      12.174904349863461      6.1622078819339219      6.1996926243425383
   565   3      14.117197576169001      4.1073311236165786      6.3060666129013763
   566   4      12.128269695190689      3.9711493243949127      7.7367940022761905
   567   1      14.144016685781731      6.0302520178316223      10.099740492771073
   568   3      14.140114927863625       6.360130439162635      8.0950248275349548
   569   3      12.094364706280111      6.2905612187020452      10.140400780474899
   570   3      14.053446588899121      3.9891916363783726      10.123553484211108
   571   4      11.849943211471968      7.8956127034157744     0.10361394190907046
   572   2      14.039988835636439      10.161830045424436      2.1722943224664553
   573   3      14.248864239659495      9.9371155857387858    -0.04393391198602678
   574   3      12.158217006836148      10.059223739953662      2.0743119729928332
   575   3      14.387268042366561      8.1668151198194678      2.0936581921542872
   576   4      11.883422903808047      7.8679597632685043      3.8128476522912451
   577   1      14.153601696121916      10.120277210983307      6.0811369159432616
   578   3      14.267047290859155        10.1861713491591      4.0425286195412955
   579   3      12.103768632623591      10.212195791974985      6.2096762187447858
   580   3      14.385076272310272      8.0736092592064832      5.9804935676672297
   581   4      12.169965391084277      7.7181978741145238      8.1190092274060301
   582   2      14.055442984712794      10.008868461075579      10.104162677261558
   583   3      14.279934561259939       9.991145477685528      8.2099825704376919
   584   3      12.170154582074046      10.158020391697885      10.217268683848518
   585   3       14.26052039975221      8.1447339296349153      10.432527669195938
   586   4       16.06332887587887    -0.25735733943331363    0.050793830500969812
   587   1       18.20970293279321      2.0304084502851913      2.0178249485571285
   588   3      18.468100680523424      2.0365570902387002   -0.064956664257257421
   589   3      16.168760744659522      2.2696643582924914      1.9664868109479507
   590   3      18.327851544711148  -0.0083917088998327668       2.000869715955496
   591   4      15.964684513932664    -0.11128737750852181      4.0842707883414553
   592   2       18.19675227040387      1.9344975371520308      6.1424063010193173
   593   3      18.135292315201738      2.3048933370805775      4.0611365852507362
   594   3      16.240895402668826      2.3126426861784779      6.0684987163749868
   595   3       18.06900564696895    0.032786193044677371      5.8949869510380966
   596   4      15.985334622702327    -0.27273369100999872       7.850876060135338
   597   1      18.222493859002679      2.0101943854142545      10.104287318715967
   598   3      18.379283371814591      2.0250550531812523      8.0645020991487737
   599   3       16.15465878318566      2.0802233146420903      10.330595743001247
   600   3      18.134373075441207   -0.022324261193043007      10.355398628006483
   601   4      15.925502737863699      3.8970258068036197     0.12867595094099862
   602   2      18.111454341889413        6.04546561597326      2.0286106292824413
   603   3      18.360232911517247      6.2698662999967949    0.013045994700915362
   604   3      16.231859536411644      6.0820678034641427      1.9140691905375011
   605   3      18.397723793858106      4.1543208110081391       1.872008423656992
   606   4      16.181973652750756      3.7233155311920121      3.9999837623061132
   607   1      18.184330103553801       6.078183107278277       6.056933571389651
   608   3      18.371779931686046      6.0459913285973252      3.9882896106932457
   609   3      16.152835271232345      5.9783456118410498      6.2528814244298871
   610   3      18.434265787438388      4.0575267390023191        6.19986160408041
   611   4      16.090081452490228      4.0925016913812744      7.7070953899884884
   612   2      18.066445711958387      6.0173791957418903      10.136130958411895
   613   3        18.3946241725499      6.1527963616570869      8.1785811830248747
   614   3      16.206818831494932      6.0079230054788226      10.169447230413315
   615   3      18.454022397056168       4.102611588145245      10.082150066938686
   616   4      15.909371167379769      8.0447698907024101     0.16799895980184673
   617   2      18.128778123450566      10.161537034085235      1.8660306764258923
   618   3      18.267758096906075      9.9113555609371815    0.023880650212437057
   619   3      16.229315063207086      10.148850365500188      2.0321195653237103
   620   3      18.244095181542342       8.123361502172207      2.1977278749361862
   621   4      15.849465740441161      8.0814018380178201      3.9853769878629635
   622   2      18.129297278566032      10.125414398035261       5.957872083841071
   623   3      18.295960020714944      10.181192777617715      4.0756010953024733
   624   3      16.246531661047424      10.220460583686821      6.1874339403425251
   625   3      18.283476099627951      8.1653224215183453      6.1176500622357715
   626   4      15.916958255347039      7.9176702051125911      7.8376235070317204
   627   2      18.110778123411812      10.055269434652892      10.071236243299394
   628   3      18.298060188557844      10.039849651277395      8.1733480752306651
   629   3      16.235061502471112      10.250685553886813      10.288009909152317
   630   3      18.221947018161288      8.1127999119889491      10.260198409848087
   631   4       19.96343728867846   -0.023923605333082541     0.16631630735498817
   632   2      22.217323320835764      1.9753395789367578      2.0489618441749746
   633   3      22.324000963456378       2.250567211668566    0.036091704840782189
   634   3      20.330763569977908      2.0873183155130359      2.0930932089993668
   635   3      22.393549578486947    0.079424838446943424      1.9701665482461093
   636   4      20.090200887731509   -0.014536905567616129      4.2810710601279665
   637   1      22.232463146731199       2.026034325555798       6.045071973537441
   638   3      22.506204191216977      2.0713981367424346      3.9769150557121167
   639   3      20.186748237859543      1.9145924464472333      5.8108493802948322
   640   3      22.533277403496008   0.0086812747819639512       6.013690392734933
   641   4      20.146640178558535    -0.30583423465539294      8.1961347443908643
   642   2      22.223300360148386      1.9226392901719926      9.9845370825167397
   643   3      22.298988811620934      2.0327858856303842      8.1045525573832364
   644   3      20.338100920615314      1.8875271905926083      10.286057637970146
   645   3      22.549216691973442    0.049998711122758797      10.162126164609933
   646   4      20.001818829525313      3.8959673394214986   0.0020177796892121582
   647   2      22.227388989480538      6.0363558718192616      2.0248381323472797
   648   3      22.440168315842563      6.2296946164617628     0.10770040637410348
   649   3      20.337328663263751      6.2979848285005122      2.0614235661307281
   650   3      22.290910230542707      4.1489819087713071      2.0845602549982014
   651   4      19.913767882901997      3.8553262999291631      4.1820719199554777
   652   2      22.230658395212878      5.9623998906838773      6.0838257991916374
   653   3      22.340997573267529      6.2412874588843845      4.0915192001559442
   654   3      20.341610896531243        6.30692055414527       6.107833614105167
   655   3      22.187036053903785       4.108060199589624      6.0388448276364741
   656   4      19.884946843853164      3.9967390084709113      8.0595018536648073
   657   2      22.238443435350536      5.9859886068269619      10.139582142791118
   658   3      22.363662546118228      6.2311298041867254      8.0629755029339254
   659   3      20.340215619141222      6.2792249894459795      10.084943103087086
   660   3      22.209570892547291      4.0876141672423465      10.141447355000148
   661   4      19.998432333414108      8.1072881303721012    -0.20384800070072695
   662   2       22.15645479182054       10.10151482604326      2.0654332034203922
   663   3      22.457327317928904      10.061736575748906    0.099486965616871717
   664   3       20.27264421088454      10.021905462554319        2.08586849919761
   665   3      22.504723041229337      8.1753373595869547      2.1776096446478439
   666   4      19.939958478884634      7.8932526989570944      4.0489962017897669
   667   2      22.192064987184509      10.096237937392683      6.1295357245999273
   668   3      22.374515487442711      10.333373854993756      4.0813635526548682
   669   3       20.30691657438404      10.110353247282905      6.1548539034149146
   670   3      22.467397662517101      8.2065417057554022      6.0150101456439229
   671   4      19.978097081403774      7.9111068804980267      7.9765744251365245
   672   2      22.177209427877191      10.085910167346022      10.215227034649093
   673   3      22.486386684260712       10.12641188465641      8.0715296106455163
   674   3      20.290453908951744      10.035838146546491      10.169761455939842
   675   3      22.525120434847704      8.1548971516933957      10.047626084047179
   676   4      12.398939878446884    0.039656950269959593      11.876135922864922
   677   1      14.147923279787168      1.9906895222993441      14.203217893913592
   678   3      14.160121494628722      2.2691940569143902      12.202132239949284
   679   3       12.12198291930123      1.9228241246463138      14.245210274420582
   680   3      14.267543248001315   -0.054626603279837947      14.129359036936105
   681   4      12.323027990264405    -0.29267440129095651      16.080587116726313
   682   2      14.149052063332144      1.8787726880688942       18.24166515203525
   683   3      14.223207021334263      1.9150521676600134      16.272314558783496
   684   3      12.193564179963783      2.1791143996076361      18.249565074535983
   685   3      14.244106381847233    0.023239824304645541      18.472715306199319
   686   4      12.154164370527894    -0.20739066293971672      20.531677336890322
   687   1      14.163314302361604      2.0248770368957159      22.246396846884192
   688   3      14.194675184073448      2.4007112525021683      20.184550802139096
   689   3      12.114973362587962      2.1320260190311506      22.119532447112878
   690   3       14.15431553498688  -0.0036339981919300797       21.94124466917377
   691   4      12.336462865040234      3.7409476854758985      11.930098909358541
   692   2      14.133578414734021      5.9771112957105732      14.141608448665727
   693   3      14.184451620825026      5.9395791745237991      12.220615380501942
   694   3      12.194886923098961      6.2926773459785093      14.283565733325275
   695   3      14.058727973700941       4.090748835445873      14.525369274994649
   696   4      12.096359580830644      3.7565354974526302      16.195329295810673
   697   2      14.089053539190758       6.049145824232828      18.272059194992242
   698   3      14.165283245110976      6.4346236961650032      16.275242635681025
   699   3      12.160877773198928      6.2403987786855302      18.164152039724179
   700   3      14.125974453023034      4.1709638082201588      17.933358714415888
   701   4      12.044440920631576      3.7079414006754945      20.203278724296233
   702   2      13.994272484660682      6.0317644614521004      22.298062049287005
   703   3      14.183724149041931      5.9145938542751546      20.219936273114794
   704   3      12.132961102784522      6.1313174268445083      22.301054014112136
   705   3      14.210909427682386       4.152932327071869      22.510798183573264
   706   4      11.925096259931788      7.8103489388198977      11.978766226146082
   707   1      14.136523686024624      10.091024297146932      14.173741671029354
   708   3      14.197689864027168      10.446681957089295      12.134971789822265
   709   3      12.090435509763662      10.268194765826021      14.166946801040066
   710   3      14.413455119119273      8.0964190929080839      14.074382753278961
   711   4      11.972628385166097       7.826246442479647      16.084093190199027
   712   2      14.048485694216634      10.028273564951519      18.193188989480372
   713   3      14.357198418068815      10.053920250530396      16.268760437937331
   714   3      12.175773992268052      10.166652705519372      18.265307494863091
   715   3      14.276540063219128      8.1407406859932117       18.43550146845876
   716   4      11.736385318410374      7.9885228550135867      20.202744717443903
   717   2       14.10564097202082      10.094684093634186       22.33380883957987
   718   3      14.204483277635063      10.386333138507693      20.184012401961301
   719   3       12.17565287801264       10.28051040218117       22.25149477652834
   720   3      14.184859652648548      8.1376768267939887      21.963138857064539
   721   4       16.18325937913189    0.060226627916582336      11.803496617328978
   722   2      18.091783544086482      1.9737568311911133      14.177980365514822
   723   3      18.254624476864951      2.1586860592704795      12.225950511007342
   724   3      16.210435321642855      2.1843908136286068      14.261366396714383
   725   3      18.244354156895177     0.03614087734903175      14.255121795767064
   726   4      15.947437510736329    -0.22089627081352492      16.019831415753313
   727   1      18.212720540506943      2.0327834512707157      18.231728567317273
   728   3      18.452377674319358      2.0893052527778768      16.161974308519532
   729   3      16.138682197959699      2.3090785501849802       18.23675114684379
   730   3      18.313046474061856   0.0044505082761573866      18.178516493006121
   731   4      15.927997919948581    -0.18922553410676848      20.401290922826334
   732   2      18.119568147901326      1.9872879410462416      22.272935211558412
   733   3      18.238618669321628      2.3468797860070865      20.326689982273408
   734   3      16.238062631874588      2.1183529904022098      22.276578372743778
   735   3      18.334716183978284     0.10983443674589015      22.170375710016796
   736   4      15.989220495037181      3.7645581591724131      12.052770001418351
   737   1      18.174563367299566      6.0155464057785517      14.170733431646424
   738   3      18.427176410936596      6.0192939688257878      12.087639270669129
   739   3       16.13136491437352      6.0408292533846017      14.317877657052229
   740   3      18.507348811556291      3.9889708515730944      14.216115287940074
   741   4      16.003086101989446      3.8025086098350318       16.19852596676613
   742   2       18.13007152096759      6.1097500907178857      18.119566369790107
   743   3      18.370080047838989      6.1017708949349085      16.248953928091566
   744   3      16.219077794093725      6.0479084912061998      18.222639839054533
   745   3      18.450401171752766      4.1569451091482437      18.211317826890458
   746   4       16.14457471817375      3.7624197654866167      20.152250258909575
   747   2      18.105491410687875      6.0783815021560219      22.228801561889195
   748   3      18.353014244096141      5.9815280222588241      20.302640467511875
   749   3      16.227221679313324      6.1897285661589594      22.256373878197159
   750   3       18.32819184387521      4.1270385859150318      22.486279031576657
   751   4      15.903624347957752      7.8977595887504499      12.225587440840618
   752   2      18.253721663815917      10.003142679844485      14.090099588268137
   753   3      18.345847154048982      10.303115886818219      12.184314581739699
   754   3      16.304254739159965      10.395089583998496      14.166168506326537
   755   3      18.101349839080775      8.1278220695479906      14.109480661696418
   756   4      15.988841878543141      7.9866140008732689      15.894032962829368
   757   2      18.149186545156105      10.227031400112253      18.211682545273625
   758   3      18.223904715115047      10.125513654868326      16.223083950529034
   759   3      16.235264748606639      10.200588815531413      18.314516264764986
   760   3      18.305485989493782      8.0626647830914244      18.347742684218154
   761   4      16.184986088589373      8.3055469581601784      20.432908025947871
   762   1      18.216733077341956      10.130038366485634      22.268185779332853
   763   3      18.330543697082092      10.009034895310233      20.186579763725941
   764   3      16.151511333623603      10.026605571552736       22.02972957514168
   765   3       18.41184151160439      8.0256600203434125      22.195394485179705
   766   4      19.996850110498126    -0.13250282684974279      11.893144576316212
   767   2      22.257929339244757      2.0323150372385217      14.071117600827771
   768   3      22.528744026237856      2.0544333135129347      12.179304094635507
   769   3      20.358363494860949       1.898270139211915      14.147036589964921
   770   3      22.504627513988467  -0.0018679273935734726      14.309825243761402
   771   4      19.909113781682631     0.00730711505800378      16.102542653981214
   772   2       22.24594617677106      1.9827473514292553      18.143023433906752
   773   3      22.275026313632889      2.0351978490772549      16.272788873777479
   774   3      20.381229760165937      2.1029100966446901      18.434769182156188
   775   3       22.42859283245712     0.08556078919875644      18.322640394306234
   776   4      20.341133530223111    -0.30708112870634252      20.287142498262064
   777   2      22.253757074079338      1.9924607271068528      22.247471786200858
   778   3       22.51719988844415      2.1463814013933442       20.34654025054089
   779   3        20.3533689289997      2.2311123479481529      22.230923711555391
   780   3      22.329720457397141     0.12293181445013537      22.396023263908155
   781   4      19.886545014962326      3.9802207187688139      12.206996958742257
   782   1      22.262892473742546      5.9805340105184568      14.128390769707655
   783   3      22.309874855065996      6.2063513903623964      12.061670657417299
   784   3      20.266380002142022      6.2989302121820483      14.156264117270696
   785   3      22.313553649911839      3.9457494446656103      14.285241162642761
   786   4      19.943277664909488      4.0256858400817563      16.068110660288557
   787   2      22.225197481911085      6.0402814508426328      18.184577799121371
   788   3      22.323441495730307      6.1239542472446695      16.297198082838356
   789   3      20.343716239264751      6.1508090598308751      18.360537563709162
   790   3      22.377244117183633      4.1084505975517898      18.388533840996423
   791   4      20.001527303623096      3.9217831054676773       20.06196872657716
   792   2      22.256780863888668      6.0693144811046569      22.215448571029217
   793   3      22.416411570009867      6.1592766519794635       20.33692210206976
   794   3      20.368144376234664      6.1108111161215692      22.411430899741397
   795   3      22.500121057095555      4.1649837059980834      22.395667954919602
   796   4      20.207410105825431      7.6986622939046416      12.300567216006534
   797   1      22.277800528981633       10.11075229915898      14.124016916537149
   798   3      22.463044064536593        10.1869498869211      12.091442282210835
   799   3      20.215267310548473      10.037747157285603      14.389690387807434
   800   3        22.4849540191288      8.1171903030473409      14.246838617868105
   801   4      20.395084349128577      7.8973361029043652      15.781887368529038
   802   2      22.303723395509813      10.084894341894273      18.092239558858051
   803   3      22.395815217848508      10.229219801585016      16.229675160920703
   804   3       20.33886140381421      10.020273543618142      18.263629980205714
   805   3      22.466365148290095      8.0979755434824607      18.341892642521287
   806   4      19.972521880217759      8.2867424082722199      20.168861923409711
   807   2      22.170767292499697      10.139151539988896      22.231685277374414
   808   3      22.320303297910357      10.105452220314161      20.348672674541252
   809   3      20.308014464466776       10.04580684299621      22.401143831893627
   810   3      22.411570859252901      8.1296593704943074      22.460587412802404
   811   4      11.886151139367014      12.003252531971565   -0.035321742184873973
   812   1      14.139716821365345      14.172733177041144      2.0127179493806255
   813   3      14.306196200669683      14.296834463592473   -0.013477275146386159
   814   3      12.117090955633865      14.404385077487367      2.0562390657342324
   815   3      14.190766618937884      12.070713414963153      1.8366730092763499
   816   4      11.869514539493027      12.112599627252667      3.8888222382094533
   817   2      14.120896761596965      14.201381751648746      5.9548974651970594
   818   3      14.298475135674037      13.996590255087991      4.0764137328164711
   819   3      12.197698339672664      14.206701988717265      6.2334461498385334
   820   3      14.148331754683962       12.20693237126663      6.4106180853742583
   821   4      12.209144121666576      12.074142395410087      7.8219183231862441
   822   2      14.242525221042291       14.10504718740167      10.080888016277722
   823   3      14.214309082854744      14.412679744234278      8.1950711996277885
   824   3      12.175960441151087       14.35013256450909      10.202643690219505
   825   3      14.184477331961101      12.199224699170378      10.007973438558963
   826   4      12.306676541517954      15.787218641529158    -0.12940374575879876
   827   2      14.178224536121466      18.234586548776655      1.9200034634824319
   828   3      14.172380971970476      18.150607869741336   -0.017955863844425612
   829   3       12.20765660686239      18.088791728257306      2.2554169402528021
   830   3      14.338177457958768      16.242915762800351      2.2003979679746402
   831   4      12.062391287486845      16.196917134087428      3.7261238092830147
   832   1      14.194087739838398      18.167258823354064      6.0449699302256192
   833   3      14.400126830827288      18.320136794250249        4.01651716107797
   834   3      12.121900267864666      18.162363240640939      6.1633267920698875
   835   3      14.362153464947909      16.130213183851033      5.9454998639486929
   836   4      12.066734280334618      16.365610660939325      7.8792606322994079
   837   2      14.238544812334133      18.227089684081125      9.9690549400257229
   838   3      14.150537921064892      18.033802377579509      8.1077750632725056
   839   3      12.212785028470075       18.08223931231483      10.270739326410808
   840   3      14.232428447996615      16.214709718478989       10.48032053457349
   841   4      11.891802634218202       20.07181881980798    -0.15263983400687764
   842   1       14.17854830830659      22.201556093746955      1.9779586503328466
   843   3      14.186767117218922      22.593894388792979   -0.073854229894633319
   844   3      12.151228835367867      22.525168685531572      1.9872606665617201
   845   3      13.960044928549289        20.1892383887268      1.9902909305503287
   846   4      12.199225265359708      20.021207971969691      3.7489225650347793
   847   2      14.127059646145099      22.207431696392291      5.9458349023742265
   848   3      14.283413540234116       22.22573813040141      4.0460521369432554
   849   3      12.207230251711577      22.400953587123997      6.1274212807255681
   850   3      14.116636718099913       20.27482183702439      6.3160427569157553
   851   4      12.205184423528802       20.14042101852796      7.8816242179309297
   852   1      14.189398630310167      22.238956171783315      10.075322908790506
   853   3       14.13643357637776       22.55632552307538      8.0663209142663632
   854   3       12.14006215919278      22.511840208997974         10.161983758581
   855   3      14.008090800817659      20.184559336135305      10.024193307185353
   856   4      15.834409728101534      12.400777757650236    0.027326737386314231
   857   2      18.214606226515265       14.35712112950675      2.0157681613335794
   858   3      18.183367680756735      14.253124296756933    0.035557243981509626
   859   3      16.250377012115166      13.979081822262883      2.0520126842042217
   860   3      18.324532899258923      12.061680921781605      1.9896964007305566
   861   4      16.214898898204961      12.405219673526112      3.8506977477132116
   862   1      18.186366334659638      14.120210650991437       6.029566226951288
   863   3      18.200019378834131      13.903939965477388      4.0020696149560644
   864   3      16.146648273319592       14.04070253846019      6.2728865368180129
   865   3      18.313975225348205      12.067803172989223      6.3108902074802922
   866   4      16.104333925477967      12.101738218501271      7.7641338736358474
   867   1      18.169593787219352       14.11893181031788      10.152397859593453
   868   3       18.29235522255475      14.292906140062348      8.1107353970200435
   869   3      16.154475454380005      14.281855494510188      10.198352993255256
   870   3      18.467459838059746      12.069835515503915      10.092878180970178
   871   4      15.973694692692209      15.884646251790887    -0.16373715590327198
   872   1      18.236293861285244      18.194089348433195      2.0203469354777766
   873   3      18.309077748967621      18.418930932120603   -0.077365562381115097
   874   3      16.192741781224345      18.456158366745999      1.9664676397598919
   875   3      18.167473374448985      16.200186679244037      2.2171499893502435
   876   4      15.926712400638944      16.300246657081956       3.956682258595984
   877   2      18.185979215356685      18.118478275276363      6.1218646292733965
   878   3      18.122622953321486      18.512082484063885      4.0754304961616894
   879   3       16.25254185931119      18.473960982054226      6.1204165365634911
   880   3      18.119858682599205       16.20728081350607      5.9277636376292016
   881   4      16.385891855463807       15.79581579925436      7.9330776279778448
   882   1      18.217191384845538      18.221383887563874       10.11654925668465
   883   3      18.396919624791682      18.194060348148351      8.0629109044861256
   884   3      16.165194859775958      18.282350993950562      10.290035942254269
   885   3       18.23955216985534      16.204791587304825      10.301000450976753
   886   4       16.40206946559406      19.998681954295947     0.13215587208499807
   887   2      18.139714081986156       22.31520226934623      2.1506021127821779
   888   3      18.283571337373456      22.522422674368229   -0.069423150658647029
   889   3      16.248904963414525      22.313485357547407      1.8616080591425779
   890   3      18.333872122320095      20.393725734605873      1.7997833925823927
   891   4      16.171254811801372      19.915816563043659        3.97981541859401
   892   1      18.205715048960577      22.254529123685678      6.0754831408035095
   893   3       18.26922728941306      22.228791973305203       4.021896027157946
   894   3      16.174816549403271      22.150275688095345      6.2737979061688307
   895   3      18.445647017626168      20.237231665776495      6.2424285578578314
   896   4      16.154085567230865      20.258735226945916      7.7298019028589708
   897   2      18.115409760991039      22.232394498113791      10.115178947806996
   898   3      18.369314445818389      22.398327413247397      8.1430166535255371
   899   3      16.214678539562723      22.245679022392526      10.138881114408234
   900   3      18.452708262352857      20.288213478667149      10.044874235918138
   901   4      20.461311429301265      12.441689101440261    0.003397174610097193
   902   1      22.259011600490545      14.159416636637838      2.0946014048908794
   903   3      22.212310331317838      14.244968341033783    0.025546198345426686
   904   3      20.181079664658931      14.057011421781031      2.0274355779209587
   905   3      22.249620656892727      12.086193907309283      1.8649111584815898
   906   4      20.121619227806608      12.429486470132401      3.8897597691165111
   907   2      22.162470598393693      14.179634399744863       6.096464524082962
   908   3      22.227189111021488       13.90675227518639       4.101830281878807
   909   3      20.247804960192152      14.235841893801377      6.0200221954144189
   910   3      22.378988198182416      12.174974364026699      6.1970734115343555
   911   4      19.865895450595449      12.370049859380799      8.1321607110835057
   912   1      22.274201855189258      14.137166696213493      10.126215606244404
   913   3      22.381818561326305      14.328748920845328      8.0402178129747846
   914   3      20.270394729194187      14.297193587146548      10.177513900458919
   915   3      22.254228656810753      12.090382846864371      10.006248473610599
   916   4       20.45439115235245      15.900970124574389    -0.19009294394446483
   917   2      22.198229433638012      18.081821924119893       2.073561176373182
   918   3       22.24422101753332      18.368328643292077    0.056744003210104095
   919   3      20.291445680531961      18.392670151701996      2.0735984752568837
   920   3      22.265188425674932      16.215134338248664      2.0397162253157011
   921   4      20.255292567131097      16.211931079626279      4.3508218720539125
   922   1      22.200684104101423      18.199210608471628      6.0911956727806755
   923   3      22.380520543510425      18.328339534507865      3.9810645103409095
   924   3      20.197032320608869      18.134840102364254      5.7830350522094722
   925   3      22.312545673661379      16.149779765408418      5.8441024642536945
   926   4        19.9167775679527      15.925910315625512      8.4464690188163392
   927   2      22.151304146673329      18.302100247569335      10.044552674323144
   928   3      22.345382084199585      18.265390122305288      8.1367848567357228
   929   3      20.296856740866026      18.135415978691352      10.234215168059073
   930   3      22.574450194215597       16.31453600743912       10.15938753266874
   931   4      20.099218095498742      19.980326396282909     0.16319684608034549
   932   2      22.226377528105299      22.186399505580219      2.0073351234005887
   933   3      22.464859848053649      22.345850500923401    0.068964406463978417
   934   3      20.310511867330032      22.406105199979166      1.9310240375827679
   935   3       22.31993720687705      20.312569765111256      2.0220283374849015
   936   4      19.998569301211685      19.993135206748427      4.2029592903861905
   937   2      22.187869775995281      22.217768278848084      6.1083278627150612
   938   3      22.316972181415995       22.46191340948161      4.0190008544330942
   939   3      20.286035396097617      22.566264470110418      6.0371589679583417
   940   3      22.181554415061896      20.316292411919637       6.014948610729383
   941   4       19.90678305337164      20.166196195747158      8.0853546592491909
   942   1      22.262846056872636      22.242768390666726      10.098609479057217
   943   3      22.283372860884043      22.448201491196457      8.0365603507434979
   944   3      20.244416569985688      22.584813122990255      10.112005069748513
   945   3      22.269813062932773      20.224046919297326      10.259788414346017
   946   4      12.123141857012889      11.789605823186793      12.206016069424262
   947   2      14.047342661261695      14.266129277471828      14.136215979210176
   948   3      14.196934465813881      13.955938301967826       12.19068591830939
   949   3      12.168560814410771      14.202339820872867      14.278780944266174
   950   3      14.204369871856967       12.22649180838536      14.428952583861889
   951   4      12.033034765654385      12.051769368420469      15.846147461712331
   952   2      14.115342556344093      14.085237947526103      18.245616655846042
   953   3      14.303843156457386      14.398868610031146      16.200151760120459
   954   3      12.176131873510247      14.309945282188929      18.222907047026347
   955   3      14.193934548798092      12.180128688187448      18.030299331928404
   956   4      11.894987337006219       11.94478489459649      20.101342468553675
   957   1      14.104962257162736      14.107684272755472      22.209771290643069
   958   3      14.317429319895808      14.084610231469453      20.172984954199162
   959   3      12.080290453443316      14.175051961520129       22.50227567853554
   960   3       14.38639632632739      12.080604186334217      22.343642938895101
   961   4      12.418042597695285      16.474331389803051      12.064251393648838
   962   1      14.204346031391598      18.194463028321813      14.182013615253831
   963   3      14.129266716174877      18.491164115104571      12.166996181932161
   964   3      12.092386221159733      18.102793744648615      14.198055312115491
   965   3      14.240334276427772      16.158517932082642      13.956633432180448
   966   4      11.988805881180507      16.431623660301909      16.027004280288129
   967   2      14.105552607212838      18.216690061578355        18.0942068977728
   968   3       14.15024659828531      18.059263320137383      16.221311066856721
   969   3      12.207242706613657      18.128770444080931      18.336314986473241
   970   3      14.295151522649002      16.244032389863587      18.408380013919377
   971   4      11.860129069618798      16.282406162936446      20.063211420019787
   972   2      14.149944638363602      18.133576822145741      22.166371127377996
   973   3      14.344578419725529      18.395345609759346      20.279250501011418
   974   3      12.254671433281535      18.316407711952042      22.219142013730476
   975   3      14.233119713365738      16.245459461358521      22.240479169727784
   976   4      12.407593065227342      20.065574844370992       11.87645779119921
   977   2      14.187719400085133      22.273185926714778       14.03711064609517
   978   3      14.111744199010875      22.061838302578458      12.160635261848963
   979   3      12.187080037577083      22.309745664688279      14.410144420847518
   980   3      14.076198828203141      20.297040165586004      14.494926827658785
   981   4      12.150923107857347      20.325196286319553      15.903267242256117
   982   1      14.161696941865657      22.230117439520289      18.251245623224946
   983   3      14.200614835959117      22.536019715648173      16.230657816731142
   984   3      12.128105294383923      22.359194235131035      18.140796589847682
   985   3      14.292045816966999      20.176791537766761      18.134815623336969
   986   4      11.764229306031668      20.139638028966814      20.251384804129586
   987   2       14.17259245662032      22.159268307634218      22.277087787641143
   988   3      14.368696928171071      22.163380064515376      20.301053418413961
   989   3      12.223222241516112       22.37981477744394      22.262131252368082
   990   3      14.287135709357067      20.258713450580739       22.45709278323195
   991   4      15.944902431241511      11.966345472435332      12.260322678097468
   992   2       18.21111341400222      14.112196863766982      14.203560325625368
   993   3      18.367084721517259      14.122271958842093      12.235411752721776
   994   3      16.275712753826088      14.108773248144111      14.240227271158684
   995   3      18.479453471833892      12.207597940742698      14.329123700751383
   996   4      15.939640834276434      11.954062159029478       16.02004082512082
   997   1      18.205793398522019       14.11208175736825      18.204572280344358
   998   3      18.264883260471265      14.433128535115452      16.167053305645961
   999   3      16.169734710884658      14.348596139215269      18.181709052745678
  1000   3      18.430697528376452      12.094779396554955      18.237119531897122
  1001   4       16.02900824088244      11.974292859389472      20.517835048948271
  1002   2       18.22694204082196      13.996717037861588      22.184808403814415
  1003   3      18.277051480636256      14.222322876636314      20.293167200491681
  1004   3      16.272327958855247      14.331642324556981      22.315108566669796
  1005   3      18.134780355179618      12.144310524391736      22.303789407053571
  1006   4      16.374860688123722      16.143109373447427       11.79697731091203
  1007   2      18.127397251575328      18.208566344414855      14.145918994896512
  1008   3      18.219441978598265       18.48260497409203      12.220332221303959
  1009   3      16.252349494220741      18.488413223714158      14.220571427478561
  1010   3      18.175166345355048      16.276576723590761      14.078698236050807
  1011   4      16.218811176790652      15.867614506329732      16.330148505628213
  1012   2      18.251504005295953      18.132221921555637      18.179276373181072
  1013   3       18.33209990294986      18.302464863624724      16.237429460315642
  1014   3      16.268574455292363      18.329779468063158      18.270664874640644
  1015   3      18.203994139243619      16.265827364496548      18.316531228224157
  1016   4      16.129634780026922      15.826252898646496      20.091627778864098
  1017   2      18.167863281014665      18.086209455134778      22.244617613805836
  1018   3      18.214844888371925      18.441880207894791      20.305732342906584
  1019   3      16.239813276317506      18.277746181716232      22.396730341181247
  1020   3      18.340160354880847      16.240736178745603      22.289758622895118
  1021   4      16.090120070987656      19.958505969632157       12.06525638577669
  1022   1       18.18955810093707      22.262338562438853      14.149731339675158
  1023   3      18.386097867915375      22.157567606104692      12.116474168610795
  1024   3      16.149234744559219        22.1622860955231       14.36675358680526
  1025   3      18.502629213221979        20.2188225792219      14.290586729305071
  1026   4      15.955760778343915      20.316754879387435      16.026672014055148
  1027   2      18.130540529607483       22.40290553856234      18.200542470674897
  1028   3      18.414006683558757      22.267430453226687      16.264388823415317
  1029   3      16.249686753151174       22.25854772295596      18.198867352288204
  1030   3      18.396727646030278      20.330595070665296      18.281818847271929
  1031   4       16.03944794878122        20.1937114551164      19.936410714016283
  1032   2      18.316912754620809      22.194671148425744      22.276394686248366
  1033   3      18.245661431196556      22.373010851466478      20.265165083116226
  1034   3      16.244498047145726       22.53944522642297        22.3316564534394
  1035   3      18.179018913270596       20.33383357308945      22.345708135205971
  1036   4      20.095258938268671      12.305607233382704      11.783282238249802
  1037   2      22.303194689611573      14.051051039238414      14.119811845394889
  1038   3      22.329335965710495      14.327899807554241      12.194696026996754
  1039   3      20.281860513927288      14.431220843945033      14.262226322644835
  1040   3      22.025477245465495      12.184052384644605      14.237681751635288
  1041   4      20.264682060558954      11.873441606326894      15.990654397646914
  1042   1      22.316133702279881      14.109492339146406      18.169615647895267
  1043   3      22.293927775605894      14.364898497105226      16.145819396935263
  1044   3      20.262509742780178      14.265150367882679       18.26386121082064
  1045   3      22.273384690251678      12.068512722467679      18.406531228315053
  1046   4      20.386863352843225      12.422367606384235      19.873628056583598
  1047   1      22.272744376486763      14.107325103449218      22.250081923222812
  1048   3      22.201526201584858      14.264089309642449      20.274297428037411
  1049   3      20.192004675371852      14.175919244342317      22.474671132408201
  1050   3      22.324869495407306       12.06842069752811      22.514219222419058
  1051   4      20.039927999207301      15.955867216090518      11.891699363343484
  1052   2      22.193011243194295      18.170688929371099      14.159817667309332
  1053   3      22.503759973198346      18.247996868371303      12.202140139203729
  1054   3      20.322999397163962      18.195348131013034      14.171114829741679
  1055   3      22.571258300971341      16.273534679192753      14.190602905327662
  1056   4      20.281069002567627      15.771501654725293      16.375342900104041
  1057   1      22.244132611089942      18.224680111929672      18.195694204386822
  1058   3      22.479999763013151      18.263338178929136      16.141463666111051
  1059   3      20.210344012659341        18.2910051809937      18.413543866728155
  1060   3      22.422960998425303      16.218464875273757      18.258525615383888
  1061   4      20.478921528589254       15.88812164474097      19.927643508518049
  1062   2      22.173177962942756      18.284794855210006      22.177837545956955
  1063   3      22.415993532005555      18.244293067800914      20.315140161799324
  1064   3      20.246269804303171      18.409150951484111      22.278665777347275
  1065   3      22.229575385662681      16.310949498774232      22.470808708068223
  1066   4      19.906690473107766       20.27542493426192       12.11338822209701
  1067   2       22.19221001131918      22.300095494534869      14.086827346706393
  1068   3       22.33899798979256      22.342778673936138      12.222479888080608
  1069   3      20.326972044722748      22.376458297992137      14.293616351979392
  1070   3      22.318005596377098      20.319022716402408      14.291819581388065
  1071   4       19.94920006751569      20.358973322356022      16.087036856147595
  1072   2      22.313594256951255      22.208212023684446      18.211882536801035
  1073   3      22.387108286279013      22.334744715228553      16.283409998411251
  1074   3      20.327674939953535      22.380916244446801      18.373857186160773
  1075   3      22.297690345748972      20.297434904125502      18.373577693585315
  1076   4      20.146102821661046      20.103603921777353      19.956535956089958
  1077   1      22.267681745955706      22.241866139597573      22.293533754683377
  1078   3      22.306087622998852      22.514984871541959      20.259648173180238
  1079   3      20.221041853770878      22.405889509980536      22.208821498970327
  1080   3      22.486146523925228      20.214812518927541      22.346042971392151
