(written by ASE)

1080 atoms
4 atom types

0.0      24.299999999999997  xlo xhi
0.0      24.299999999999997  ylo yhi
0.0      24.299999999999997  zlo zhi

Atoms # atomic

     1   4    -0.10137875697032703    -0.31694627738820952    -0.11880221190616189
     2   2      2.0223872732737025      1.9159497574788382      2.0533872592526401
     3   3      1.9299802347749255      2.1901561251548278    0.057769514531262035
     4   3  -0.0065942849508602566      2.3149508578452416      1.9878033193641145
     5   3      1.8858856288860182    0.060471277996790501      2.0710851440301128
     6   4    -0.24417620390083261    -0.12693466994381714      4.1578497046045388
     7   2      2.0692167575868878      1.9039733692438532      6.1146882534597111
     8   3      1.8830431320225964       2.189584174105883      4.0303818238268159
     9   3   0.0083095415751008404      2.2937463501236444      6.0777146637689583
    10   3      1.7547574693557291    0.025411486126869481      6.0306571990646418
    11   4     -0.2165670175932036    -0.11332648678978301      7.8118331652787596
    12   1      2.0206166241038908      1.9729941717188362      10.054026150419656
    13   3      1.9190796436635682       2.097057658282834      8.0229224725132777
    14   3   -0.080760634539258525      2.2848351467639749      10.117654358564117
    15   3      1.9072482480248727   -0.056269397261260894      10.309931593639831
    16   4   0.0078007385829760301      3.8125327126227249  -0.0093945741343092522
    17   2       2.035592657303757      6.0126876272994725      2.0593010460402255
    18   3      1.9889845561550392      6.3573412954079096     0.12357888371362587
    19   3  -0.0053955813086306887      6.2631717186450215      2.1258656038379846
    20   3      2.0456769672568833      4.1485750950197309      2.0151020267905357
    21   4   -0.067133473041534428      3.7139962191735907      4.1345879371134719
    22   2      2.0216782730345093      5.9772507066002358      6.0806589019767081
    23   3      1.9293033625499687      6.1941395834503199      4.1102990393200196
    24   3   -0.024101372449120487      6.1153150823656102      6.1611446916847985
    25   3      2.0614497403328622      4.0955648526051469       6.088516914176429
    26   4    0.053772181292856651      3.6713724463273349      8.0227536501556482
    27   2      2.0563444962874708      5.9538464462955183      10.110878977344495
    28   3      1.9701044779717678      6.2037353975641558      8.0960488119423246
    29   3   -0.028647581946130953      6.1113414960984196      10.079444902353154
    30   3      2.0251335286974754      4.0750044225027686      10.163225973842112
    31   4       0.042568285791285      7.9965317089498491    -0.13653104923188397
    32   2      2.0152273644046916      10.083304606631401      2.0169123355905496
    33   3      1.9825163903564564      10.123982649896549     0.13010904333033191
    34   3    0.054499476516606374      10.310425498986845      2.2866876118407919
    35   3      1.9270012466348823      8.2070174736352435      2.2654584271899125
    36   4   -0.062313383943010975      7.9583388094168948      3.9602487972632772
    37   2      2.0174450731093052      10.038694351926722      6.1064917898054807
    38   3      2.0916304763612601      10.368572841832538      4.1604952776544861
    39   3    0.073600486102188806       10.42136035554703      6.0943372726241742
    40   3      1.8943825637470249      8.1701777892071785      6.1083691771931425
    41   4    -0.17390505295359102      7.9343798060069837      8.1643036815811136
    42   2      2.0100389725861145      10.032327128519452      10.108949551596988
    43   3      2.0601003775498747      10.258156020042611      8.1320030696212431
    44   3    0.088280799867816895      10.368565656527025      10.149357907478471
    45   3      1.9344783900678353      8.1706609820177682      10.113853057737394
    46   4      4.2186821250086819     -0.2734428800893649     0.11439965262445803
    47   2      6.2053301533374761      2.0317993922907887      2.0510243933244343
    48   3      5.9807849091084586       2.070430928197414    0.025821297461671201
    49   3      3.9478063270405079      2.0633314301592085      1.9921841886080023
    50   3      5.9825173927776047    0.085108211288713861      2.1136576347550995
    51   4      4.4245145655892362   -0.080570419340418864       4.056130317391105
    52   1      6.1400357912913393      1.9917450880963166      6.0544615357336058
    53   3      5.9596856491327239       2.135420207924267      4.0135453504400704
    54   3      3.9648291823813002      1.9477085680168771      5.9969596024250409
    55   3      5.9977948494547606   -0.048781301911421653      6.0212651352171065
    56   4      4.4296722105661592   -0.028538103605330968      7.9632576601672946
    57   2      6.1875773191581791      1.9655376524053121      10.067738622462565
    58   3       5.919757352312458      2.0026307512258077       8.094624911990147
    59   3      4.0441133336899417      1.9270669536878229      10.334121365186123
    60   3      6.0376397471652696     0.02231443088512694      10.126411938862624
    61   4      4.2576077386550759       3.919632082759803     0.15291343879228997
    62   1       6.085487362329121      6.0283494436935321      2.0504485460126007
    63   3      6.0058501147282639      6.3554505633725293    0.017757439832124026
    64   3      3.9519789575267201      6.3242809322891826      2.0668176030487881
    65   3      5.8467960214891672      4.0173105920918726      1.9914185142458207
    66   4      4.4046448178670152       3.950164522375796      4.1284221455850485
    67   2      6.2682201349012594      6.0805452524745114       6.082620920086681
    68   3      5.8894498489477058      6.0321271380214982      4.1228360963859556
    69   3      3.9262709581295403       6.255131180685404       6.103236820505062
    70   3      5.8479568387857315      4.0946485012076002      6.0997721748893055
    71   4      4.4157109200024669      3.9408992781022256      8.0488829054683944
    72   1      6.1137567751040907      5.9851827232583474      10.067310931589553
    73   3      5.8566534899899931      6.0534980342223168      8.0338374147986809
    74   3      3.9677604737644985      6.2636078310107424      10.127209915894131
    75   3      5.8005708958818172      3.9841614469777311      10.015649953390936
    76   4      4.1810792634099041      7.8416647434961027    0.084100408472674276
    77   2      6.1032847274749882      10.098621362349492      2.0305132996082982
    78   3      6.1129064423674135      10.067575991333442    0.083396300781593477
    79   3      4.0314450173675382       10.17149960853456      2.1622583810702003
    80   3      6.0669537771870621      8.1701086367332891        2.25687192399826
    81   4      4.3384319757608267      7.8970436387057292      4.0430570468701781
    82   1      6.1052799868969734      10.051162872871954      6.1082992136069016
    83   3      6.0025866114202531      10.334626263323129      4.0769696242517082
    84   3      4.0006945109510159       10.22364859012175      6.1670836639058404
    85   3      6.0051182544004398      8.0273814693167562      6.0817298287256198
    86   4      4.3065643628762302      7.8361219643600588      8.0230009817871455
    87   2      6.1002059351422044      9.9672546233430097      10.141318863226532
    88   3      6.0581418297804754      10.273913834993426      8.1700657048507193
    89   3      4.0433132104016609      10.189032050601037      10.127597657688021
    90   3      6.1257292745201566      8.0997562253080044       10.09071042512951
    91   4      8.2617241447026029    -0.31736166492059981    0.073915089069856679
    92   1      10.123884802314192      2.0033378555697805      1.9805009317544264
    93   3       9.891901817475178      1.8537185795745357   -0.064881791349267706
    94   3      8.0753534027763383      2.1131825024271174       2.119439605099509
    95   3       10.09503438070001   0.0024129523938206795      2.3125129083274443
    96   4      8.3872965524288396    -0.21886738824771323      3.8981871020151395
    97   2      10.203625380754698      1.8626674211997505      6.0768301294335094
    98   3       10.11410769297234       2.380783807152127      4.0791231094726141
    99   3      8.1712529914721674       2.276737092684614      6.0136534358860283
   100   3      10.043775910928556     0.00198556469533897      5.7703707901218246
   101   4      8.4402371835759222       -0.17825537563048       8.329200972658743
   102   1      10.195847575876726      1.9716053682293713      10.095118767630559
   103   3      10.040638126597832      1.8196361280999782      8.0317952482952073
   104   3      8.0923908379798846      2.1521145499572145      10.050084983055303
   105   3      9.9466986857688475   -0.021253707718856891      10.259747469468813
   106   4      8.3888936054297236      3.8749619218213169    -0.13189160560885393
   107   2      10.112228507360228      5.9501833944061184      2.0196016954864096
   108   3      10.087362182822124       6.361266996705595    0.047828298364301594
   109   3      8.1339291702498375       6.232594296668637      2.0474634883775482
   110   3       10.15343088519078      4.0624578100301845      1.7654521446165712
   111   4      8.2374715874091748      3.7912047784691616      4.1681783694301151
   112   1      10.164325398429945      6.0324577889190989       6.057902458441653
   113   3      10.243554918040829      5.7982738434812546      4.0026463872655311
   114   3      8.1227676571469569      5.9351103152472371      6.1172117332470597
   115   3      10.259663320923311      4.0170145866343594      6.3421236201306419
   116   4      8.3727804014830109       3.787345890330283      7.9033425438121103
   117   2      10.131342401541964      5.8489093810159947      10.126797922641703
   118   3      10.194998386347612       6.328209504702091      8.1445890712549147
   119   3      8.1654557069514677      6.0820271385165272      10.035626851967221
   120   3      10.262635439443326      3.9928675311692485      9.9225200452351334
   121   4      8.0847048905555408      7.7277537615010168    0.014520685527496465
   122   1      10.051431025160765       10.09597141172916      2.0020014302510298
   123   3      10.112996354047421       10.11495831420822   -0.045807931938185567
   124   3      8.0381116242270298       10.15936347602506      2.2576062262167347
   125   3      10.066925388919296      8.0934542905952842      2.4079248462786644
   126   4      8.1710169721636934      7.9934404495097686      3.7673248402216859
   127   2      10.149467245022791      9.9398500887323635      6.0623401705920932
   128   3      10.139914578257896      10.469363756001027      4.1426278211520806
   129   3      8.1500286174804994      10.379642458821698      6.0462423886469265
   130   3      10.061623194325387      8.0864513754326897      5.8558544030056074
   131   4      8.4531874709620798      7.9190356532300683      8.3196665461979595
   132   1      10.101454713252206      10.112150591571881       10.11694946615683
   133   3      9.9450025206578037      10.047675021799128      8.0591941952830339
   134   3      8.0278005318387926      10.313672225790583      10.175058103867382
   135   3      9.9536436066126868      8.1009147305010138      10.264208922665574
   136   4    0.050013719620221192    -0.14355077160326404      11.862417286879241
   137   2      2.1228799674148688      2.0383069671742176      14.072875537105922
   138   3      1.7748692603485579      2.0609779941319721      12.190764787447938
   139   3     -0.0147801030834924      2.0412354373270061      14.440547390020273
   140   3      1.9610481661593633    0.030736930004978163       14.26227584813511
   141   4    0.078932402398697143    -0.22908902724619262      16.076382852995458
   142   2      2.0081971753503356      1.9799929480413361      18.156510804065508
   143   3      2.1041204665391713      2.0171495576849878      16.279954451287683
   144   3    0.034259993113071562      2.2651749247448651      18.325821398359174
   145   3      1.9202281951518183     0.11274445172575731      18.413473134099462
   146   4   -0.020318828241957659    -0.36615029299356927      20.206039909136191
   147   2       2.061218576125265      1.9757775285349213      22.287095809680046
   148   3      1.9260302621421141      2.2410062993040438      20.378356449816842
   149   3    0.012532297621533952      2.2882911516941236      22.408870000591591
   150   3      1.9626524540383783     0.11054690939858694      22.344015413081237
   151   4     0.13420016110641289      3.7964089656276512      11.948569950479682
   152   1       2.027416604763435      6.0023985175119359      14.104402754286218
   153   3      1.9741791126541832      6.2126108809441041      12.050857375165153
   154   3  -0.0051185683458284956      6.1210888126915295      14.247912927358959
   155   3      1.9337443388576052      3.9755690555459666      14.269085973815235
   156   4  -0.0065774463020480288      4.1302408067849212      15.738642293551285
   157   2      2.0349107959045871      6.1102216758936168      18.065980031669266
   158   3      2.1073569410982471       6.148679787805829       16.20634303622322
   159   3     0.01425232781617952      6.1619916384612745      18.322830650295849
   160   3      2.0702425952939807      4.1310884394239062      18.380057969691723
   161   4    0.061755606599642042      3.8989062496401394       20.08190159397483
   162   2      2.0627500852115013      6.0547987445904514      22.242884743000015
   163   3      1.9353244544050143       6.119956593432347       20.37183489664584
   164   3    0.024727617492579269      6.1995915544524136      22.514740046860172
   165   3       2.045318164897437      4.1801755464630475      22.481847372328897
   166   4    -0.12754357578415626      7.7286659697060838      12.374401660138904
   167   2      2.0318438232570464      10.026331441815751      14.206093720311518
   168   3      2.0647335943895064      10.338218424439571      12.102055403376738
   169   3    0.070611925228564035      10.413226159512513      14.087283887653134
   170   3      1.9165493116346792      8.1406609931445395      14.077664123152195
   171   4    -0.16395630593372276       7.867010394158986      15.784352569845966
   172   1       2.028677066850249      10.086153258927187      18.141611547797769
   173   3      2.0889027390548294      10.189128858071722      16.125434989163288
   174   3   -0.020124340658959464      10.220955101367242      18.437003753622019
   175   3      1.9865315183760113      8.0709265362181686      18.438334007367164
   176   4      0.0990627528733551      8.1415716036138441      19.900802475624339
   177   2      2.0199795454260827      10.141813034637778      22.191740000469977
   178   3      2.0546187956012139      10.267427032463308      20.327539026852005
   179   3    0.040912113260648822      10.332194533455738      22.391512278369543
   180   3      1.8904799318477283      8.2003236936131305      22.368727953781246
   181   4        4.04284669712737  -0.0026027920922468482       11.72247085018159
   182   1      6.0413892235085038      1.9600801144264122      14.134102447860343
   183   3      6.1501805546679114      2.2268604878382621      12.083950701318733
   184   3      3.9977386145535685      2.0141950039664493      14.065617211302651
   185   3      6.2032268630114293   -0.049802070180479115      14.150364570364383
   186   4      3.8835734908466799    -0.27423837452040917      16.174771622970674
   187   2        6.09498593456295      2.0197897455940534      18.122412051771068
   188   3      5.9553464294082996       1.997149862634122      16.255279396717491
   189   3      3.9812909923187849      2.0066730675442574      18.472972254687175
   190   3       6.130475472051101    0.075448422257944917      18.487970034519652
   191   4      4.0137391459382039    -0.24541043138802357      20.090795704129899
   192   2      6.0610296133246173       1.969089033592935      22.254195394857273
   193   3      6.0097689686747646      2.2972150851494271        20.3518627849352
   194   3      4.0041972031096735      2.1452871215173004      22.390327077038176
   195   3      6.0397452868192989    0.097211252821482186      22.229867503645302
   196   4      4.2768596537609787      3.7528114549496796      11.877987406055864
   197   2      6.1127777660547125      6.0080186899691865      14.019876792461295
   198   3      6.0401084878574132      6.0449687787479292      12.116294332669041
   199   3      4.0578245258622863      6.2586168712603714      14.096995707180234
   200   3      5.9447122024751797      4.0746268015066143      14.313488742337279
   201   4      4.3434308279070057      4.1161273423583298      16.060734532645238
   202   1      6.0330925116275882      6.0429064130126902      18.203154836555587
   203   3      5.8466348446858465      6.1247827063816604      16.171933597490739
   204   3      3.9633689939385279      6.1812849061328841      18.407467717519804
   205   3      5.7658150123170051      4.0039383885690478      18.199017394142302
   206   4      4.1559957406833528      4.0696735938117614      19.952234801494704
   207   2      6.1235817223136628      6.0056596679051291      22.253543626470542
   208   3      5.9802572484102283      6.0204320980614083      20.356741664815409
   209   3      3.9938996111053005      6.3058269694773532      22.446395696198397
   210   3      5.9014220579418719      4.1199979253815213      22.513257550813247
   211   4      4.0003444014985003      7.7032324236705119      12.148573553084935
   212   1      6.0876883082026501      10.055930149914104      14.092397124964547
   213   3      6.0219358540331811        10.3188289473634      12.072018096560482
   214   3      4.0195795048464262      10.169842224440044      14.088204262573511
   215   3      6.1599827539283529      8.0281502362116655      14.248266798178081
   216   4      4.2602483230122585      7.8485239125113804      15.901174491799084
   217   2      6.0501512071597414      10.161284087398997      18.011991891193293
   218   3      6.0783547259535942      10.101467741235751      16.156034942711901
   219   3      4.0932569213079173       10.08112792964806      18.400683678992557
   220   3       6.067553784769518      8.1624278322266672      18.418485646999436
   221   4      4.0953135712364395      8.0822964578434302      19.861584652724314
   222   2      6.0315487904145542      10.072682824761737      22.270949883294669
   223   3      6.0177922740805005      10.300272620432061      20.381639442479308
   224   3      4.0408011561825719      10.165391875995248      22.449970810696907
   225   3      6.1058548313942191       8.163964005508884      22.261756610330288
   226   4      8.4751900935904079   -0.017944157714559709      12.118024251681865
   227   2      10.280817756347441      2.0231137665676457      14.199328135330179
   228   3      9.9681537709134957       2.085248173631824      12.196515356873512
   229   3      8.0782798190318879      2.2117106756121911      14.207926569736911
   230   3      9.8573788879814686    0.024115480005699779      14.087020133002946
   231   4      8.3068258840059652    0.056218759351175929      15.908028168773631
   232   1      10.076663932383815      1.9608697143549667      18.220567910335223
   233   3      10.001243737255615      1.8457318013946258      16.168749705271651
   234   3      7.9908242976174915      2.2140419763968877      18.371848633041857
   235   3      9.9196361351831257   -0.041604615295476537      18.525640242244595
   236   4      8.2016437552971695     -0.1347866320621616      20.161063376757678
   237   2      10.230243123137592      1.9274390443837666      22.313357290301568
   238   3      10.044393249725548      2.3845913827382237      20.326899097809527
   239   3      8.0042243023057882      2.2606555526742791      22.260827127126323
   240   3      10.025914184121316    0.046234426133269897      21.992813241592142
   241   4      8.1514736436861899      3.6286579333028905      12.220303182939466
   242   1      10.136880055578894      5.9839918184004439       14.14106547994567
   243   3      10.105861905858353      6.0658004245975947      12.087860967574457
   244   3      8.0544016405797496      5.9788325570251875      14.313178067898962
   245   3      10.133018676720996       3.982867811951551      14.385515360067764
   246   4      8.1884452859728949       3.856173433096155      15.857556691385433
   247   2      9.9831868396487788      6.0121206510558576       18.15699709759555
   248   3      10.097803971718765      6.3313310946016124       16.22781808244126
   249   3      8.0723143380451514      6.0516271799902315      18.297280266273216
   250   3      10.295392560509802      4.0755483557472711      18.085895503256111
   251   4      8.1592515713584319      3.8340776791884719      20.164845564801887
   252   1      10.080588303576471      6.0488500799272344      22.247338988710389
   253   3      10.293517941739706      5.8517367197015799      20.203500070265335
   254   3      8.0222367602977602      6.0519296647369956      22.427888720914527
   255   3      10.163256532074902       4.029744376631121      22.574071761214913
   256   4      8.3285242681345206      7.7984418323618945      11.948289821491706
   257   2      10.120301848316764      9.9655222493478099      14.200517152101902
   258   3      10.109686328466269      10.376821046574456      12.201097031617534
   259   3      8.1195272724723502      10.378844810557451      14.094257656861075
   260   3      9.9202141364082586      8.0902050407527355       14.01508076338189
   261   4      8.0395392322084742      7.8296424808015788      15.910592042005707
   262   1      10.046709386408873      10.055341372340576      18.198161347143952
   263   3      9.9394127484624004      10.024866409649368      16.149570201900467
   264   3      7.9920788899602346       10.13797863221712      18.450457865279816
   265   3      10.011854824593563      8.0408509376409469       18.55210057992862
   266   4      7.9955189525992125      8.0560109022501223      19.888698085231923
   267   2      10.124170686433157      9.9552047714354543      22.302277149024285
   268   3      10.027952476037964       10.44398624462864      20.318535681492804
   269   3      8.0477457635595879      10.330558651100725      22.311041441457853
   270   3      10.009283169625355      8.0985700381839507      22.064748449820197
   271   4    0.053432548091160617      12.237841644827407    -0.30261928609890393
   272   2      1.9256196331367328      14.094191464869029      2.1219190461553445
   273   3      2.0912827289139435      14.307991671372152     0.18920246180381275
   274   3    0.052482175634606311      14.158799501826831      2.2347465153530024
   275   3      2.1494665052859796      12.204384352656183      2.0968013766252156
   276   4    -0.12649496460293236      11.985201732957924      4.0877224484686847
   277   2        1.96674940193779      14.160576210750749      6.1533529335655182
   278   3      2.3074681356240365      14.220198040351084      4.1111723677315144
   279   3    0.077264211332518151      14.154913416498513      6.0520297220185633
   280   3      2.2590106208718566      12.279039471146744      6.1958856153229283
   281   4    -0.32234032470836005        12.1121530635338      8.2266412316731188
   282   2      2.0105710136507629      14.100185767512221      10.186955353570591
   283   3      2.1890254541170062      14.427204778202656      8.0989284419051213
   284   3     0.10909638494918567       14.23291880876481      10.098046600378629
   285   3      2.1835947062916037      12.236490121833954      10.066069297646555
   286   4   -0.001915290252368008      16.044310796899111    -0.26146340700298637
   287   2      2.0495490694406708       18.11520779277609      2.0945274459710297
   288   3      2.0002130123340769      18.303660761219501    0.047833197073742159
   289   3    0.014502502381779234      18.408267616610289      1.9990237018290236
   290   3       2.048412769850477      16.220743317807219      2.1274617520207757
   291   4   -0.032441346048791495      16.393012318757453      4.4870321014271308
   292   1      2.1152171089434137      18.246445227505522      6.0685606076867726
   293   3      1.9732964377017064      18.364682261941823       3.994934865516961
   294   3     0.01240085199969046      18.394679390382123      6.0030711301470969
   295   3      2.0069714297725967      16.203197900923307       5.886753001467115
   296   4    -0.31054472611402612      16.113092259122258      8.1699451468158308
   297   2      2.0736331868897566      18.213823995949582      9.9734086467410812
   298   3      1.9975321184572721      18.334560007293657      8.1109932531072122
   299   3    0.085266792311537831      18.454793727586889       10.19013600956762
   300   3       1.938772865521738      16.315198037727953      10.176627053940138
   301   4   -0.038934213034658979      19.882752916462849  -0.0075470598134938453
   302   2      2.0198990452836671      22.173226282683792      1.9930269100525049
   303   3      1.9193335326729333      22.478814869441525    0.039264906840246333
   304   3   -0.041454905029875366      22.368584996509313      2.0202679754282951
   305   3      2.0241840477705022       20.30816424443455      1.9544684104016101
   306   4   -0.047082648153247114      19.887160056594389      4.2019307091945359
   307   2      2.0662259477956999      22.161792632906952      5.9450048985898389
   308   3      1.9569905046138898      22.353134187887246      4.0166616823680492
   309   3   -0.019369193058025102      22.248653722998792      6.0501600730598257
   310   3      2.0717623400144021      20.313131867540449      6.1016253431435903
   311   4   -0.033194323658812273      19.870986940238097      7.8014946231452633
   312   2      1.9819450477239557      22.301220591971944      9.9330675726254167
   313   3      1.9197034758153726      22.391295833309073      8.0508195579279427
   314   3    0.058025410084547896      22.201186739017473      10.337008957744613
   315   3      2.1427180304110021      20.319749332382191      10.214775391472365
   316   4      3.9512063032593678      12.233589089933512    -0.25237806173810645
   317   2      6.0070164192777913      14.145889134931652      2.0287366759474978
   318   3      6.2537606680496882      14.247433158517584     0.10664447308074629
   319   3      4.1252998402369849      14.360129582507154      2.0183875956714612
   320   3      6.0459535475363078      12.193009311513379      2.0543141833635898
   321   4      4.1092840407477942      11.829983110461875       4.171017287090371
   322   2      6.1354068110040147      14.133612110469398      6.0637706531308835
   323   3      6.0965443374159891      14.249482173787213      4.1264551974889256
   324   3      4.1600582618549096      14.546955461494846      6.1484252294203134
   325   3      5.9482049493656231      12.273017860018649      6.1945937850633186
   326   4      4.1636087521206173      11.833073436486096      8.0054862583362763
   327   2      6.1233677262394925      14.131080323437763       10.10498846494022
   328   3      6.0205596374362562      14.391953238128654      8.1332644699795171
   329   3       4.085575457186132      14.524193335469699      10.092830808948648
   330   3      5.9385142768806674      12.270783243169918      10.106381473526536
   331   4      3.8855202689250481      15.948724072155208    -0.13593199275748319
   332   1      6.0405803591657712      18.150853967967162      2.0724134091905073
   333   3      6.1713066343849752      18.249681712293157     0.01109185833836389
   334   3      3.9915060785660406       18.32311878218534      2.0189408538468268
   335   3      6.3680482729439039      16.146469153284563      2.0891217382733189
   336   4      3.8410840753787694      16.152607970036222      4.3115008800122254
   337   2      6.0880690318251256      18.157221666904682      6.0487057639874973
   338   3      6.1336658214514257      18.454111484557373      4.1037420916226974
   339   3      4.1575208272003197      18.073253090271933      6.0390103479513506
   340   3      6.3363500347433774       16.28642857305756      6.0824830063350657
   341   4      4.0572026130608121      16.029254263366219      8.1085270032429442
   342   2      6.1609920776539866      18.258544081838235      10.076749298681307
   343   3       6.047609591253277      18.384164989367239      8.1118351900004377
   344   3      4.0253337270687206      18.230085132317466      10.204282414087441
   345   3      6.1493930852040473      16.335562623933225      10.183551661329913
   346   4      4.3480502102081653      19.882581932007405     0.15412544055422983
   347   1      6.1051985789793202      22.295377497480981      2.0160681730474517
   348   3      6.0636566085363564      22.521637573199691   -0.040536385345241455
   349   3      3.9313122526112227      22.444102382602239       1.972929365144124
   350   3      5.9829046950411264      20.285834686044357      1.9307335031601163
   351   4      4.4498953824612242      20.199402283587265      3.8303971817374478
   352   2      6.2679863767352897      22.284066882801216      6.0481452308027519
   353   3       5.894796637404089      22.261974926057597      4.0945819015657863
   354   3      3.9332868743675107       22.48698814540257      6.0783095995061682
   355   3      5.8349026408363516      20.327802137615691      6.1307624516011359
   356   4      4.3738160489764697      20.361668154413096       8.074637445847392
   357   1      6.1384882322970178      22.279751922298136      10.075188754207915
   358   3      5.8599963874022594      22.321968588588412      8.0174247465928641
   359   3      3.9610554613175566      22.393513640706939      10.206966735743979
   360   3      5.7827243098876009      20.258934388017288      10.078609375767552
   361   4      8.0983178528409425      12.203451531167802    -0.36794518888729461
   362   2      10.055154683494708      14.166218064686145      1.9102767261011213
   363   3      10.165518761078332      14.319758954070258    0.019165541266112068
   364   3      8.1493285822083994      14.087992593505117      2.2247581338415272
   365   3      10.358550160531564      12.211787699996291      1.9540869983891804
   366   4      8.0351000713393894      11.792629578710343      4.0824713943280537
   367   2      10.099369248546887       14.16142677248903      6.0355926737572094
   368   3        10.2496611745156      14.005407018086308      4.1340910437745766
   369   3      8.1290088378229619      14.117225707718413       6.169158543773487
   370   3      10.248690738855979      12.264245493670638      6.3624900677545346
   371   4      8.1631294906980596        11.7472768169793      8.0496981573944328
   372   2      10.197215103860563      14.083850980688242      10.191721579052372
   373   3      10.126643292523999      14.496578942580248      8.1339299408325569
   374   3      8.0619223256994808      14.227527027541319      10.088446338365337
   375   3      10.161541843029008      12.210777725423599      9.9783557810736063
   376   4      7.6677381514332179      16.385052074151275    0.026669120966995453
   377   1      10.153601982983702      18.164354787187243      1.9996099324584129
   378   3      10.250646799675934      18.149354568408274    -0.05711684541688946
   379   3      8.1320506237744734      18.363586231700193      2.1018374927721348
   380   3       10.04424668095225      16.143757512094574      2.3115602587893944
   381   4       8.113198270302231      16.318724641732771      3.7090225643962809
   382   2      10.254256255886807      18.210276396079795      6.0531971375436573
   383   3      10.067142675373379      18.448225400379297      4.1263207189787741
   384   3      8.0744377445271525      18.572499284289648      6.0780849148749594
   385   3      9.9567754744605956      16.234423622757994      5.9918785130887597
   386   4      8.4482521208630388      16.225785273108713      8.2562268954427225
   387   1      10.156184505734684      18.245790536541215      10.118792269793182
   388   3      9.9366762370012172       18.11041941410026       8.070504239176973
   389   3      8.0360077736277358      18.500558151130281      10.191843495732867
   390   3      9.9290014374117082      16.222210290518106      10.277350497402434
   391   4        7.79321415405638      19.927555083697847     0.35996351000692972
   392   2      10.152194802941764      22.135477372803685      2.0494624766265099
   393   3      10.162075414401546      22.556296833374454    0.024598450743316451
   394   3      8.1672953280420586      22.368871310386975      1.9616362786332546
   395   3      10.318750332374945      20.247849229633651      1.8401173781087732
   396   4      8.1543335544908153      19.923783977116404      3.8873600197497478
   397   1      10.190315895356035       22.22212693037401      6.0261475269737144
   398   3      10.128310493637946      22.175371338142767      3.9853286190140009
   399   3      8.1193801846582367      22.208696968832829      6.0948533676764454
   400   3      10.260951316437463      20.217910394611156      6.3976837085874205
   401   4      8.4563104891597867      20.141155517152136      8.0047192301261099
   402   2      10.206351811252492       22.20105184039037      10.155185677101827
   403   3      10.197023867471307      22.558547883185732      8.1194906779344453
   404   3      8.1726467962604179      22.188158091189443      10.033455616010807
   405   3      10.245300388329408      20.284018774705906      9.9606180326217952
   406   4   -0.098363478616720054      11.891762279905942      12.123764924803098
   407   1      2.0484311536042696      14.195002372520632      14.108470183934926
   408   3      2.1809621905767433      14.304862912876336      12.077815693986153
   409   3  -0.0071801135943984733      14.131197248288254      14.324488936209226
   410   3      2.1792480172374202      12.189205123760372       14.29724322210296
   411   4      0.1215549107404414      12.155996247836061      15.779482715168424
   412   2      2.0537583308731624      14.078984015941082      18.220794659812359
   413   3      2.0548562408209117      14.376245793403603      16.259134803064828
   414   3    0.071022312112385105      14.125930215855846      18.353511841695145
   415   3       2.172746676345747      12.176947279312312      18.200208720604657
   416   4   -0.012299215620733125      12.043789795028799      19.947455448959769
   417   1       2.034458830232333      14.139189837720894      22.211141309909891
   418   3      2.2305331718816519      14.212803318662374      20.208945141225993
   419   3   -0.011114627837797942      14.148453649520505      22.494583095051571
   420   3      2.1000053239444272      12.126762502059446      22.559816680906902
   421   4     -0.1636610407197116      16.128133401792432      11.905626414974543
   422   2      2.0344268767322817      18.188506634830166      14.033607212212157
   423   3      2.0448555286524175      18.373595071126442      12.179820260309635
   424   3     0.11454698186987876      18.451504161086945      14.310173881140566
   425   3      1.9188439776655457       16.30897723351681      14.232833657602082
   426   4     0.11086273081396261      15.973798326887396      15.933305343297292
   427   2      2.0610070840299337      18.277812171690595      18.124368062807935
   428   3      2.0914798201927649      18.274684434353535      16.253113223542545
   429   3    0.088504251698827752      18.287397580493902      18.380338275741206
   430   3      1.9951604626603137      16.274815272590438      18.403092659295105
   431   4   -0.026117253443385582       16.28107711184974      19.921027825573301
   432   2      2.1153305051232878      18.113157762960736      22.269352357030847
   433   3      1.9539704056178513       18.25315893999619      20.369846983267749
   434   3    0.023606219265709154      18.178374177550982      22.494941789159153
   435   3      2.0400864488916239      16.205685895928447      22.444454277522834
   436   4    -0.14279270248848644      20.231311203250694      11.840336004814569
   437   2      2.0072981646287653      22.222902803146177      14.148172973741632
   438   3      2.0883722856634099      22.295249778785145      12.248172785371372
   439   3    0.052949991978058435      22.294518189349983      14.290891202190627
   440   3      2.1658605757857763      20.310435974449948      14.380496489640754
   441   4    -0.19899480970544522      20.071107989900838      16.066657755738486
   442   1      2.0404451158100936      22.244180224550888      18.236907924354082
   443   3      2.0295841239506824      22.515828823482909      16.224473765127446
   444   3  -0.0054002746140180457      22.251199501236492      18.485233166806392
   445   3      2.0634640387534606      20.204003433245216      18.442311822480097
   446   4    0.090917270919833537      20.152103543254917      19.951950226700159
   447   2       2.037948330021818      22.144798282284764      22.267763297981968
   448   3      2.1231547898268772       22.39537854442726      20.368132711374724
   449   3    0.075319809837415583      22.435827120258146      22.294910510125248
   450   3      1.9780421001640616      20.265063482316233      22.381369956165575
   451   4      4.0848977145484646      11.826393733289201      12.250886070686331
   452   2      6.0951464405680209      14.085080047213879      14.201367896890883
   453   3      6.0108998401901363      14.339557621250984      12.127288136779967
   454   3       4.106733540316533      14.481205475568474      14.169682210863026
   455   3      5.9246130388375633      12.212381739627194      14.177762313536594
   456   4      3.8739191568969398      11.964575816403947       15.91701416781255
   457   1      6.0962154877841233      14.130113245999331       18.15642187987342
   458   3       6.038424328899147      14.384581202907777      16.127094395567621
   459   3       4.040179834924392      14.409610500131334      18.180712269666248
   460   3      5.9598825454057494      12.099895308641646      18.298642284016331
   461   4      4.0861449839287847      12.026745320395856      19.903938730503551
   462   2      6.0949666031201541      14.214067893465609      22.157766026803934
   463   3      5.9092198246904077      14.168668705044935      20.285740154425696
   464   3      4.1167066975746103      14.194519982295192      22.591415712371067
   465   3      5.9833694931900787       12.16030957468293       22.55712719737863
   466   4      4.0536493511571265      15.921338740232185      12.146518801202147
   467   2      6.0941669526778091      18.250323261590907      14.095378390097693
   468   3        6.02820878671029      18.457020560117179      12.186404462956832
   469   3      4.0395060169249293       18.28500551876931      14.313481804775376
   470   3      6.1673693992347234      16.346136117770502      14.136091156184126
   471   4      4.0609712664379849      15.870876443028655      16.118988697857631
   472   2      6.1370683782427067      18.118207864408486      18.201560733881639
   473   3      5.9865105672515275      18.289860277687744      16.280857270201288
   474   3      4.0579747267511124      18.221009451447507      18.440908275949575
   475   3      6.1518779925948222      16.263571095443485      18.392919771979699
   476   4      3.9775512162990201      15.927453883349788      20.018597810737674
   477   1      6.0518310778782212      18.186816724157691      22.247153488413286
   478   3      6.0923161479556844      18.498848803861126      20.216504815192408
   479   3      4.0087950804086345      18.266008235886765      22.321473495165176
   480   3      6.1578086084617727      16.136486937770833      22.389155141216765
   481   4      4.1447475674302732      20.397801489840404      11.794223185818391
   482   2      6.1220001018950274      22.377571776269875       14.02709654932595
   483   3      6.0039486800080351      22.142600040080744      12.165527623377608
   484   3       4.064633200692473      22.373190242689557      14.404133556220787
   485   3      5.8938167981002811      20.307198379936771      14.412447976725343
   486   4      4.1202522371459924      20.207402342479874      15.972051562978484
   487   2      6.0776185050729259      22.249457590856093      18.174486228775873
   488   3      6.1086654411837475      22.420780092846904      16.291566185138667
   489   3      4.0955874245888761      22.581918798626447      18.238423083767316
   490   3      5.8734292327829278      20.351097818290206      18.275876929350467
   491   4      4.2274867854676392      20.015673234910249      20.187034885583568
   492   2      6.1291391085888174      22.181859730407897      22.311484083870582
   493   3      5.8414532707897528      22.324140239290855      20.334610538622531
   494   3      3.9955417863742881      22.464933174785802      22.458503199999335
   495   3      5.9759727512676779      20.311556077275224      22.356339802745616
   496   4      8.1626314319978697      11.799201843577878      12.157766138156456
   497   1      10.098133421610317        14.1864924629505      14.145228772333121
   498   3      9.9935014017661246      14.165964180899563      12.106790599976142
   499   3      8.0351442332767142      14.215615264012184      14.223580180465394
   500   3      10.160308219672256      12.170412819339374      14.456275020774317
   501   4      8.2930002835038223      11.943176643657344      15.894908560457171
   502   2      10.077651906950912      14.009260303639982      18.180770595271333
   503   3      10.055227106246374       14.50022452338805      16.257342147901671
   504   3      8.1362525391092575      14.265219089203994      18.358050395258577
   505   3      10.090715964787471      12.145181016911131      18.054486679696574
   506   4      8.0952221424052393      11.893577559659892       20.06907977938133
   507   1      10.066470339809573      14.207548656446553      22.250041912854385
   508   3      10.242405609888156      14.114755951229498      20.185858806726245
   509   3      8.0355681363131524      13.986155844717743      22.250301245446934
   510   3       10.24433179972992      12.173961187898856       22.43460482453369
   511   4      8.3860454066529364      16.063026589741384      12.101196810546801
   512   2      10.224621617671982      18.243043565928762      14.093263497080375
   513   3      9.9947891128666395      18.459587514805655      12.214660336540032
   514   3      8.0161148768913151      18.502071996472424      14.281683379570641
   515   3      9.8430515668718161      16.318080715295345      14.101443208510654
   516   4      8.2034677566820982      15.976865551829144       15.98928023645931
   517   2      10.170997930764702      18.221124325774486      18.171274652930045
   518   3      10.019620071070619       18.07812852004362      16.261326996269943
   519   3      8.0762773798133107      18.415133484055609        18.3276276308554
   520   3      9.9661738818824066      16.315522915333471      18.496090543450489
   521   4       8.156260894794956      15.921608924393105      20.105395416802487
   522   2      10.014987556686712      18.136494316445802      22.351102462041283
   523   3      10.087173459451156      18.540398557430471      20.231690019157178
   524   3      8.1313877257984544      18.367736498922728      22.219771658422996
   525   3       10.08742741383505      16.259887904199168      22.005111883971527
   526   4      8.2778756755714333       20.33082566803235      11.961369860568844
   527   1      10.160769018574131      22.268681986538617      14.150590042724449
   528   3      10.029888421680177      22.172089255417522       12.11988283452342
   529   3      8.0260909017922053      22.076493010912682      14.243712008611489
   530   3      10.140136467235232      20.221617275292047      14.500676901932081
   531   4      8.2394774186092228      20.345884291311108       15.91702474626098
   532   2      10.157757409346347      22.314767122201633      18.198851775822273
   533   3      9.9320452228613387      22.496312100505978      16.275115475016193
   534   3      8.0342168025709206      22.250977811330849      18.508080947399264
   535   3      10.174600804186728      20.288762906898928      18.121621399935798
   536   4      8.0380799122912752      19.982124163196641      20.328275385541357
   537   1      10.068093341158891      22.221317603780665      22.293540833908366
   538   3      10.318979827590486      22.152117887683939      20.241940460279135
   539   3      8.0232928492457187       22.37126856605747      22.222883996364299
   540   3      10.401149294578323      20.208799981759306      22.344968565531019
   541   4      12.139799321983272    -0.33037812243656745   0.0012842940471551793
   542   2      14.033284161264683      2.1157412975710455      1.9613590329580335
   543   3      14.315414924022649      1.9150205630652886    0.037814631388676898
   544   3       12.15978829713533      1.9748032051221487      2.1393522297089325
   545   3      14.332593964808298    0.074822233952884523      2.1360992242986474
   546   4      12.070880968403069    -0.12897835667851823      3.6984780410214331
   547   1      14.194203236791203      1.9754094453579536      6.0123913113913252
   548   3      14.434648428932018      2.1294369178993704      3.9698104394321754
   549   3      12.145036343078457      2.0938849842902774      6.0198629106796613
   550   3      14.467625237772193   -0.045928535209940051      5.9374785042270863
   551   4      12.239916840419037    -0.34210198528538133      8.0516580249627783
   552   2      14.237399060138898      2.0491905364870053      9.9607197594703347
   553   3      14.251925915924456       1.855082065982242      8.0894825707226587
   554   3      12.243057338213911      1.8852598058920826      10.340938540305279
   555   3      14.289024844564658    0.041322088964820571      10.434244891779382
   556   4      12.156535917016159      4.1024050960272698    -0.33664763828456556
   557   1      14.155515724436714      6.0491435526435673      1.9978344422217635
   558   3      14.141886214494876      6.3275377296681441   -0.026016688752155619
   559   3      12.098532763117145        6.32059446986365      1.9736390918826427
   560   3      14.204530141253667      4.0290875607250829      1.8770497217705686
   561   4      11.914483126030078      3.8929806328948202      4.0798681443351184
   562   2      14.145814216147482      6.0753657549801927      5.9481042619444899
   563   3      14.254815152878953      6.0399833555484488      4.0499072500201452
   564   3      12.211579638630905      6.1175280166681985      6.1826205745566165
   565   3      14.157576820513917      4.0932816993526302      6.2824558244960347
   566   4      12.176567884017494       3.955608538816684      7.7587530853466316
   567   1      14.183314149813949      6.0250829629434763      10.117522355718263
   568   3      14.149156459411708      6.3514028677910623       8.103010230552453
   569   3      12.111857805041728      6.2849051742889621      10.146826845405887
   570   3      14.072181505862886       3.990018473929168      10.093907653979686
   571   4      12.148921401395553      7.7156229494501281    -0.07288205994542768
   572   2      14.013273761657807      10.105669288796918      1.9824203906521691
   573   3      14.336403607138148      10.067345130438353    0.045285601716948384
   574   3      12.134467337913124       10.06728420188653       2.113862934868509
   575   3      14.327753866764898      8.1675122726161931      2.1671583454069321
   576   4      11.954374691741853      7.9240213440153786      3.7700135071912348
   577   1      14.115151095207182      10.096839862213791      6.0457327291738974
   578   3      14.339034371203301      10.220928962187138      3.9989928282656257
   579   3      12.075208153652882      10.200180124528275      6.2039912253990925
   580   3      14.410519957472189      8.0743899794999248      5.9804086995367305
   581   4       12.18766949469093      7.7161565634747991      8.1250441913898666
   582   2      14.035215535247321      10.105026231136986      10.080169052899087
   583   3      14.292514920659645      9.9904664878090532      8.1631697665035841
   584   3       12.13928775552019      10.141717392006699      10.193818858643819
   585   3      14.251480530527369      8.1784148254657865      10.399051193976099
   586   4      15.808973534319181   -0.042797721690086186   -0.035785966786853925
   587   2      18.194808853857204      1.9549225277455129      1.9692385224197559
   588   3      18.406430270932542      2.1285572565343962   0.0097457533313179672
   589   3      16.304274637696139      2.1730020235199969      1.9781325312671547
   590   3      18.259799157775156    0.072736040547305383      2.0716332898943195
   591   4      15.858073192532368   0.0081075043271864339      3.9184122646466744
   592   2      18.233973283107531      1.9032230878928675      6.1609789712351857
   593   3      18.184182666240019       2.266314480097233      3.9878076080210478
   594   3      16.290341641040047      2.3360743796156704      6.0573166099731708
   595   3      18.093925254612262    0.025025591152525742      5.9615106842358827
   596   4      16.002896349268461    -0.27408920090405248      7.8381060236988027
   597   1      18.226916605550144      1.9871763917128149        10.1149053873739
   598   3      18.383047144766287      2.0641834795987148      8.0694076423347223
   599   3      16.190596292170589      2.0626710199044322      10.335520681850172
   600   3      18.165649138499173   -0.042529571236539165      10.351835591208809
   601   4      15.917184947354455      4.0481467714249062    -0.19264649551018675
   602   2      18.112095506932807      6.0297711890288772      2.0358619750074172
   603   3      18.462066614453256      6.1820550109094849    0.077029723485835103
   604   3      16.257250871413991      6.1374031905353101      1.9581890174601024
   605   3      18.402843451316702       4.128191473650566      1.9746457986739248
   606   4      16.088419522911892      3.7920100529828904       4.064607966655192
   607   1      18.184942521532964      6.1028762311794456      6.0541168565770977
   608   3      18.368166859634677      6.1700946120213551      3.9984119487670609
   609   3      16.174051147446672      5.9655500169084306      6.2967197323765962
   610   3      18.464489549236731      4.0737069607514957      6.1484668045494839
   611   4      16.100837577182947      4.0654165307755523      7.7315069418681315
   612   2      18.118151823855701       6.006722108925862      10.157515794174001
   613   3      18.442746556596884       6.115269449000631      8.2134475684120378
   614   3      16.258417161518842       6.071638736608536      10.141088894056647
   615   3      18.466980031088877      4.1155579632909802      10.164826584034396
   616   4      15.863595928779381      7.9035608556805066    -0.14116962444843834
   617   2      18.196838522024297       10.11988556731368       1.939523170437184
   618   3      18.295911371220921      10.205155746933334    0.033744276936915965
   619   3      16.298832965056871      10.241171311373906       2.077289874481131
   620   3      18.293046740439987      8.1845974935279973      2.0912108275656536
   621   4      15.840584302832498      8.1327458193558098      3.9705739525664843
   622   2      18.081175493257522      10.135650790069748      6.0344817033792149
   623   3      18.334728404526924      10.182797629772969      4.1085611709758343
   624   3      16.227233974471631      10.322490220018818      6.1375351210935225
   625   3      18.238068556949905      8.2086137304124893      6.2187810228945573
   626   4      15.899517126090185       7.901488502395166      7.9182666670086395
   627   2      18.124652532856512      10.048328657568424      10.088553530790522
   628   3      18.279948504413046      10.253524242408876      8.1693705836884671
   629   3      16.256281996403917      10.233421334251222       10.24882867703354
   630   3      18.246929116961816      8.1615471084298594       10.16373084274942
   631   4      20.313645214548735    -0.32580350024890858   -0.075358791595813518
   632   2      22.207554029487046      1.9707217140487501      2.0347180913030969
   633   3      22.332233466850248      2.2056655082817165     0.02227728145623831
   634   3      20.288934032631172      2.1106398478945771      2.1186605584613321
   635   3      22.381774402530336     0.10000412688974344      2.0410375386508393
   636   4      20.141461265112518    -0.23331871419622166      4.2092263289965857
   637   1       22.21339440666452      2.0104368732483322      6.0275043083481341
   638   3      22.442874458815961      2.1619471076042127       3.965649671411172
   639   3      20.184710083078329      1.9697011809688427      5.8215278795302563
   640   3      22.529438465842574  -0.0051147403206090727      6.0032491853956262
   641   4      20.145980892752366    -0.35535236082629146      8.1641705906663269
   642   2      22.246047995749187      1.8956445978443059      9.9821109770957968
   643   3       22.27445774231597      2.0341898706648389      8.1035984327325714
   644   3      20.339024191435989      1.9716078843903906      10.354486586510838
   645   3      22.495884060509084    0.036514716172710675      10.196603152417019
   646   4      19.979538652043768      4.0912895789929218    -0.19216756969401352
   647   2      22.244243057686923      6.0464669493165122      1.9760605620386518
   648   3      22.314682774133285      6.3257625877343147    0.076585587170779137
   649   3      20.348068148859969        6.34378817598067      2.1300710365702566
   650   3      22.262632737590419      4.1793720933274221      2.0371229416416519
   651   4      19.994861356560204      3.8702273353181722      4.2439177636178593
   652   2      22.251782160986938      5.9809169862439537      6.0513646603910658
   653   3      22.348128229179299      6.2507316348027118      4.1079016679889415
   654   3      20.341086943451728      6.3641065103049748       6.100188601958898
   655   3      22.128064798146493      4.1246359195011957      6.0910018374381867
   656   4      19.912571124982236      3.9983412199607606      7.9967793508468112
   657   2      22.233678905059303      5.9753351167048292      10.129165093797747
   658   3      22.281200007793647      6.2705487646790061      8.1081889126881652
   659   3      20.319011847287619      6.3143319696661235      10.191223126494522
   660   3      22.169392986364876      4.0960246434083238      10.143731660913735
   661   4      20.027184646892771      7.9245044269136562     -0.2048642999390525
   662   2      22.218094871232935      10.122147990452513      1.9750009503862722
   663   3      22.419967380256811      10.192349150368269     0.10679575733929125
   664   3      20.318504358685299      10.156187429863611      2.1286074611415087
   665   3      22.438234179860526      8.2324515851512299      2.2267514404713538
   666   4      20.024074460033933      7.8781428377626241      4.0462044481983073
   667   2      22.212701755355344      10.101944552161763      6.0975048738473223
   668   3      22.370647785882039      10.302337265097368      4.1649830685419653
   669   3      20.323765435229085      10.097974337523455      6.2436372088000898
   670   3      22.494937076324895      8.2081689418811159      6.1228509516733247
   671   4      20.037148766394509      7.8839361995713508       7.969005724255565
   672   2      22.167935226101932      10.125982222611098      10.183488619858274
   673   3      22.523940734721997      10.165946913805117      8.1168431896552296
   674   3      20.272741589608369       10.14208337746825      10.105002988432682
   675   3      22.461232359830472      8.1940303205638063      10.092251524312939
   676   4      12.363680718804559   0.0061979241337438047      11.850011117422094
   677   1      14.192337052877967      1.9893127588181621      14.200814106841769
   678   3      14.215741711876111      2.2648936355796025       12.18389220707256
   679   3      12.157563969922625      1.9296662407166101       14.13878522423342
   680   3      14.296344554541793   -0.046055195505743038      14.062862607087048
   681   4      12.275346141721364    -0.28260194234572605      16.121078051969139
   682   2      14.059852159885354      1.9745873148202435      18.294891071530486
   683   3      14.330345711337241      1.8594636008649132      16.249853049363178
   684   3      12.150142159992482      1.9987268682071251      18.203009376909403
   685   3      14.389682408757771    0.041639084526362322      18.327696292858867
   686   4      12.021440468210782    -0.33717939090267973      20.349372042236443
   687   1      14.158814339981838       2.010940171789902      22.265290325515029
   688   3       14.32141860548834       2.165855515384818      20.221886348831351
   689   3      12.114498194302726       2.030626520365034      22.324205163610376
   690   3      14.428080591272128   -0.011636740086193687      22.197159540460817
   691   4      12.384227119818833       3.703193821616777      11.972547161500609
   692   2      14.038993917610151       5.994858006827803      14.168361183656939
   693   3      14.223468114236088      6.0537020803273167      12.212760747734608
   694   3      12.154861614877433      6.2751712146785454       14.20459015438365
   695   3      14.137973468392545      4.1028925740990818      14.389446649975264
   696   4      12.145943183709132      3.8895832383077646      16.416309407478821
   697   1      14.149279210034706      6.0531802198440507      18.180655713182556
   698   3      14.159116445685585      6.3684625981872385      16.153219093131803
   699   3       12.09120782283642      6.2903193820654142      18.134579320115243
   700   3      14.057597484610142       4.011480763370237      17.937453518644844
   701   4      11.820859585384296      3.9991073236863262      20.153313331607947
   702   2      14.189885380141323      6.0517639624464783      22.116093357038757
   703   3      14.164388742102693      6.0200678892597805      20.220150120262964
   704   3      12.176301153355348      6.1124371212996147      22.419550630633392
   705   3      14.099679133920693      4.0920188573515484      22.516825169134293
   706   4      12.039440877582534      7.8023128505555439      11.934062606374972
   707   1       14.15219406672882      10.109659613504183      14.155430719773248
   708   3      14.166255088926347      10.418631604028111      12.134207808129979
   709   3      12.080572480861619      10.237878613935324      14.190516312053376
   710   3      14.420417980602712      8.1005736719154005      14.086354535173005
   711   4      12.082649207256837      7.7617579762520341      16.249478352110135
   712   2      13.941664295260859      10.140819656207482      18.215303539087515
   713   3      14.358087596610943      10.070800638539326      16.260642160208267
   714   3      12.096453305618402       10.03998188385035       18.24108870488454
   715   3      14.374056274831261      8.1890016012846534      18.295994481938173
   716   4      11.855865895749622      7.7910498006074214      20.059754573540751
   717   1      14.093219982130007      10.062932339240158      22.239902175944593
   718   3      14.344297928389857      10.201696937735335      20.183278364895429
   719   3      12.062447091650188      10.169387099434839      22.217426267301541
   720   3       14.34714881379724       8.065233632591152      22.162382244993804
   721   4      16.182838019042585    0.033346544698620702      11.815907353155396
   722   2      18.160162235880872      1.8470850140970574      14.210574421259652
   723   3      18.285071265850544      2.2061745205169254      12.262942729830105
   724   3      16.286502568221458       2.185455720407707      14.200111475743718
   725   3      18.282935464446677   -0.019055184926511988        14.2013887219355
   726   4      15.858608829802357   -0.035858106722393299      16.308825546614234
   727   1      18.228457541502941      1.9822481524326905      18.226088588705331
   728   3      18.435527095684265      2.1151166126713012      16.153455892799755
   729   3      16.198397338074489      2.3070177141454495      18.223502236297961
   730   3      18.250519748619819   -0.050808826791605845      18.172710376006663
   731   4      15.845121676175223    -0.11564686747086961      20.323338321466224
   732   2      18.145569787831931      2.0119198272781134      22.226776795318614
   733   3      18.228898278181934      2.2719085546086228      20.296141001493705
   734   3      16.264979086459114      2.2787707526909227       22.31248618563934
   735   3       18.18492733649067    0.093439128310154954      22.226268983931611
   736   4      16.060248320634482      3.7041061106219302      12.145952398398459
   737   2      18.177682628154916      5.9854120746526549        14.2222905444973
   738   3      18.356480851127206       6.161483878346921      12.177490990863165
   739   3      16.262768587279236      6.0616703024747922       14.18700887633584
   740   3      18.448023700797503       4.119981041674416      14.247412548499641
   741   4      15.941512778064107      3.7554426052501499      16.342180426139642
   742   2      18.116986752508335      6.0407103235308481        18.2107154792877
   743   3      18.368421051732028      6.2147284980351838      16.194965706713184
   744   3      16.254850368469068      6.0209781603192827      18.180567903074206
   745   3       18.47667923427036      4.1627794881634159      18.172401137639451
   746   4      16.127249598450156      3.7624646362892631      20.108251380368028
   747   1      18.159839110773508      6.0853245713844242      22.246347692942233
   748   3      18.382249031155151      6.1380589756296553      20.173423099191076
   749   3      16.145662278669654      5.9824516076170609      22.422099516420133
   750   3      18.481112029164077      4.0634250260434799      22.349293465578601
   751   4      15.819343529720207      7.9575539069877479      12.201842645291249
   752   2      18.199641549991927      10.074393528301323      14.061895307935893
   753   3      18.396337147703242      10.309084738783159      12.139124870566576
   754   3      16.312134979345551      10.417790695627589      14.168700896803205
   755   3      18.174017697485024      8.1832053480209375      14.147402043654447
   756   4       15.78885482334689      8.0756760808083428       16.11643676795536
   757   2      18.224015730924684       10.08522582359906      18.094388538440391
   758   3      18.265961682631794       10.25100834752002      16.196775018567106
   759   3       16.34558519995343      10.240615410356682      18.334113273646722
   760   3      18.303442348101445      8.1699180363135522      18.296540897120092
   761   4      15.809695662505964      8.1774326240889206      20.160341872553154
   762   2      18.126041206194902      10.143677224352926      22.178805403379918
   763   3       18.40212774031971      10.209680812628442      20.261110732849307
   764   3      16.259280596130349      10.275990753803082      22.295031912641765
   765   3      18.325165715067765      8.2042786833681784      22.312803922659434
   766   4      20.042986913289212       -0.23477311406192      11.886746831583832
   767   2      22.298375270777921      1.9923786562190418      14.099684661996516
   768   3      22.448989764074703       2.086727558152119      12.199701378477767
   769   3      20.325672310488894      2.0627042774114224      14.172948305498334
   770   3      22.394893027180999 -0.00085712713694068314      14.333333667187816
   771   4      19.960601756852974    -0.23077660890525994      16.245566080705867
   772   2      22.239877323671625      1.9426604998884465      18.187120257783587
   773   3      22.207347052071629      2.0874003658834863      16.299989304310049
   774   3      20.357848514471403      2.1065148714835535      18.388525773846553
   775   3       22.45400231566423    0.072121693771154863      18.299188264815239
   776   4       20.30801589776609     -0.3656945729215238      20.313481293575773
   777   2      22.268939085256758      1.9709135379166471      22.248810086315167
   778   3      22.439318343450275      2.1973281376607443      20.326271576485091
   779   3      20.334080118556344      2.0908060692294312      22.251176515569579
   780   3      22.371148158888499     0.10783120564197016      22.337357444157497
   781   4      20.068104315723303      3.7318300855107198      12.051668153439882
   782   1      22.250329774885788      5.9726460276974933      14.132617199500164
   783   3      22.293175969125368      6.2360497006812219      12.079097266809681
   784   3      20.222037271919508       6.360432212201057      14.141732269938009
   785   3      22.332144668759621      3.9594800890942454      14.329140782303433
   786   4      20.136213960417439      3.7819492456074255      16.162189518502924
   787   2      22.241589624749579      6.0283175219416512      18.150192147572518
   788   3      22.294168377893588      6.1938981372558573      16.263425219401192
   789   3      20.355185475010046      6.2706281517575908      18.331046954420156
   790   3      22.308408171684313      4.1435282754017875      18.332944528573627
   791   4      19.957571170346423      3.9312817501625257      20.200860676256131
   792   2      22.317005194688004       6.064254511120386      22.192265520068801
   793   3      22.391514400336234       6.235762842354089      20.306800400779597
   794   3      20.395836671336934      6.3382903759515985      22.321791751525392
   795   3      22.270091793421262      4.1899404737124515      22.389853489696304
   796   4       20.38582614040731      7.8031341393230003      12.275562976271173
   797   1      22.282801426154634      10.148781775305704      14.113215092637844
   798   3      22.388773994830679      10.268202578474641      12.083858271160159
   799   3       20.22478114248187      10.124970130028881       14.34079567420404
   800   3      22.382866158563338      8.1384715448201863      14.243325016238888
   801   4      20.481705078430309       8.035236001691338      15.787107459558607
   802   2      22.300802974525208      10.126469931873084        18.0908007604638
   803   3      22.352251311257429      10.243557622064561      16.230740724640032
   804   3      20.330143404772063      10.199650766837006      18.274714777689169
   805   3      22.412303688866068      8.1887776328040829      18.326535429314696
   806   4      20.015489356398898      7.8909310335443275      20.230930309092408
   807   2      22.239172370532703       10.12726790892777      22.219992705615713
   808   3      22.323410682744459      10.276252465002434      20.346014970150627
   809   3      20.343808844305869       10.13505006800051      22.433825327708288
   810   3      22.481337052856368      8.2215054564637544      22.388573325259138
   811   4      11.786977626417817      11.953649733901781    -0.11181699329557902
   812   1      14.133130739392643      14.162136920669871      1.9574559905083813
   813   3       14.09653771499263      14.354349228525702   -0.071105535908798062
   814   3      12.095907439355297      14.407416217129267      2.0421801168050373
   815   3      14.249348312666925      12.089463021783985       1.968705095404615
   816   4      11.901120427629895      12.021700680275476      3.8279564144125158
   817   2      14.148061223378933         14.154799195806      5.9988699228806484
   818   3      14.191816309186056      14.019572133998096       4.091348270268977
   819   3      12.128444046901768      14.355936483640255      6.2332507669508308
   820   3      14.050936719740216      12.201085265196756      6.3829891649068724
   821   4       12.12581285126938      11.900373902910557      7.9067494233700852
   822   1       14.13863420029694      14.141131347959419      10.134836904842981
   823   3      14.128185633506863      14.503554461804761      8.1150847629022635
   824   3      12.098039153133998      14.426233798894568      10.137120138109566
   825   3      14.254194842800237      12.104623083059703      9.9682655101216522
   826   4      12.167327168914325      15.837963217982329   -0.062282014291043013
   827   2      14.187170068809081      18.213826698368486      1.8816569388462629
   828   3      14.134662967508346      18.131827588392525   -0.044951042388148531
   829   3      12.189121577479821      18.088798455833793      2.2198826201305981
   830   3      14.236421709345274       16.24189921990726      2.2692379121814623
   831   4       12.13507232844546      16.139076568912117      3.6629079814116601
   832   1      14.182925999024192      18.183440747022473       6.049085543245682
   833   3      14.308122742034817      18.391628782763238      4.0184184395300768
   834   3      12.142003871980886      18.193922799713583      6.1196797143653141
   835   3      14.423666155806883      16.155344234025197      5.9397227864319628
   836   4      12.225018735949917       15.96817115791532      8.1274150576607642
   837   2      14.203212547891631      18.274363382196611      9.9871265108547291
   838   3      14.217373938380479      17.982114544906384       8.116196498639793
   839   3      12.196299807679537       18.11279081137377      10.312232192367937
   840   3      14.205715464257121      16.260971075057228      10.479059095817776
   841   4      11.907315625314936      20.078775200792318    -0.10721750998827892
   842   1      14.205307353100055      22.186636099680257      1.9557833494209602
   843   3      14.183719748782975      22.526975895721066   -0.055265375881516497
   844   3      12.132278056869907      22.516519092005048      1.9734268566575408
   845   3      13.943745130591779      20.170515733882201      1.9729156750936334
   846   4       12.34129591545396      19.948582181603548      3.8021868180762599
   847   2      14.150711908396181      22.246214158088815      5.9182028631546686
   848   3      14.219472763459549       22.19356317781903       4.027701571771412
   849   3      12.224598965458798      22.366863341218174      6.1882479552643703
   850   3      14.112101271148378      20.283232025796178      6.3239793592246851
   851   4      12.209028754144025      20.248619839157506      7.8259266590747067
   852   1      14.190937966366779      22.248767912252092      10.084513035402018
   853   3      14.179168810047054      22.562807036231611      8.0779065665903325
   854   3      12.149082490256468      22.530184280789204      10.124172630095478
   855   3      14.011858049062338      20.214743339208376      10.009341423261468
   856   4      15.875036740659358      11.978631984422799   -0.091909547309262499
   857   2      18.055311749217736      14.207430365309451      2.0221674154418792
   858   3      18.298287329008275      14.118079125931427    0.095606321464460478
   859   3      16.191710613778035      14.080037005971338      2.1050759691693237
   860   3      18.386027658414527       12.13737080487819      2.1453424472797247
   861   4      15.843682967804407      12.097799901467479      3.8600761419341239
   862   1      18.116254205970051      14.122317689614823      6.0855907232263613
   863   3      18.404309563887676      14.099028728276306      4.0471671005675702
   864   3      16.104305511134555      14.038167002610656      6.2791726624059043
   865   3      18.494469359117598      12.105145629876485      6.1638363473874129
   866   4      15.847866192228963      12.129921944733136      7.9881118729017286
   867   2      18.097488150627015      14.200709372885562      10.102595090596564
   868   3      18.323275074652877      14.229133199454775      8.1743399984518881
   869   3      16.212348786732363      14.158121056422186      10.204373824339818
   870   3       18.43383156495825       12.18895023475825      10.168653217708796
   871   4       16.40254083821716      16.049002732615051    -0.43591795202411621
   872   1      18.224116676957625      18.143906058142505      2.0324708559690281
   873   3      18.261050602075759      18.318700023860124   0.0079991158589772116
   874   3      16.166037876764591      18.382464412390657      2.0059259122594475
   875   3      18.240137415077449       16.12115084756454      2.1636712626221208
   876   4      15.879693466326584      16.217690432553017      3.9538285936195803
   877   2      18.196641531802907      18.082593437831356       6.162532238540841
   878   3      18.166911378004873      18.400486260683358      4.0830589723772936
   879   3      16.240410937812065      18.460456561593567      6.0963746899766589
   880   3      18.109655788906334      16.182570133785923      5.9568267691884262
   881   4       15.92446657876574      16.008915252374528      7.8875075209004697
   882   1      18.167590148015293      18.199307690423492      10.135711039352598
   883   3      18.349508340620915      18.173965577026092      8.0968721632352914
   884   3      16.142832642319384      18.295935807055649       10.32549427085296
   885   3       18.19585112974303      16.157574313143687       10.32795219260422
   886   4      16.446359905358854      19.827891366308727   -0.031338814536998209
   887   2       18.14496429114627      22.189402387773974      2.0859428258178068
   888   3      18.328620610374344      22.440253843266525   -0.017878990881902916
   889   3      16.277311318447225      22.279966784300907      1.9993160667615222
   890   3      18.383645027786564       20.31958174876344      1.9062260238252176
   891   4      16.184126727921537      19.869239088134037      3.9945388219610676
   892   1       18.18739753229676      22.244469756383353      6.0355668832053393
   893   3      18.408431059035827      22.279434681708871      3.9790972685112478
   894   3      16.170714535592303      22.128248121411715      6.2621627608784118
   895   3      18.391580183998176      20.230087199425352      6.2266459320806353
   896   4       16.13972804289676      20.257206313122694      7.7130291955564925
   897   2      18.126367340621826      22.208213657810983      10.116009405459739
   898   3      18.345952756596287      22.365891376929724      8.1460690603728985
   899   3      16.225540513781404      22.220159039050696      10.207307363070274
   900   3      18.474615161731258      20.265898942351004      10.072546725260825
   901   4      20.039882580748579      12.323031459920758    -0.25147910613924285
   902   2      22.191609100912316      14.108586104608708      2.0249419632184988
   903   3      22.413227397868354      14.171606539810035     0.14399044587683626
   904   3      20.309743819549997      14.204469299669197      2.1105696507870739
   905   3      22.362882678672289      12.180810205198153      2.1811957185526487
   906   4       19.89982652411733      12.239411128970543      4.0803931417795445
   907   2      22.140785363113501      14.215290712116873      6.0807016181796509
   908   3       22.29137548539574      14.140551249712162      4.1291517920412062
   909   3      20.258639426879945      14.341085494389921      6.1791625643758419
   910   3      22.292908178774542      12.216120657619291      6.2517932662547331
   911   4      19.968570570965436        12.2002764037852      8.0418214527011713
   912   1      22.264538096747792      14.164993819258848      10.113157020075946
   913   3      22.406537039385444      14.335687726926954      8.0722150861226414
   914   3      20.245552596258452      14.423811832417787      10.132432815075759
   915   3      22.325845813953173      12.132111496651055      10.011918505787916
   916   4      19.953048579276118      16.170861663423331    -0.33257163027917458
   917   2      22.207574213085493      18.037947926523266       2.077535152568271
   918   3      22.337525345059351      18.261693734500007    0.089158093797762336
   919   3      20.311270132047049      18.240948644663085      2.0767864539697345
   920   3      22.412123021615326      16.157504203310804      2.1407440536673206
   921   4        19.8413501734804      16.058932832019764      4.1004740935072297
   922   1      22.192415150614703       18.18820115087097      6.0727651923792969
   923   3      22.390306363634902      18.326873428451435      3.9966143629639852
   924   3       20.18091668933312      18.172100158615546      5.9309118666352534
   925   3      22.507415461214105      16.168971338662509      6.0708492278478792
   926   4      20.110718151984351      15.952949764439182      8.2562154194387887
   927   2      22.172473298094314      18.295274459594424      10.072707179798075
   928   3      22.401937699046584      18.242788116574509      8.1562164125048344
   929   3      20.307725502912486      18.050648611875779      10.200885157576103
   930   3      22.580888415671307      16.302170427921507      10.146263133996042
   931   4      20.062233973051175      19.818480751551906    0.021015601534845853
   932   2      22.250075278602534      22.120867645999606      2.0079505760820759
   933   3      22.297454368885816      22.468527116624802    0.061069939193620956
   934   3      20.316750341083566       22.50257689921391      1.9544144737647049
   935   3      22.240477134143536      20.266351741297886      2.0084028773142166
   936   4       20.00922394195624      19.919708928412003       4.223632635784309
   937   2      22.209341438529897      22.185030517344561      6.1306925493980291
   938   3       22.26422720870298       22.43550529685562      4.0210145336300824
   939   3      20.290108167102002        22.5274004603706      6.0721649645946121
   940   3      22.181224916492489      20.292041492646643      6.0659480031756452
   941   4      19.887725995964384      20.130401166605097       8.051345953078723
   942   1      22.269247902039549      22.238514872790997      10.109076687113891
   943   3      22.293417975625516      22.449281612729241      8.0500960162771289
   944   3      20.254543017227061      22.548787375690338      10.083733400547676
   945   3      22.264084532370468      20.214740172611204      10.275648475237377
   946   4      12.059140720794636       11.78431078902025      12.154136825668322
   947   2      14.020214324501268      14.236470339724878      14.096792630194194
   948   3      14.194541316595704      13.950562993328314      12.204534639310131
   949   3      12.132091658045351      14.283683353375013      14.311820845002758
   950   3      14.115829366353681      12.233157614737525      14.452815528185258
   951   4      12.035533551910556      12.025295219626846      15.866452881037189
   952   1      14.077936072639069      14.145060552076911      18.198889985845344
   953   3      14.222132307541907      14.444415807015247      16.162995773629042
   954   3      12.054151714511878      14.425144978146864      18.153221308071181
   955   3      14.275002294223459      12.099993334476791       18.16482288093475
   956   4       11.77137225249019      12.010262378474994      20.492512626699074
   957   2      14.168262079858911       14.02705821314645      22.284079177599164
   958   3      14.266816148975634      14.167499243246315      20.279199574125499
   959   3      12.201851949674827      14.375433165505104      22.234336175941792
   960   3      14.154622256350246      12.133463516516359      22.361185439649873
   961   4      12.210999630014371      16.275290087403288      11.809964437380806
   962   1      14.144421913476336      18.215552963527756      14.182678866863327
   963   3      14.182849192706328      18.544818414798442      12.174331566022506
   964   3      12.094433793969703      18.196868847582486      14.207023032928065
   965   3      14.388773239518446      16.151459695536673      13.985887159863484
   966   4      12.122570190436702      15.906893152140119      16.245407756820924
   967   2      14.171745617484396      18.301655089686491      18.106369309468388
   968   3      14.209429165577728       17.95835261832524      16.221371876463287
   969   3      12.116561730104065      18.126342191346865      18.297878297398018
   970   3      14.346954156660534      16.257241369277644      18.374141955823703
   971   4        12.0058576792824      15.850669737890751      20.224618029765569
   972   2      14.135374802896694      18.158180769366453      22.154496289650403
   973   3       14.24257667725062      18.408526507086634      20.255629342926891
   974   3      12.188728384341985      18.180770397825096      22.195837804958078
   975   3      14.324113791950984      16.252872318723462      22.141206216615473
   976   4      12.389485844592892      20.075967342086308      11.943402802695225
   977   2      14.237354434381617      22.332190841504666      14.046467291415611
   978   3      14.075521199199462      22.021112828222254      12.169594257438618
   979   3      12.200511725194529      22.317532524507453      14.461313172470614
   980   3       14.07239410982943      20.287623130181835      14.513246370602456
   981   4      12.198194033990491      20.368549744228766      15.911459718778776
   982   1      14.132772841316639      22.220243019527466      18.273414358993509
   983   3      14.291595651925498      22.504709489520891      16.216629464377274
   984   3       12.08362099519068      22.504529975841884      18.109038490109675
   985   3      14.061537473351924      20.208482616630675      17.969376894862744
   986   4      11.803693363530437      20.235178022226478      20.396910932774912
   987   2      14.162457366474122      22.180892970899382      22.272099321817251
   988   3      14.130322724120811      22.354439664341232       20.31378459631339
   989   3      12.203699437057985      22.496975290712403      22.328744516604569
   990   3      14.068706142678183      20.263842351729625       22.41370866338309
   991   4      15.820441712351359      12.097944637519491      12.073091801519361
   992   2      18.169496633641533      14.206726483286936      14.216524398983877
   993   3      18.411270041289235      14.099229512941863       12.19592647209366
   994   3       16.27842178175003       14.05526433816183      14.203076523879361
   995   3      18.534514820396073      12.230346921450536      14.193564507822568
   996   4      15.828311926613193      12.033318830665506       16.07441742731935
   997   2       18.12447061072832      14.153193832184872      18.219122386426267
   998   3       18.34686624318967      14.197455195119041      16.188619900217013
   999   3      16.236626276239186      14.163281220943219      18.235005621237363
  1000   3      18.420613249986101      12.163843781547016      18.260715448104794
  1001   4      15.831234162580085      12.074366990091223      20.059220169907679
  1002   1      18.203441654698981      14.128338022034711      22.182540392161233
  1003   3      18.366299944112921      14.125735695743964      20.159465545357108
  1004   3      16.155185583362897      14.193882741218236      22.368411144201062
  1005   3      18.478884562554988      12.105451294974744      22.308046209161049
  1006   4      15.979201757864882      16.277517163636411      11.975735040485677
  1007   2      18.084517300680169      18.243195523168826      14.170816336172718
  1008   3      18.341436523317562      18.345239072856756      12.218789332121313
  1009   3      16.221769242739146      18.378589948060846      14.173925204006137
  1010   3      18.229898718495917      16.198605725933923      14.099356319435616
  1011   4       15.81611487645012      16.143373011201959      16.243152604291382
  1012   1       18.14815701858528      18.220771078249353      18.163904797736837
  1013   3      18.424258941074221      18.169023153961611      16.143544496136933
  1014   3      16.138684841723915      18.355691886153178      18.323662586823069
  1015   3      18.308492844214481      16.133407681014361        18.2118408935853
  1016   4      15.938445070453481      15.970745512416135      20.053235795641864
  1017   1      18.217785954582421      18.165215026432197      22.261979440302252
  1018   3      18.292315494957414      18.312816427536585      20.252931722143632
  1019   3      16.148991909554422      18.402463368761037      22.335104655326074
  1020   3      18.237749226191124       16.14663867768736      22.413847040934002
  1021   4       16.01897651122453      20.047755176586055      12.077003971510102
  1022   1      18.184651167628751      22.216828653316902      14.163919413544821
  1023   3       18.45941796504172      22.148293513445999      12.120956347866825
  1024   3      16.162146250137518      22.047643839780779      14.219693067259437
  1025   3      18.496796314171224      20.173484799575181      14.260293816984799
  1026   4      15.885361027462526      20.456141718106245      16.069260189408702
  1027   2      18.071397457807024        22.3230550447797      18.254164550657798
  1028   3      18.350719869015816      22.217512552376256      16.287256556157246
  1029   3      16.216452962544576      22.167511747609346      18.303389205025272
  1030   3      18.454343540202323       20.30766670268175      18.256349169225938
  1031   4      16.409417705924572      19.818860001981047      20.197671190158761
  1032   2      18.244660633147319      22.186480392450882      22.316880207681198
  1033   3      18.397994418667704      22.312259977521496      20.273985794512765
  1034   3      16.257940505688445      22.263586414496576      22.233946063421616
  1035   3      18.331272642658394      20.310544899305174      22.352180449057947
  1036   4      20.056887094046825      12.216499127401624      12.006401414013954
  1037   2      22.259468752525841      14.151914983194866       14.03433014424045
  1038   3      22.396764984574574      14.292317127393746      12.157994859663736
  1039   3       20.34579399151264      14.353158910681307      14.209234537428483
  1040   3      22.220932120780567      12.239899103371776      14.221764495168646
  1041   4      20.266745502129233      11.990646303962439      15.884978759981491
  1042   2      22.227580555975376      14.210578830207476      18.101247016326123
  1043   3      22.398192179068335      14.191140550510756      16.223129645388177
  1044   3      20.339086486169471      14.213560437643304      18.241172361145527
  1045   3       22.37475756329113      12.192345346766892       18.37407021414586
  1046   4      20.005851002078153      12.211239079918331      20.135176818233777
  1047   2      22.289029005666496      14.203383009341373      22.159453975968059
  1048   3      22.345718198496037      14.152472806423038      20.294056286186382
  1049   3      20.362613949888061      14.187755570256522      22.482234091853314
  1050   3      22.330942616631596      12.196567885252142      22.484671314356721
  1051   4      20.019351926376352      16.149506103606026      11.923944972470784
  1052   2      22.218920086408069      18.165913944081762      14.188631564635072
  1053   3        22.4983428500082      18.212892106032957       12.19902160912873
  1054   3      20.352858619291148      18.104605880589759      14.147437396604428
  1055   3      22.584399088889683      16.247950024180657      14.216370523888447
  1056   4      20.081502884392147      16.501991342866507      16.486634080514794
  1057   1      22.305626781596676      18.159973946512235      18.194571693704713
  1058   3      22.392531190385814      18.311197977875938      16.137439518879596
  1059   3      20.282688354571221      18.077751852061844      18.323729540363445
  1060   3      22.505513352221246      16.111177500763493       18.30558488102945
  1061   4      19.834831063143252      16.435780623318152      20.104904174167178
  1062   2      22.270468761349122      18.294955378288737      22.193933416764125
  1063   3      22.404666567339849      18.107418758756197      20.326446543963375
  1064   3      20.337398086403518       18.10409093872968      22.375701773847034
  1065   3      22.396208595491327      16.150911342402573      22.473078755457898
  1066   4       19.91264475897119      20.221891695504784      12.110578533954415
  1067   2      22.185053720700282       22.26604641028419      14.118248794644455
  1068   3      22.287248406294818      22.344883751433013      12.246987812126182
  1069   3      20.327175526994203      22.325772746451705      14.368253411558847
  1070   3      22.385872958905555      20.293093805252742       14.24293751877758
  1071   4      19.879539078520033      20.241662585078714      16.223146819931138
  1072   2      22.296741177963838      22.120953022736742       18.25484874249322
  1073   3      22.474292333811174      22.314425697453444      16.293903689600004
  1074   3      20.346026309083616      22.439507230387068      18.218263395811327
  1075   3      22.314626007834281      20.236404118437303      18.333152185787114
  1076   4      20.064943666858699      19.875984531289212      19.943242739356247
  1077   1      22.286780737514462      22.179165698508182      22.270443485723881
  1078   3      22.229310644971587       22.47592946321938      20.240902831868503
  1079   3      20.225700584710975      22.539410592366828      22.313700240815294
  1080   3      22.331411211752989      20.170187992867842      22.339686791467404
