(written by ASE)

1080 atoms
4 atom types

0.0      24.299999999999997  xlo xhi
0.0      24.299999999999997  ylo yhi
0.0      24.299999999999997  zlo zhi

Atoms # atomic

     1   4   -0.069885473131213433    -0.30224437860190129    -0.13731638117587666
     2   2      2.0289949005551011      1.9192368680300824      2.0609731865408571
     3   3      1.8770524272756381      2.1895539701183271      0.0646157671642177
     4   3   -0.037600414206618034      2.2980413391506871      2.0326007638484116
     5   3      1.8769463668127824    0.060067822255714498      2.0413471234526952
     6   4    -0.21245286461368021    -0.16826729840699797      4.1822761750973374
     7   2       2.062778983047675      1.9022618565719978      6.1222815444824557
     8   3      1.8949266338117323       2.164565950026347      4.0272722601900872
     9   3    0.010799577818670967      2.2900584331300138      6.0625775653240952
    10   3      1.7454394915201408    0.017252877641986915       6.039993134545659
    11   4    -0.20466986535107823    -0.13101211913533248      7.8352685176294914
    12   1      2.0405296088729172      1.9832066273987985      10.050754062766126
    13   3      1.9147511827651988      2.1037044022956071      8.0243901612057211
    14   3   -0.058294102613130408      2.2661299575995355      10.137252887073384
    15   3      1.8995454459015444   -0.045037469953343373      10.268486708796088
    16   4    0.033477925750509799      3.8551412555535189   -0.035926477596099161
    17   2      2.0326979175755708      6.0023766134563346      2.0667820517926216
    18   3      1.9581280851561436      6.3348331713149939     0.12866135865413514
    19   3   -0.016787662748340374      6.2485920956266039      2.1499165370159594
    20   3      2.0234210160609205       4.135084826621668      2.0104318281621989
    21   4    -0.10012502482460181      3.7294706903641828      4.1652478911640394
    22   2      2.0177775103432829      5.9667319651065869      6.0877586679350122
    23   3      1.9624968329373833      6.1900569414291589      4.1026455867994276
    24   3  -0.0027555410346638502      6.1232661591574802       6.099747274916016
    25   3      2.0726764903893695      4.0843728003120461      6.0683814584547129
    26   4       0.029863920088883      3.6852671210413632      8.0272650533175707
    27   2      2.1088036565120829      5.9693024231998537      10.127865785838784
    28   3      1.9690149272113178      6.1827568805654121      8.0888375985144503
    29   3    0.012535898654687926      6.1490861620771655       10.08810250425215
    30   3      2.0308983577857163      4.0843990464692759      10.196126510205188
    31   4    0.033097745796783408      7.9935844049164055    -0.13336600815033997
    32   2       2.023729248613038      10.063334216423922      2.0257265941257185
    33   3      2.0460703366459687      10.110811648950845     0.13542834842697066
    34   3    0.053833497384335502      10.322644909672594      2.2158492976618542
    35   3      1.9322291161245373      8.1921184389463377      2.2550251598920377
    36   4   -0.068794690633464828      7.9030490207725341      4.0310068802295334
    37   2      2.0292602494592207      10.029996257362317      6.1381585150727425
    38   3      2.0296023590517809      10.384902547829158      4.1541884001486409
    39   3    0.077389217600256785      10.438151837860334      6.1448798207294351
    40   3      1.9167454137517783      8.1627999380164216      6.0915303452835898
    41   4    -0.10968540772141849       7.898812064825659      8.2301785557614213
    42   2       1.980938406344686      10.050921439171264      10.166670156499029
    43   3      2.1435075043550778      10.265001513272743      8.0972078908087859
    44   3    0.091321272103855947      10.309081527356172      9.9873258918753418
    45   3      1.9644244582625845      8.1682584517627355      10.057780254568602
    46   4      4.2465855058095894     -0.2376109628051635     0.11420543902852918
    47   2      6.2058249974176629      2.0424469674581953      2.0582907187410346
    48   3      5.9883956248688621      2.0469897677762572    0.024040536567027173
    49   3       3.941802213480178      2.0599890104475889      1.9615192663443553
    50   3      5.9776394925492387    0.080198400884317428      2.1116180312576627
    51   4      4.4232576024928196   -0.057832669980002478      4.0664415180954885
    52   1      6.1419813491653921      1.9965905723638084      6.0513172837303397
    53   3       5.916557589622677      2.1050448188236301      4.0081471212765676
    54   3      3.9601772095855776      1.9338305529323312      6.0068820126727003
    55   3      5.9957305228187465   -0.044517760015091751      6.0127433110081476
    56   4      4.4389787675464119   -0.021393605769359111      7.9613790835087554
    57   2      6.1953556119804958      1.9703096953148287      10.062358932483365
    58   3      5.9197846798228237      2.0005390345658411      8.0934300904587815
    59   3      4.0593027605569629      1.9326444247339121      10.317901505528967
    60   3      6.0585260142183719    0.022323260983559787      10.118378896680904
    61   4      4.2707135811619299      3.9497909338518569     0.14467795589856272
    62   1      6.0881078290001271      6.0271788835018141      2.0486643307982741
    63   3        6.00603041098279      6.3345709868250566    0.014667941596779536
    64   3      3.9506549867806995      6.2952444341268903      2.0469351620703766
    65   3      5.8699794782454759      4.0096493284851427      1.9764652119351407
    66   4      4.3980733177102413       3.955330163048278      4.1547139069441972
    67   2      6.2393475684940123       6.086502869884078      6.0775770232870689
    68   3      5.8893839140626172      6.0101966871696364      4.1115727306931635
    69   3      3.9379306511040113      6.2357677023047113      6.0983677846107742
    70   3      5.8412070905488855      4.0820191500633012      6.0981601811459916
    71   4      4.4153206165011225       3.942756066922207      8.0484252773280485
    72   1      6.1193514543784158      5.9949654871903091      10.087482488821115
    73   3      5.8667853318611272      6.0457119692877965      8.0316365491748876
    74   3      3.9963759044895766      6.2354174509011555      10.084989007765568
    75   3      5.8152551894516069      3.9873927190124627      10.019577996141201
    76   4       4.184720976885159      7.8384272385504845    0.076920952999238484
    77   2      6.1095103437276448      10.078419114425229      2.0271520419985327
    78   3      6.0514984578234357      10.044533938919365    0.085240745826901526
    79   3      4.0290810993943422       10.16031935085784       2.217536898373984
    80   3      6.0482982028921839      8.1563442611321868      2.2556361599727217
    81   4      4.3175041891812338      7.8818982064022212      4.0473313652967464
    82   1      6.1008571345575735      10.042600278933708      6.1022154071744534
    83   3      6.0447569849473792      10.336170416445583      4.0709285044910377
    84   3      4.0093998692952679      10.238111498726351       6.082780076142515
    85   3      6.0130435375501872       8.023509969787872      6.0573338108228381
    86   4      4.2927902366878943      7.8210859542586384      8.0787188120888995
    87   2      6.0769131450499199       9.959673044973961      10.140557486662537
    88   3      6.0591420917164873      10.284105441779221      8.1450170428156756
    89   3      4.0671870198521027      10.172177638373672      10.085828628003778
    90   3      6.1473296260228905      8.0930883626792696      10.032933685248787
    91   4      8.2279298652217268    -0.26490848733501887    -0.03292211251764169
    92   1      10.132391239038016      1.9925655623544343      1.9786871158233377
    93   3      9.8768725296687077      1.8258421451859295   -0.065606625015715875
    94   3      8.0773184785057843      2.0554361459206776      2.1432607796891476
    95   3      10.094086376836721   -0.011041232829270775       2.369592580507744
    96   4      8.2983175163727072     -0.1347253537429734      3.8497404560075106
    97   2      10.158306845033747      1.8544155686895651      6.0735427705925273
    98   3      10.136436584812593      2.3967008324290306      4.0750442730443854
    99   3      8.1753423490332313      2.2488592970176295      6.0061838974246022
   100   3      10.081166753908555  0.00023074225404017077      5.7125286836384976
   101   4      8.4241825073472612    -0.20016471101750136      8.3551756546024887
   102   1      10.177331062001981      1.9702033243727204      10.097874907493669
   103   3      10.103146013863872      1.8053820427205087      8.0268731665610886
   104   3      8.0994116480931844       2.156824052131304       10.04316368233957
   105   3       9.937334273543053     -0.0224139964329279      10.268080343659138
   106   4      8.4160568658953334       3.899773869029898   -0.096912475973298468
   107   2        10.1447875818815       5.934360580291302      2.0504419549709683
   108   3      10.103922407386912      6.3549203352583312    0.057287013944008834
   109   3       8.137370356550214      6.2384238905230918      2.0222440707237102
   110   3      10.103140482519914      4.0497564647256903      1.7341679916873465
   111   4      8.3125868130052591      3.8711251283187265      4.1698756774842716
   112   1      10.135390115868185      6.0298400627142099      6.0606501877764636
   113   3       10.13000925202439      5.7422693087474981      4.0083362818019141
   114   3      8.1002348945013036      5.9175929355932322      6.1280741764339028
   115   3      10.204566771564247      4.0192343370303654       6.379426559257344
   116   4      8.3448303407046236       3.842701729984682      7.9101266170617848
   117   2      10.123398448050306      5.8571186271339588      10.164930499598986
   118   3      10.204573739541038      6.3276518315373309      8.1370467592301949
   119   3      8.1633674140959176      6.0590679177070763      9.9442303559146215
   120   3      10.282886129366545      3.9988142520624788      9.8913127934417169
   121   4      8.1209556152921358      7.7217818764632948    0.052549881807134095
   122   1      10.053456667180656       10.08842526960964      2.0040550454235988
   123   3      10.155190580814988      10.069631910271443   -0.033788035903968894
   124   3       8.037295391098338      10.138992604460913       2.216027365090214
   125   3      10.086000983108375      8.0745647148173738      2.4077653662372991
   126   4      8.1851191723034731      7.9633762603372906      3.7688548777822595
   127   2      10.129020096672782      9.9215306010998177      6.0646964589728549
   128   3      10.099554135554396      10.443865910246224      4.1282111799366499
   129   3      8.1514433431566715      10.363389879074511      6.0703238414146465
   130   3      10.052297178977408      8.0723193076060653      5.8505135674335369
   131   4       8.391630285003723      7.8611174065047305      8.3461188646073836
   132   1       10.10846614265656      10.115937784184666      10.113123939827553
   133   3      10.043882864235336       10.08213040959742      8.0504482592482134
   134   3       8.037416403183661      10.322373253827937      10.100006284694857
   135   3      9.9635500067528149      8.0889012311633852      10.274143023813211
   136   4    0.044371200422113122    -0.12632324477508819      11.832683716572086
   137   2      2.0944772919191257       2.065915566893052      14.067245199372755
   138   3      1.8231653153046377      2.0494804999619638      12.191635722959363
   139   3   0.0099562643189899085      2.0626558216070285      14.415391125718102
   140   3      1.9123809126377538     0.02815768633781331      14.350027930307043
   141   4   -0.010469238872669666   -0.010637223644635388      15.944961241899708
   142   2      2.0226623690397929      1.9833984615099225      18.170545747814213
   143   3      2.0743469557819028      2.0396211546858294      16.297311851221924
   144   3    0.022611232571436605      2.2651382231081927      18.351140162026571
   145   3      1.9139730747621557    0.089571184913343704      18.407535340070346
   146   4   -0.097782233604903651    -0.31989952861793119      20.276313074359305
   147   2      2.0703182739436814      1.9927544734613853      22.293709748674576
   148   3      1.9133408335551174      2.2338135829462442      20.385447354519247
   149   3   -0.020191512470198437      2.2878075118902932      22.410708636068797
   150   3      1.9520665794715923     0.12618533469138704      22.365758824484956
   151   4     0.13358656758584694      3.8258381551314415      11.899343601773055
   152   1      2.0502222533856727      6.0159524801739153      14.113532953069253
   153   3      1.9888000363427816      6.2432727157715764      12.062498483512734
   154   3   0.0048602117033680918      6.1087510796037092       14.26364270804493
   155   3      2.0087794621424835      3.9853664672185651      14.268617360541224
   156   4    0.006173757616965138      4.1537339788960432      15.730417448469403
   157   2      2.0516151755822678       6.112381234370436      18.094748687778207
   158   3      2.0719577018250832       6.145839627595457      16.224262437030273
   159   3   0.0073125153725528969      6.1386335322892727      18.329274412016836
   160   3      2.0434091488122985      4.1203769999034305      18.392333055776003
   161   4    0.077353389066164471      3.9401076133885282      20.051766364023067
   162   2       2.055071427504195      6.0651094369084193      22.247416239913456
   163   3      1.9293248982023052      6.0926624814567676      20.372819047684871
   164   3 -0.00022048776993278642      6.2047235403176897      22.521269477667563
   165   3      1.9884855833728274      4.1780443569173089       22.50183264661376
   166   4      0.0189930807568943      7.7253985337136113      12.309913366019597
   167   2      2.0291379238049818      10.109567306460356      14.278894511233425
   168   3      2.0328476441675667      10.264277501337384      12.075845994456092
   169   3    0.047111601818540016      10.411835601178796      14.186678999364759
   170   3      1.8275605581161227      8.1777827123646336      14.102757538394465
   171   4   0.0068297207161365477       7.823144434920609      15.836873755422706
   172   1      2.0246272050756029      10.102225110949087      18.178483024931371
   173   3      2.1640329380155321      10.205134508565189       16.16248515055587
   174   3   -0.040585010338169483      10.212602993182589      18.412875794628025
   175   3      1.9665025345016032      8.0651370189066913      18.434656413992826
   176   4    0.070518474359205746      8.1780757304241298       19.89800837155305
   177   2      2.0056025483890743      10.132631268814457      22.196780671211389
   178   3      2.0213916052242693      10.236017254533801      20.336049555047538
   179   3    0.031902274386827287      10.254489396030673      22.452496670903969
   180   3      1.9113112255953086      8.1761390703234778      22.385738988071282
   181   4       4.084093413163969    0.011393360764362159      11.716145286220895
   182   1      6.0622127158133949      1.9889357638850989       14.12065269261465
   183   3       6.140917821994023      2.2063054100782096      12.085599544279196
   184   3      3.9906377114209968      1.8905882672662806      14.161138146803784
   185   3      6.0916213064590963   -0.052758706111394604      14.283281314988965
   186   4      4.2029681155596261    0.032604843237595132      15.875382460649382
   187   2      6.1221252685345648      2.0390281270882626      18.160848548200111
   188   3      5.9285729681465744      1.9958439325136998      16.277566431865914
   189   3      3.9662581997644701        2.01095458709456      18.475205627249011
   190   3      6.0444486293826643    0.076466544322699004      18.480840825365934
   191   4      4.1329390751856909    -0.16233516140419815       20.16538846667833
   192   2      6.0911846663991547      2.0026497334106761      22.261918200282985
   193   3      5.9714368841746595      2.2786780706259431      20.348080243759387
   194   3      3.9922444555645358      2.1593707018664539      22.404415088927873
   195   3      6.0136422688001412     0.11718309719018574      22.221258819796191
   196   4      4.3178755077282185       3.797287716139321       11.87448656714777
   197   2      6.1304914452663342      6.0103298440032669      14.035563702987522
   198   3      6.0577564476169021      6.0145321802383984      12.132700497363011
   199   3      4.0515019310401099      6.3390576029058145      14.104282001206483
   200   3      5.8796285331830056      4.0678040308844627      14.291096084165822
   201   4      4.3507462404220005      4.1420688120643048      16.083781021163425
   202   1      6.0498739486158337      6.0502054183136993      18.196641544897112
   203   3      5.8104929274092596      6.0900222887910429      16.171606938265398
   204   3      3.9651488828075077      6.1645210316080208      18.417150096734279
   205   3      5.7717345592042895      4.0033772821158431      18.216572032483736
   206   4      4.1800050005809961      4.0951240413043442      19.984330187789205
   207   2      6.1469435472978082      6.0186953320134773      22.261355717455981
   208   3      5.9654609056239796      5.9921545341275202      20.365377067634579
   209   3      3.9810707381743402      6.2558913798399853      22.459864893008493
   210   3       5.907207412320914      4.1152515263114609      22.515653803438212
   211   4      3.9998990642510308      7.8641900790256312      12.304617367457876
   212   1      6.0621151693900561      10.063066894317959      14.102789029620348
   213   3      6.1104863053069352      10.261702794057495      12.059658157935685
   214   3      4.0016015822895854       9.926189629698813      13.941646900305624
   215   3      6.1927134183077621      8.0233069311821943      14.233195950456587
   216   4      4.3014043566728608      7.8999727368577348      15.918022905530089
   217   2      6.0349685274472096      10.164500650352126      18.021082414429095
   218   3      6.0608051488743309      10.066489515997894      16.166357216492827
   219   3      4.0983653387135179      10.043392091077463      18.442305362085207
   220   3      6.0684941578221929      8.1492178681445875      18.433140493620428
   221   4      4.1179667407073426       8.093569478956395       19.88193925833383
   222   2      6.0262946812471556      10.070514615949161      22.264233577848685
   223   3      6.0735178693972651      10.262113292851478      20.382444445044303
   224   3      4.0374689340972996      10.164603833758134      22.417932013546125
   225   3      6.0712138443949604      8.1437245570932273      22.263896847544807
   226   4      8.4705848548328841   -0.035268393367043772      12.117269098877244
   227   2      10.275862833425622      2.0161584484263657      14.215569954334418
   228   3      9.9804694562293914      2.1124807192056965      12.198480107907132
   229   3      8.0782676596292191      2.2261082995306078      14.206756289219323
   230   3      9.8597347866284295    0.027120937979113777      14.079589194553147
   231   4      8.3032822042566075    0.016922160374899402      15.903642575895013
   232   1      10.093671098604609      1.9608778408510079      18.216421467176843
   233   3      9.9957257512840219       1.839968582905158      16.170567754256254
   234   3      8.0031519055567433      2.1940466736359916      18.388720566737316
   235   3      9.9417328612068374   -0.041843539890194056      18.528117333142948
   236   4       8.266883907844818    -0.13029266654609506      20.205719448503352
   237   2      10.261884946631911      1.9535615867186793      22.319120666829296
   238   3      10.071317868209778      2.3975367519067738      20.332891129256819
   239   3      8.0134819661051644      2.2339277083294897      22.242896836403435
   240   3      10.030832436420132    0.062956895049652073      21.984972443759549
   241   4      8.1656073707160033       3.645877724834905      12.229540995904438
   242   1      10.135575702325207      5.9992348639166622      14.132227396432697
   243   3      9.9913073906523788      5.9899045688091714       12.09282766676599
   244   3      8.0524411908911802      5.9292603257161574      14.330944110660766
   245   3       10.13980038182669      3.9865209691426333      14.401172007155402
   246   4      8.2190568454383115      3.8859319443148235       15.86361691521479
   247   2      9.9858973556698754      6.0207530102453761      18.146214988935693
   248   3       10.09098276672689      6.3447218711248263      16.224702379134168
   249   3      8.0794284841787309      6.0288809355316593      18.331900760315843
   250   3      10.279476579014659      4.0774359369572117      18.078484239922464
   251   4      8.2396681751895482      3.8961060791228772      20.164131508215302
   252   1      10.102502924854218      6.0471573100273837      22.246768248564489
   253   3      10.289230745113063      5.8243779447216255      20.207094253893878
   254   3      8.0388978105760547      6.0483067558363315      22.415285248072777
   255   3       10.16105913218475      4.0256370708989389      22.598048044874435
   256   4      8.3565197222672598      7.8650730826619997      12.019406962487775
   257   2      10.166500663554073      10.006910609500572       14.18206588719246
   258   3      10.053573025935092      10.335632120220771      12.192547780916613
   259   3      8.0953379607929925      10.377092471028821      14.116523058444775
   260   3      9.8272889557192027      8.1035242088134218      14.007118409491968
   261   4      8.1345542247762808      7.9545000203255265      15.869446276217415
   262   1      10.049345572990926      10.050488918147078      18.184372884393813
   263   3      9.8906575801775354      9.9571922789453069      16.144532173984466
   264   3      7.9913257172752941      10.128665826326506       18.43722338637745
   265   3      10.010793586940691      8.0410324259102435      18.558675995649772
   266   4      7.9953719065681481      8.0755764305991242      19.883219217639255
   267   2      10.112813810846372      9.9484447798912985      22.313305619459523
   268   3      10.010450869893237      10.426427845480207      20.327161018330589
   269   3      8.0516472721939891      10.281821702765134      22.354833198084059
   270   3      10.053828196014017      8.0903176455273318      22.068500671514368
   271   4     0.03810201116969085      12.240970423796508    -0.30042589577393874
   272   2      1.9356801238991883      14.082127477469944      2.1074343043430943
   273   3      2.0951247221117448      14.300945187956035     0.17201943696503244
   274   3    0.061068893889619245      14.169190282548072      2.1937678087267498
   275   3       2.156436111019207      12.201209468080386      2.0833391124967662
   276   4   -0.065276424099101976      11.950740188659774      4.1162647813452446
   277   2      1.9677143085920825      14.167704949254249      6.1447935650156067
   278   3      2.2901153342636054      14.241045697738102      4.0979642139648025
   279   3    0.078944461278261227      14.162837535612013      6.0597154888215732
   280   3       2.250731859829795      12.287373029263511      6.1695264844601274
   281   4    -0.28270097655520576      12.121552147588645      8.2339619959340826
   282   2      2.0241840299466283      14.091499224502245      10.164898852948255
   283   3      2.2072027337269029      14.415192647678772      8.0927513326811624
   284   3     0.12185313727193511      14.173660607406889      10.102733895354676
   285   3       2.211810973679869      12.220136172119931      10.024692879357964
   286   4   -0.013786106354254634      16.001467063783835    -0.24935776936705115
   287   2      2.0452387289792942      18.109990068408191      2.0848820919534625
   288   3      2.0458963966640722      18.331452906018075    0.021447802610099771
   289   3    0.023769807279170326      18.402613821932107      1.9336547402227127
   290   3      2.0555572618024756      16.223227065473516        2.09469193987327
   291   4   -0.065072748465967611      16.343978377646266      4.4788921980752612
   292   1       2.111812469191757      18.238138642776367      6.0865039446188609
   293   3      1.9589130270959798      18.358844717667406      3.9836890982818587
   294   3    0.019191692882823328      18.406559130993784      6.0319545374505594
   295   3      2.0138830852672438      16.206433077405343      5.8974003611844514
   296   4    -0.33986361937219484      16.135214032410872       8.149539288809537
   297   2      2.0712610733468808      18.183475103002166      10.021237568695321
   298   3      2.0169766897208081        18.3532306293055      8.1522598317930495
   299   3    0.096837906878260022      18.436646873172759       10.20207580591225
   300   3      1.9667456938837733      16.286517439645053      10.178893265055658
   301   4    0.026330974036181051      19.881926634959544   -0.032025606559044108
   302   2      2.0372976866054859      22.180046894907942      1.9861184687060076
   303   3      1.9086143779071481      22.462605179070735    0.020495194819416081
   304   3   -0.043202880322552893       22.37166562745881      2.0208933065964239
   305   3       2.013981128565919      20.314464682883226      1.9448225179826684
   306   4   -0.018406762865751578      19.882821301640586       4.242033681926606
   307   2      2.0778323073905196      22.154512315980281      5.9432018763060572
   308   3       1.958622971577997      22.364413200825336      4.0072181633500588
   309   3   -0.018410809462287139      22.228633461613942       6.012447269399904
   310   3      2.0801837735436814      20.305674370153152      6.0718668801164659
   311   4   -0.025829538981099756      19.860187137175771      7.8405539729323772
   312   2      1.9987881427233776      22.318629761733423      9.9255118193623293
   313   3      1.9128036155730979      22.359749529631685      8.0384558763409544
   314   3    0.059232879956860357      22.206507278091951       10.32774307155006
   315   3      2.1299583651589704       20.33010175842562      10.268870012075142
   316   4      3.9459853812335224      12.206170738789789    -0.25551585220791423
   317   2      5.9943536564294906      14.127440360093047       2.040226230303456
   318   3      6.2401636345378071      14.245171459595717     0.11204029810700593
   319   3      4.1154560778690508      14.361183774438796      2.0143861190807835
   320   3      6.0420284816623511      12.185781658977916      2.0451185549399824
   321   4      4.1037589382789159      11.806919110998082      4.1815962255253734
   322   2      6.1185189099902439      14.125161817306001      6.0788764984835124
   323   3      6.0913013751191416      14.271185415965833      4.1184479400613361
   324   3      4.1601949355511287      14.544789898572004      6.1298170811831403
   325   3      5.9881031917917591      12.267861911797009      6.1594768951304317
   326   4      4.1417643504776178      11.807856124796118      8.0455167452566947
   327   2      6.1118361642208283      14.118606628823549      10.135628125002258
   328   3       6.036451721585375      14.396690848896927      8.1090245180466702
   329   3      4.1096810159620016      14.512716120474295      10.080028476004008
   330   3      5.9617406880376898      12.261531365383398      10.083130212170655
   331   4      3.9007072642804492      15.927454639325585    -0.14652719844547865
   332   1      6.0344575080298553      18.147541522316764      2.0615692013131475
   333   3      6.1571675563125865      18.249011099455309   0.0040782496533471012
   334   3      3.9883508204385731      18.337301281393877       2.022098301556678
   335   3      6.3521203063637799      16.146354938843029      2.0758825401117234
   336   4      3.8382119230855216        16.1505301491318      4.2969681014787158
   337   2      6.0803322641242241      18.162567776064822      6.0513450999063192
   338   3      6.1218426973515792      18.461346044466875      4.0997158119303458
   339   3      4.1599644160407161      18.082814473486902      6.0436884210832842
   340   3      6.3357492375345377      16.299065986708431        6.07462439311574
   341   4      4.0707315250492107      16.022056130494551       8.106505780397562
   342   2      6.1596316575196148      18.261153171643102      10.084062432600293
   343   3      6.0682322524763963       18.41187383748575      8.1053678529928401
   344   3       4.040527880283947      18.244509284650665      10.230349205079756
   345   3      6.1929682054701871      16.340239941327916      10.131465767144126
   346   4      4.3188929269295997      19.854690419210552     0.12961925502160584
   347   1      6.1006036543477631      22.296689188715344      2.0074041299922873
   348   3      6.0761752618704081      22.538570276905578   -0.051714995265920174
   349   3      3.9356742738414439      22.437007058187998      1.9470038688092659
   350   3      5.9876095374527809      20.289199589167502      1.9293972420350924
   351   4      4.4418570484046338      20.196859393994693      3.8083217123158275
   352   2      6.2728763999195136       22.28535295329112      6.0380243029264111
   353   3      5.8894544191177687      22.271215323225963      4.0892738848408356
   354   3      3.9378600926658405      22.486581673941892      6.0826687895826446
   355   3      5.8501599373884137      20.334104268827932      6.1278364996246824
   356   4      4.3848011922936783      20.367570734452112      8.0850688016972043
   357   1      6.1346623909656319      22.272085312611683      10.084054377087607
   358   3      5.8758500224947436      22.326370082007163      8.0127038071346153
   359   3      3.9613539375039997      22.406674312705995      10.195499048234511
   360   3      5.7813466926380999      20.266584771258053      10.084793914407479
   361   4       8.124270088486897      12.206210158685794    -0.37232730149141829
   362   2      10.045635237710439      14.125833965586477      1.9303565478342299
   363   3      10.135838526947071      14.338481047863311    0.043934638972786613
   364   3      8.1406318831372086      14.105029706452095       2.245139687394492
   365   3      10.341858519013984      12.202952673045734      1.9608706913889078
   366   4      8.0158077846993638      11.775545396754406      4.0924610223349411
   367   2      10.078850368826146       14.13478205078221      6.0481642252678469
   368   3      10.297249857709847      14.044986577120047       4.119819398677091
   369   3      8.1336976361620614      14.154578389837345      6.1199413099651165
   370   3      10.266238032267141      12.257250511258373      6.2911946694017216
   371   4      8.1091758305388275      11.719855406780407      8.0902436288750916
   372   2      10.181901128539714      14.096616765752767      10.200417423943891
   373   3      10.137989965898536      14.495453927651837      8.0901561384843887
   374   3      8.0706625744839631      14.211806131798168      10.025580617510313
   375   3      10.227587057815741      12.218356926674645      9.9767326522411874
   376   4       7.657960621028721      16.347683383896797    0.018582331884008377
   377   1      10.127222892451075      18.171525851629013      1.9954925180251484
   378   3      10.213690493799234      18.161447440593196   -0.049038318522673298
   379   3      8.1228646020538608      18.375673791021981      2.1041609727949426
   380   3      10.040903789190656      16.149930505664521      2.3377180058478286
   381   4      8.0682596602674046      16.272036895785408      3.7057720027525436
   382   2      10.232864859898275      18.167976863409503      6.0717062583436361
   383   3       10.13899243961149      18.538328376901717      4.1027949098755618
   384   3      8.0966094306852003      18.579937990583119       6.039918135045891
   385   3      9.9845298674673444      16.243548940260233       5.904010646417075
   386   4      8.3909411283974755      16.180315938401193      8.3110547342210346
   387   1      10.166347345831207      18.226391330234961      10.114970806989936
   388   3      9.9312219673058628      18.134140298295719      8.0515364791603066
   389   3      8.0420696078055176      18.533109324402655      10.180876045215774
   390   3      9.8772471946281186      16.215618393998714       10.23516626038572
   391   4      7.7801112967641268      19.902829963184576     0.33574214034250305
   392   2      10.128480408588825      22.191038787534268      1.9738952692552274
   393   3      10.131035384554156      22.581909588863226    0.013066720568768954
   394   3      8.1718525727665678      22.380972907221754      2.0419739341189649
   395   3      10.361291326218339      20.275827314151481      1.8617426503391827
   396   4        8.09318094806018      19.926209033959502      3.8672761743789001
   397   1      10.178230366548082      22.252867440590201      6.0297205418669755
   398   3      10.332667798251782      22.082227824901178      3.9746835116412909
   399   3       8.127131114000882      22.220086165538124       6.062765986493809
   400   3      10.314437024786708      20.237164038812427      6.3237138231376857
   401   4      8.4533430202058728      20.139912392900968      7.9852502462481549
   402   2      10.184757797702735      22.178214378207944      10.169226531100762
   403   3      10.206561992759069      22.561879392600872      8.1140159481198619
   404   3      8.1735759066039133      22.207128273586822      9.9854160501504623
   405   3       10.24574345540147      20.274545518472664      9.9647024878467878
   406   4    -0.17718605325732117      12.363481382147674      12.255039156820597
   407   1      2.0341052598934031      14.167356406644869      14.128226038038848
   408   3      2.1947083415719928      14.235250812140062      12.064555374397816
   409   3    0.020276191074016538      13.871206450014252      14.124833343826367
   410   3      2.3697132418448277      12.126842186174576        14.1491221920641
   411   4   -0.069588880892481414      12.437089948891657      15.980369655880569
   412   2       1.968842287230637      14.192312143576864      18.249191716369392
   413   3      2.1960052433429365       14.09354449015766      16.208404770498667
   414   3    0.052453770372750105      13.938648028645867      18.233084514389493
   415   3      2.2850839992401113      12.167710252051601      18.213367812078413
   416   4   -0.078662708011817822      12.115963769135684       19.90690364853506
   417   1      2.0237312063838266      14.126793765382686      22.208761503218817
   418   3      2.2130287126990109       14.14536518847274      20.202475025466939
   419   3   -0.017944824944999931      14.127499676983435      22.500034001157665
   420   3      2.0773842357816066      12.106872735545608      22.554480705862527
   421   4    -0.22907659916259529      16.167424617518495      11.959557589721447
   422   2      1.9935306893602474       18.11565534973986      14.125710345088688
   423   3         2.0565269961612      18.365745397532553      12.209867474773787
   424   3    0.066071565839419713      18.409399108271938      14.285798979826513
   425   3      2.0236874529695061      16.253762915259735      14.179327447035618
   426   4    -0.27819483922136534       16.29897224881298      16.414295374477895
   427   1      2.0840392382487005      18.182266511214628      18.200983640254876
   428   3      2.0840357740754554      18.428684652676257      16.158416111200697
   429   3    0.047179921077250254      18.368022047746123      18.221734573503124
   430   3      1.9197138254944786      16.152691857430607      18.233642590135162
   431   4    -0.21359118933513108      16.296038728686678      19.895020567568132
   432   2      2.0938235873854327       18.07228170011652      22.231013120589886
   433   3      1.9385603919993806      18.300505248744745      20.333290683249501
   434   3    0.052665081800804328      18.195330142144229      22.486159954731207
   435   3      2.0641318144722161      16.183289670650883      22.424111628698217
   436   4   -0.038003580966339871       20.24240206332848      11.809874892782942
   437   2      2.0144861297408285      22.253494153345716      14.095621558084554
   438   3       2.051626605164639      22.357836276358292       12.22027288794915
   439   3    0.046296423342236652      22.295636714181736      14.287923833584953
   440   3      2.1793814368858486      20.357282421168843      14.283619013952826
   441   4     0.12318489245203657       19.86819946399639       16.31315542314751
   442   2      2.0621102693173321      22.223448628484846      18.178849048419757
   443   3      1.9873990345910899      22.374250736345218      16.303255509578808
   444   3    0.054676254479454081      22.311422948789552      18.462378457597058
   445   3      2.0823445129517073      20.349094850621153       18.36020506778307
   446   4    0.033018870827559749      19.911877428288804      19.993990206271484
   447   2       2.039339707085674       22.14903858333745      22.260727181435286
   448   3      2.0820288111358165      22.441559430841437      20.347071450028817
   449   3    0.073754697464335134      22.465239034856953      22.297862193252968
   450   3      1.9940904258726022      20.283996161559802      22.359251576303009
   451   4      4.0257509294512319      11.862797176434359      12.369458703902971
   452   2      6.0880595505065287      14.058697699257623      14.221891779306398
   453   3      6.0649065803685502       14.34554428091332      12.106057586243974
   454   3      4.1334363992705478      14.482222590135152      14.111988072981429
   455   3      5.8980358483468827      12.194250752268964       14.11964004651977
   456   4      3.7240072003395679      12.173986640633577      16.192440052411964
   457   1      6.1030214702231618      14.125186818647217      18.154493127049129
   458   3      6.0247769344183668      14.364199629769704      16.124264527070867
   459   3      4.0653093091426538      14.388980689861864      18.193391368680288
   460   3      5.9599014236014565      12.094780062452521      18.297035448438603
   461   4      3.9848601928817473      12.085871901203607      19.885886239333139
   462   2      6.0914169669224663      14.199659141605164      22.160413235574708
   463   3       5.931324386616744      14.191620129920784      20.285775209339331
   464   3      4.1122906928190543      14.161565464491536      22.578236120786251
   465   3      6.0024996305656551       12.14298505165973      22.551341639002665
   466   4      4.0006364579351157      15.928405319537829      12.199631584993439
   467   2      6.0902336741904302      18.220939218509688      14.110980732764341
   468   3      6.0636307305952517      18.465158776727687       12.18031052009793
   469   3      4.0743824369831998       18.28320382517968      14.278225513451993
   470   3      6.2117753100260167      16.335839295734171      14.113208982178943
   471   4       3.936174265418352      15.846564422244866      16.149973036381237
   472   2      6.0654292375014851      18.110904163621633      18.189559683975247
   473   3      6.0544698037630225      18.286969017548195      16.249425997549164
   474   3      4.1166470284311805      18.232926734143305      18.381330023505448
   475   3      6.1729817222560461       16.25320735968128      18.395466678884009
   476   4      4.0307323159877546      15.921005938413378      19.962441027109467
   477   1      6.0499908507404596      18.170148049658284      22.247662814770173
   478   3       6.110013720519877       18.47444090110104       20.22256880539145
   479   3       4.004791102039535       18.29004866431405      22.261716401849952
   480   3      6.1221708303550697       16.12560539590222      22.398932363255135
   481   4      4.1098129559326368      20.317106760325899      11.815657595036177
   482   2      6.1013155280296596      22.311038092224969      14.038672601198114
   483   3      6.0209414233509779       22.20837378493928      12.175814185707731
   484   3       4.019977751300674      22.442113986946243      14.360964341537128
   485   3      5.9033473335896751      20.332003796081242      14.392152542341133
   486   4      3.9869140710643212      20.024049594446311      16.020940304204935
   487   2       6.113652628954954      22.243505701996689      18.195683403477549
   488   3      6.0408386032111272      22.431552552003595      16.325121231299384
   489   3       4.011884221622676      22.511718845262394      18.342587366262478
   490   3      5.9309727149959324      20.353975543509176      18.283720789691557
   491   4      4.1763928579536378      19.885065153218648      20.201276363307606
   492   2      6.1224837198657829      22.176916399729354      22.302433072366149
   493   3      5.8686329356727809      22.357907244697572      20.329789517115319
   494   3      3.9965858452936387      22.478742523093864      22.422152152596478
   495   3      6.0004728535581426      20.313641533602556      22.355377540282664
   496   4       8.124808350491076      11.762695709371055      12.170513199579922
   497   1      10.124951384781077       14.15340015790995      14.138907785496764
   498   3      9.9911433467248862      14.181927718277647      12.102918223586284
   499   3      8.0388048975563695      14.195595716957046      14.221214161092886
   500   3      10.151070043487257      12.128814013104421      14.456648008282386
   501   4      8.2885702786465192      11.899860399889246      15.903712143213122
   502   2      10.085722659436028      13.990089359502978      18.187556023674304
   503   3      10.058017836318154      14.459483199137722      16.253937075059891
   504   3       8.138274858566291      14.279621819962133      18.327327257702159
   505   3      10.074800753312948      12.123572508031925       18.07558763121343
   506   4      8.0955826847695906      11.888656457181968      20.052709258880537
   507   1      10.064107288041978      14.205546886510659      22.236978734478399
   508   3      10.211355235367751      14.091391235597174       20.18102551901881
   509   3      8.0304209817529824       13.99683933746436      22.276323151778648
   510   3      10.195918425982676      12.160566698940572      22.467941033442951
   511   4      8.3760645599217032      16.046140830671536      12.139331377596609
   512   2      10.223219931460591      18.236561743715058      14.096457485774682
   513   3      9.9834893328188503      18.444759622970125      12.209316251731844
   514   3      8.0296071581842536      18.534665948149144       14.23679602435449
   515   3      9.8571935378168547      16.313005006209398       14.10393786536595
   516   4      8.2117182830096631      15.925936791022254      16.004785565258647
   517   2      10.119120136885623       18.23446455611743      18.151455783063518
   518   3      10.002729219525074       18.09892165031658      16.250200672238254
   519   3      8.1002495471569951      18.397269340515166      18.361283704094955
   520   3      10.010335363641529        16.3088317089403       18.50142241513122
   521   4      8.1624988939445657      15.921726411790493      20.074701579302751
   522   2      10.007959289239093      18.113522006637776      22.340953763219542
   523   3      10.117132029813348      18.512091951468435      20.257545180931622
   524   3      8.1249351650655992      18.354173795846062      22.218853485484974
   525   3      10.088297027203319      16.244692365978707      22.067444165587997
   526   4      8.2771601749749735      20.208904390584713      11.989314057939836
   527   1      10.160494407904142      22.265834760419235      14.154860946769714
   528   3       10.01997515671488      22.193345429132094      12.121008605251957
   529   3      8.0144464963021917      22.151589293827634      14.296937583433607
   530   3      10.135135532376214      20.228617928541624      14.490438860106932
   531   4      8.2305568009954371      20.327261707239323      15.914712143086234
   532   2      10.196072929612273      22.321027313912222      18.209091782208343
   533   3       9.959580282149826      22.501016470650022      16.282192994852469
   534   3      8.0322466872148439      22.277831079216398      18.460701402775676
   535   3      10.175016966157738      20.289277159347943      18.134655729314211
   536   4      8.0173362924759797      19.944790669069775      20.315918502521651
   537   1      10.078148663961819      22.215997122445934      22.284240520992874
   538   3      10.303659647238083      22.168398265877105      20.242740629428617
   539   3      8.0230531341442965      22.421923855723534      22.230015923884938
   540   3      10.393865026634773      20.211947506838261      22.354889791293711
   541   4      12.202693980698792    -0.31058259978521491   -0.013138604723650544
   542   2      14.045168030936559      2.0944438217076389      1.9421308733513427
   543   3      14.343132134015731      1.9351322809309641     0.03241139266245107
   544   3      12.168958497389596      2.0015014557145427      2.1204329077271034
   545   3      14.358000709162276    0.089553327768165172      2.1234382525033206
   546   4      12.037015576119266    -0.19589903144126769      3.7545402892244097
   547   1      14.185933188191596      1.9705805935334284      6.0172759467856096
   548   3      14.369918549278852      2.1476602543546806      3.9907811830592315
   549   3      12.134475412626951      2.1603799640995791      6.0055497660590689
   550   3      14.470197832436607   -0.045230400755317708      5.9605263328250357
   551   4      12.228138371295591    -0.37166919719851416      8.0526853565469914
   552   2      14.196179878924612      2.0406106479348112      9.9918018125992116
   553   3      14.305103106057521      1.9087735063263236      8.0949384438700527
   554   3      12.221598914580948      1.8854803483396401      10.321246337129997
   555   3      14.278033717718628     0.04497132965920829        10.4347384644865
   556   4      12.199876734813371      4.1311513914297544    -0.33021312425934773
   557   1      14.184109467611265      6.0494752566311734      2.0242329172036251
   558   3      14.148628132253586      6.3311100414953589   -0.006437671688277944
   559   3      12.110648053422761      6.2719629238436241      2.0263514303271548
   560   3      14.273424800994054      4.0237318416451755      1.9329545464854416
   561   4      12.021174902674737      3.7756680517755852      4.0937124095096866
   562   2      14.050301159818376      6.0784757927922302      6.0094465967753958
   563   3      14.358830277987199      6.0156831901155021      4.1063506602376849
   564   3      12.173370773269886      6.1237005419120258      6.0863364254720933
   565   3      14.219071324135067      4.1272069170962151      6.2900438564411552
   566   4      12.067314489070164      3.8739498802972654      7.8160244530058369
   567   1       14.14515279495788      6.0203689951598536      10.107670215615343
   568   3      14.144110111316955       6.387779517075562      8.0707829281439913
   569   3      12.095013837605016      6.3106484993892451      10.148288331603885
   570   3      14.060542515880165      3.9922414548843483      10.061521889351708
   571   4      12.152716056153624       7.713366434884029   -0.070173279996470522
   572   2      14.013608625138557      10.111551236917098       1.989369901740589
   573   3      14.283646156751889      10.032152646701839    0.061526130056797565
   574   3      12.132015371563746      10.068998648018466      2.1738736954834512
   575   3      14.277013875148169      8.1640096203481658      2.2278686049508152
   576   4       11.99624085451017        7.97886966599508      3.7532200299449796
   577   1      14.106872628454125      10.092475822368886      6.0324607568092654
   578   3       14.34609870819207      10.258369149201188      4.0120535220314189
   579   3      12.070387423111635      10.194470117929374      6.0981254342525748
   580   3      14.453465951144159      8.0641248333014452      5.9687664961281213
   581   4      12.096723026347755      7.7708118067248106       8.174441678496196
   582   2      14.210413537976205      10.133927447405597      10.037932170193439
   583   3      14.161615646626675      9.8962669190154795      8.1192720548931359
   584   3      12.163209971078901      10.044882281910793      10.286285739445374
   585   3      14.199520185166941      8.1433427941174639      10.433841258204007
   586   4      15.848475150401001   -0.030779435745996668    -0.08650731918124048
   587   2        18.2127538071903      1.9596066934776957      1.9735268978634219
   588   3      18.365393241448203      2.1331326783335709    0.036574143663525259
   589   3      16.314053880384225      2.1435776314437569      2.0651635448091694
   590   3      18.271272287342494    0.069898106973597413      2.0841281006422774
   591   4      15.853531499288639    0.026357347255866508      3.9098737805973389
   592   2      18.233468525536729      1.8709233139615771       6.093243370384565
   593   3      18.257816981897335      2.2259315533563977      4.0399361059724272
   594   3      16.303404842607115       2.334950629845514      6.0619394277658687
   595   3      18.103219293936665    0.013185621487045765      6.0216234105145556
   596   4      15.996265678413463    -0.28769001227123864      7.8526475193782437
   597   1      18.197261792370561      2.0014664563618578      10.105105274353697
   598   3      18.311388846778101      2.1485763570882135      8.0424322623570497
   599   3       16.17238993669746      2.0794649494309652      10.334810114218177
   600   3      18.170222852546509    -0.02668524128853245      10.325011691625559
   601   4      15.963378252186679       4.068018516504103    -0.22948057480291809
   602   2      18.155256850042832      6.0329832788003834      1.9764660157590632
   603   3      18.427183792199841      6.2089467026667693     0.09161512799415425
   604   3      16.293967583122718      6.1725284124261144      2.0070933352237756
   605   3      18.367343902180291      4.1415761568913521      2.0465452945256626
   606   4      15.991050199039215        3.83574025956145      3.9948324297858555
   607   2       18.18854662106865      6.0713882204304195        6.03275686614165
   608   3      18.292898826694071      6.1887195984505832      4.1084820162335642
   609   3       16.28771463489608      6.0191816980871327      6.2710764992783172
   610   3       18.43191855718586      4.1720591002261189      6.1508138052232537
   611   4      16.029054472489619      3.8687016190262957      7.8492613974780259
   612   2      18.058954120077381      6.1015818533287653      10.094282679810275
   613   3      18.423173472443718      6.1256068499588974       8.127029514720256
   614   3      16.209775796417436      6.0349270350149951      10.108656341395285
   615   3      18.477748840634774      4.1493654825473243      10.139204014852126
   616   4      15.868992105877133       7.924493986232843    -0.15981600965013559
   617   2      18.187409296058103      10.107300276966383      1.9818920559320545
   618   3      18.360913691234511      10.156220535785659     0.08111570386097755
   619   3      16.290403388763611      10.223534976292841      2.0671548881703923
   620   3      18.329897346369336      8.1750870216745319      2.1812464417910942
   621   4      15.845959666601054      8.1001344677105198      3.9776800803688359
   622   2      18.087180527011292      10.155612050045628      6.1263755068659949
   623   3      18.313812728382914      10.230339706397096      4.1125313684528191
   624   3      16.218333439361388      10.320295874558326      6.1855803288407412
   625   3      18.215468166333757      8.1496338024525468      6.1349034746387474
   626   4       15.83459471184705      8.0255982454586068      7.9671831605295207
   627   1      18.171481621222405      10.096600131665417      10.142514033935669
   628   3      18.431917038574433      10.138059587408794      8.0711426848637942
   629   3      16.146442880085043       10.24825890294553      10.221518195304091
   630   3      18.324240680562415      8.0440403636831075      10.106509002855336
   631   4      20.319014888403505    -0.31499370446008729   -0.095826186647013603
   632   2      22.255488946912038      1.9569393232649841       2.005073629065433
   633   3      22.302260974361349       2.214029359577959    0.042707829313357544
   634   3      20.290766828089474      2.1369437348802243      2.1307196902850745
   635   3      22.364203588137872    0.092692323354865644      2.0619860941134673
   636   4      20.196233799354289    -0.31999088548225479      4.0975219005255958
   637   1       22.23454127631582      1.9942926208612608       6.053851317727327
   638   3      22.338633961472567      2.2172447216843483      3.9896541851841154
   639   3      20.197784864670687      2.0686387361858949      5.9548991126194455
   640   3      22.548510701491143   -0.014773972688800457      6.0297501097509718
   641   4      20.144311986950907     -0.3581560975626582      8.1597533346506772
   642   2      22.260445999858213      1.9063678930006982      10.004315652547524
   643   3      22.321314423585207      2.0867214066031132      8.1160726204263458
   644   3      20.333851534655807      2.0534309465609932      10.234263531750878
   645   3      22.475823661043435    0.040799560732242196      10.165608424604386
   646   4      20.067867518133383      4.0354462630817114    -0.25630068295732727
   647   2      22.243706727457994      6.0470130894495533      2.0091918822036225
   648   3      22.294650047822504      6.2983182704478038     0.11485266693594322
   649   3      20.319116703610778      6.3215037270888512      2.2102378003742507
   650   3      22.233506518878983      4.1792415355122898       2.083566429747179
   651   4      20.252877879885226      3.7082785622820467      4.1394992386922533
   652   2      22.216041515734929      6.0029056607618836      6.1212440528706562
   653   3      22.352313578754149      6.2774742755302926      4.1353270433755913
   654   3      20.304714899512899      6.3249394183171548      6.0826397175188092
   655   3      22.186509840478323      4.1419268174800363      6.0789699167566438
   656   4      19.981543491988667       3.831972718118736      8.1447445710967159
   657   2       22.24082968386335      6.0161180307705155      10.179135393829563
   658   3      22.356149005298214      6.2216008477225815      8.1020516273710363
   659   3      20.335774879420821      6.2511616329524111      10.152156658814189
   660   3      22.250285319438763      4.1168608327590333      10.179646646014509
   661   4      20.072904322881946      7.9689800279076755    -0.23489822536368365
   662   2       22.25616322963333      10.123015644358311      1.9955509263858295
   663   3      22.355528915357688      10.213712148444966     0.11918823769446492
   664   3      20.340700922952657      10.137384918139631      2.2204208899430395
   665   3      22.404484875071706      8.2218493659137657      2.2291293952928073
   666   4      20.132636445693418      8.0242723165150025      3.9667234061461389
   667   2      22.227255747055263      10.088765895137197      6.0906634973829572
   668   3      22.465256060544782       10.25992198996617      4.1523119175121579
   669   3       20.33860209934172      10.087819275242564      6.0623308896490187
   670   3      22.507308973103822      8.2076740958942906       6.144485986778319
   671   4      19.952042608514382      8.1411675452999237      8.2710252466263974
   672   2      22.189101284708507      10.159849431615205      10.142497945592476
   673   3      22.393894696445177      10.258643159498341      8.0984402615061484
   674   3      20.325713273440215      10.083552933851749      10.102046778521492
   675   3      22.465675962445957      8.1999903622042964      10.008120932499899
   676   4      12.325823650521707   -0.031556862718981268      11.846024648802283
   677   1      14.188596592664226      2.0016996174806971      14.191896206977107
   678   3      14.189025458392416      2.3061575137134342       12.17292757975024
   679   3      12.154364031568328      1.9423282686233987      14.132341359226039
   680   3      14.299026389525583    -0.04112478609519641      14.046192493062136
   681   4       12.28561980261002    -0.28900622279796689      16.119359863374573
   682   2      14.062595472111925      1.9740923099939833      18.279230722808471
   683   3       14.33825972312539      1.8553016834282894      16.243586860047333
   684   3      12.156150760968018      2.0076851003804701      18.201818200233053
   685   3      14.384963315560407    0.044861378188050638      18.339617863928201
   686   4      12.062577166791685    -0.33711630862854358      20.371844454479877
   687   1      14.176754518398795      2.0274624096203646      22.253956891512495
   688   3      14.311246074935426      2.1963422201362901      20.212714784448931
   689   3      12.139236283522273      2.0374580156469961      22.345319584412874
   690   3      14.428906927710349   0.0018368777197352881      22.184868245702905
   691   4      12.333728083517039      3.7110193823136619      12.002449518166534
   692   2      14.013968439794439      6.0229809911210257      14.136247176402478
   693   3      14.275525105504087      5.9705644355640182      12.209078871369089
   694   3      12.143398925808761       6.258498572345256      14.226623629388708
   695   3      14.127137279916992      4.1213758853145714      14.431873310832191
   696   4      12.173931877489666      3.9257032597336479       16.37352798960239
   697   1      14.147193341258642        6.07389243027154      18.179814871553049
   698   3      14.148119361039074      6.4091252034957895      16.149533461600193
   699   3      12.088275276184765      6.2873193976375443      18.143319545636999
   700   3      14.058122273491197       4.025226836481326      17.920115504568539
   701   4      11.865679091974096      4.0201117559748063      20.098275097314634
   702   2      14.203057951047315      6.0706547651537948      22.108849085677249
   703   3      14.162778447087039      5.9768989000250405      20.224919547293425
   704   3      12.192340895723806      6.0917035037962668      22.437768469024792
   705   3       14.12809310644797      4.1042114962623684      22.527813979189677
   706   4      12.103800614821873      8.0397833175415823      11.779359469638434
   707   1      14.135504277172647      10.108631095342572      14.172893425856763
   708   3      14.176066168689626      10.429017178053526      12.149833772598603
   709   3       12.08619444735764       10.15623624783653      14.175423704313701
   710   3      14.430644601139589      8.0855606685057726      14.039021229001502
   711   4      12.108309738060731      7.7804959820420336      16.239605687978948
   712   2      13.949009205692661      10.151139315231415      18.191207205782067
   713   3      14.277374808600891      9.9928009930928496      16.259250077570698
   714   3      12.097897596157139      10.059499949817081      18.319300881605614
   715   3      14.341737373305165      8.1834771903514643      18.349908820115392
   716   4      11.871306079183148      7.8205667534689107      20.035306830151757
   717   1       14.10654960409116      10.097447624077022      22.237216993015505
   718   3      14.368664967098512      10.227655173168667      20.187017306924556
   719   3      12.064277555992673       10.21881140925208      22.208102699123554
   720   3      14.334616862973393      8.0736942197093846      22.160118204343615
   721   4      16.185848827391155    0.033964423138622919      11.805726533646922
   722   2      18.131492516858362      1.8795384523463943      14.184368558467968
   723   3      18.323868063881168      2.2076034901573389      12.243666289087553
   724   3      16.268130891905024      2.2013724708302536      14.154915693096623
   725   3      18.264369318370409   0.0075267884419940954      14.202131463761328
   726   4      15.859038995918544   -0.049230597141414152      16.304608086397554
   727   1      18.211509755034513       1.982736799723799      18.218116969545331
   728   3      18.386702313234029      2.1531096212094263      16.137698121371571
   729   3      16.193709116727081       2.322368663963553      18.234050235823023
   730   3      18.250414263486249   -0.043947485535354207      18.174194678278283
   731   4      15.845852304667984    -0.11589986832581343      20.322934911664362
   732   2      18.162262825215247      2.0274008494445583      22.200972553035992
   733   3      18.266173736179145      2.2634557743738464      20.283407232681931
   734   3      16.275752068575649      2.2898665830044687      22.292750948500924
   735   3      18.183945361627011     0.10363091455387893      22.241450703826676
   736   4      16.011537599811486      3.7685357953969185      12.107050923314079
   737   2      18.164340863350922      6.0059175564355929      14.194739017070928
   738   3       18.35021433660274      6.1243064911812413      12.160866357971852
   739   3      16.271291186204646      6.0488253724517591      14.226325388334383
   740   3      18.462062211596908      4.1297434169692266      14.231002068934917
   741   4      15.924073170890752      3.7825063854705459      16.327729489494974
   742   2      18.089588446647824      6.0809558160252966      18.255321099530047
   743   3      18.425962907445903      6.2062045887024837      16.197714508250119
   744   3      16.239139920788801      6.0218680212883342       18.15495182537099
   745   3      18.490462183124368      4.1837520527127525       18.15979806116097
   746   4      16.096754173971661      3.7825860731998433      20.098270459451737
   747   1      18.188402439573338      6.0988408055073107      22.238921479065365
   748   3      18.381551566681896      6.1224993154077545      20.178198257217264
   749   3        16.1597661073002      6.0006327781522453      22.443193253805845
   750   3      18.467128840155478      4.0678937859173399      22.364689172565548
   751   4      15.829781609921472      8.0052869553491561      12.150380904845639
   752   2       18.12766001527201      10.151059197254662      14.055163999786407
   753   3      18.330283368508006      10.244303371201759      12.177251269922754
   754   3      16.258544645742337      10.360664877844478      14.187498312427129
   755   3       18.22178272502169      8.1697147994010511      14.182564430481696
   756   4      15.784898755580212      8.0911653841058868        16.1103252293893
   757   2      18.211796003412537      10.140240479263701      18.084409183687789
   758   3      18.382361552619841      10.155734731396286      16.204790868863178
   759   3      16.326733220435532      10.169408871658897      18.271032454776808
   760   3      18.320022335590025      8.1514639073013804      18.299645023098599
   761   4      15.816411915624839      8.2768620224658989      20.155555856842259
   762   2      18.136370495947464      10.120704806704103      22.182046024662011
   763   3      18.309599340465645      10.154172757582479      20.293742305834876
   764   3      16.268323236164594      10.238035307358652      22.375066843148051
   765   3      18.324588015680774      8.2071092433650001      22.364180400227298
   766   4      20.026305716306123    -0.23550751536114609      11.892276656719869
   767   2      22.233799157732118      2.0831973257422498      14.072060742475765
   768   3      22.425286689402174      2.0710574667250481      12.175669589468789
   769   3      20.326582442440422      2.0081614868153816      14.195672100814249
   770   3      22.458535444475366    0.032513722251044402       14.31780075549686
   771   4      19.947043222434097    -0.19804104149662133      16.199007254696046
   772   2      22.251353271890007      1.9701511267561496      18.150415849492152
   773   3      22.292654916928857      2.0832183789321914      16.264034057905796
   774   3      20.355712391187399       2.141675120392208      18.312386984625391
   775   3       22.44483128170657     0.10138285803361062      18.310835379874383
   776   4      20.315570154487904    -0.35108672757009018      20.300350908558642
   777   2      22.282098363821575      1.9966730118178657      22.222929178083447
   778   3      22.369681879519298      2.2047977338671783      20.318475163728301
   779   3      20.324151766743668       2.114302419941243       22.32562140154322
   780   3      22.367595403629021     0.12765351491303517      22.340792391195393
   781   4      19.989396245893627      3.8365732676863953      11.976455360163531
   782   1      22.247615319395624      6.0325535995659063      14.117165466741543
   783   3      22.320339396313784      6.3039066292603714      12.083721795267799
   784   3      20.238585154782726       6.411377612767998      14.135744479869723
   785   3      22.343009518856803      3.9948491561508193      14.271998777254282
   786   4      20.024580864662319      3.8376111910368498      16.244576452214456
   787   2      22.261826462946729      6.0527719027652633      18.113312967526277
   788   3      22.289889961257842      6.2196430337201134      16.238694750584514
   789   3       20.35633739296998      6.2959422390108637      18.301062499599404
   790   3       22.29829610758491      4.1574074166369925      18.325417336196644
   791   4      19.970290768948828      3.9588945881427184      20.146689688924958
   792   2      22.289358959472008      6.0822789384466907      22.189856183824507
   793   3      22.355191404281346      6.2272796338965977      20.315443068722612
   794   3      20.370726284144894      6.3005672811247964      22.375307675423439
   795   3      22.246737572322605      4.1919359579925093      22.421969033194035
   796   4      20.121732006092344      7.8517341113517984      12.192394533827581
   797   2      22.255173979173094      10.127863227873217      14.075090890379501
   798   3      22.427736824020251      10.157352247010172      12.129341529954978
   799   3      20.355552340612522      9.9983136710630429      14.188492761108829
   800   3      22.534601531969383      8.2231860887888448      14.246147362996354
   801   4      20.198602368614409      7.9089587683259381      15.936595511713604
   802   2      22.290795945508329      10.143152990431565      18.070258150289121
   803   3      22.331031659691003      10.216738126087817      16.191332929622046
   804   3      20.316326236272634      10.102161122604681      18.384811190805362
   805   3      22.410030983561757      8.1668085815398701      18.356109547655738
   806   4      20.066758181846193      7.9783843100156231      20.102918653168221
   807   2      22.233806502250392        10.1356811355414      22.224514159908981
   808   3      22.346838260391973      10.162580494676579      20.356108267364871
   809   3      20.324546839468724      10.173135010877662       22.42335213164974
   810   3      22.410209096795779      8.2034708851620373      22.457811616774329
   811   4      11.806989443731387      11.934626808849295    -0.15196065149138779
   812   1      14.104923896254718      14.130810907326614      1.9905551360586793
   813   3      14.204912847876747      14.442590950552509   -0.059808308862386597
   814   3      12.097314610099279      14.450508010969413       2.013382962766888
   815   3      14.254038522057121      12.090695578907209      1.9596632830472644
   816   4      11.881066987974027      11.950325756730027      3.9137993043142218
   817   2      14.109214300751672      14.150940624295387      6.0037193374035995
   818   3      14.235823101653287      14.037418018331733      4.0837944675316846
   819   3      12.138026595608665      14.393262681493576      6.1866975664711621
   820   3      14.073999411440692      12.198569618474396      6.3737610470670152
   821   4      12.113494799533687      11.810319261863036      7.9610992190913379
   822   1      14.119093264540485      14.137633405103037      10.092602359625165
   823   3      14.113827707322416      14.510268580555298      8.0867479461683072
   824   3      12.079180402764218      14.472391030625591      10.111259435098038
   825   3       14.05627458777284      12.104346754791258      9.9090388625792354
   826   4      12.064250615981498      15.913808290050341    0.036578100163896538
   827   2      14.084225667550742       18.31973329847661      2.0286070563621963
   828   3      14.291935164239126       18.06716251758272   -0.019208283610567249
   829   3      12.180687250512291      17.998936950593876      2.0763685496725124
   830   3      14.397943935073748      16.215676112513201      2.1142735696026609
   831   4      12.014368222519494      16.100715683920754       3.705676632022985
   832   1      14.168867739865956       18.18483505723254      6.0293415504224566
   833   3      14.382641797845992       18.27484028439941      3.9882239476950789
   834   3      12.130193573135211      18.182658925516037      6.1340448262955443
   835   3      14.466422818835015      16.151631827584893      5.9326909521513809
   836   4      12.211093067846829      15.978802296379746      8.1375844277033185
   837   2      14.194554292489588      18.267623534752641      9.9826026901818388
   838   3      14.239738222696204      18.013023024262782      8.1087267355735086
   839   3      12.201778094220529       18.07741956008249      10.300125979842353
   840   3      14.233935572563276      16.252517937915016      10.451947149994137
   841   4      11.900045233480494      20.041877032572781    -0.13058211817462703
   842   1      14.201038683192049      22.216642891909093      1.9507877051957883
   843   3      14.212218169924091      22.563369093121533   -0.062450132282509806
   844   3      12.139484429554704      22.551636723871958      1.9217949211517262
   845   3      14.019201083262432      20.199653101480575      1.8906634997309977
   846   4      11.860042125193001      20.207973059646672      3.9740580377265782
   847   2      14.174942978061081      22.241472344403618      5.9039526028172853
   848   3      14.216139250606943      22.234819841300105      4.0165051239705631
   849   3      12.234169717113311      22.353501724498557      6.1721744205245388
   850   3      14.112462035831353      20.279073486959589      6.3054044270264225
   851   4      12.202335213903806      20.240537234120861      7.8037711189866075
   852   1       14.18658410207596         22.236123375934      10.090585968729631
   853   3      14.183269346240648       22.53429762078239      8.0781110275367105
   854   3      12.136379713064434      22.543406867998449      10.123350856628921
   855   3      14.002720733822768      20.207080147551597      10.012505114279378
   856   4      15.859754405053019      11.982019031349378   -0.079840524537568097
   857   2      18.099681659780547      14.183195129909455      2.0590104558185294
   858   3      18.416897012866944      14.128496129123457    0.068075454052902523
   859   3      16.227072274292254      14.084835534684839       1.982103482663653
   860   3      18.431645299253248      12.136980409256747      2.0892384645122748
   861   4      15.838673696017707      12.078254501956145      3.9027938284229502
   862   1      18.131127742132779      14.131721942878993      6.0939137557777618
   863   3      18.357182565892444      14.096454851107575      4.0240284134326707
   864   3       16.11228786501173      14.005238797696739      6.3101797589528603
   865   3      18.464188269936479      12.112105345946466      6.1619111470846164
   866   4      15.924190878750814      12.203185370963109      7.9256117587353412
   867   2      18.070911135341834      14.138874869141755       10.11903460617558
   868   3      18.329494977078522      14.274263751259021      8.1574408439089598
   869   3      16.171426407388783      14.131173288576854      10.150061232027442
   870   3      18.419782374368303      12.195230371116441      10.080613856134603
   871   4      15.888794959817623      16.091768502351698     0.21723907327550526
   872   1      18.229008831294113      18.156837661945229      2.0390775441850928
   873   3      18.355158108739921      18.261268152028599   -0.010946673955539483
   874   3      16.200302257803571       18.38655732383592      1.9598697641435872
   875   3      18.280952580587169      16.114885074478703       2.062655583380741
   876   4      15.867963859316099      16.228584725249799      3.9731909300602157
   877   2      18.200598261392109      18.096671195133407      6.1626203502896955
   878   3      18.171636803940856      18.416377697508874      4.0703265118730769
   879   3      16.251107268087313      18.497345533718217      6.0803352869424456
   880   3      18.080462298522558      16.196855297424101      5.9367266884074397
   881   4      15.955086299054733      15.986970367027281      7.8638367330694896
   882   1      18.182824500539919       18.20683799002277      10.132865499326101
   883   3      18.352586274143675       18.19753726627204      8.0874378479037219
   884   3      16.147042222181636      18.282851173868057      10.335734701074401
   885   3      18.136992793231652       16.17149644514895       10.34275956800712
   886   4      16.345254484593426      19.766401799503559   0.0053625419943504121
   887   2      18.142606333701583       22.19213356233108      2.0657063009407701
   888   3      18.351691903661838      22.444614334484736   -0.015492532118900887
   889   3      16.282120343655563       22.27364018783657      1.9968272416631099
   890   3        18.4100753949857      20.318804000596096      1.8830249691428667
   891   4      16.238068049007516      19.866161976728293      3.9677068869070879
   892   1      18.201944308289558      22.238064823807424      6.0307020678644792
   893   3       18.42457453254432      22.271987987755409      3.9688452871357582
   894   3      16.181483777769675       22.11323052345314      6.2472487741083746
   895   3      18.456335390999904      20.225313706667002      6.1896031269261966
   896   4      16.089254455244216      20.245953181251778      7.7267835056360052
   897   2      18.123806372842033      22.211266523906513      10.111146163422937
   898   3      18.361154960268227      22.343792467589658        8.13865010470745
   899   3      16.223900751588424      22.251709042990576      10.195802822506378
   900   3      18.449271008264038      20.277259388708547      10.069266292726752
   901   4      20.090429549127286      12.257660514857628    -0.15996074661084106
   902   2      22.204834463740347      14.105744585043094      2.0528233022048394
   903   3      22.399890810449719      14.129859973536878     0.14396412728983538
   904   3      20.325342879401429      14.226218979551176      2.1177999957540417
   905   3      22.339444748264025      12.185076856024054      2.2293591121288698
   906   4      19.906488777146073      12.155292274050286      4.1259301242210231
   907   2      22.132635969860463      14.188674094830795      6.0943381556936691
   908   3      22.339480961615074      14.264963071106118      4.1168865702502533
   909   3      20.256249382688399      14.397753389726539      6.0982034902268527
   910   3      22.289547365955261      12.228224509520986      6.1378585272363946
   911   4      19.905512645576746      12.096450147692362      8.1881351905090494
   912   1      22.243410948673784      14.176203596602893      10.131905084956994
   913   3      22.393576600418612       14.29206453526432      8.0668045477324313
   914   3      20.232013671312327      14.444911795607453      10.123711892983104
   915   3      22.362662216966321      12.127671983863779      10.084253499017148
   916   4      19.858065058181605      16.286089646479617   -0.081387580236733217
   917   2      22.233221686540439      18.051807425319225      2.0768205489462548
   918   3      22.325587551229358      18.271054611028731    0.044774020215228479
   919   3      20.331660574089138      18.218752908347295      2.0448315001076653
   920   3      22.433543894382041      16.172917474497222      2.0504568568530646
   921   4      19.901507506681334      16.072763274931511      4.1785383098344706
   922   1      22.199645978052796      18.182614756630461      6.0866952639168383
   923   3      22.429697457382204      18.265382019434416      3.9884735775374103
   924   3      20.188275540911377      18.109333214816072      5.8810357432265965
   925   3       22.53426134963351      16.171141556473998      6.1112926705900383
   926   4      20.072465442368312      15.929632409921332      8.2873653388581516
   927   2      22.142147559653047      18.290365812168112      10.088678067459659
   928   3      22.409818509695235      18.247286677800428      8.1698454819161874
   929   3      20.288144521101888      18.067645609867004      10.200872526659488
   930   3      22.587300324532269      16.290996431121549      10.138581341358078
   931   4      20.022461840781332      19.882301586071545    0.042975972961366418
   932   2       22.27910430107773      22.108581638781342       1.987228227153786
   933   3      22.291738469649264      22.466515516751521    0.054632973075999083
   934   3      20.329818823937917      22.519305677895389      1.9769354255653266
   935   3      22.241996208963993      20.254739235967339      2.0126153866228047
   936   4      20.015732675747728      19.938622070722666      4.2475485033008535
   937   2      22.210986370231268      22.175740280399832       6.136889201031642
   938   3       22.25111913114176      22.443787118356731      4.0152257171450101
   939   3      20.299054665507033      22.524718476817249      6.0681484300392823
   940   3      22.160189576132026      20.281224983103542      6.0340172978141364
   941   4      19.884375780528849      20.161596770104758      8.0806153413070252
   942   1      22.266720419094732      22.223874555876879      10.121201967554017
   943   3      22.303509644139812      22.415212276291992      8.0529586652200038
   944   3      20.250844869428274      22.549530647242474      10.078972561278279
   945   3      22.289259332247291      20.199807971591341        10.2820957411703
   946   4      12.157998672607844      11.770389878717552      11.999112375245517
   947   2      14.144683739939101      14.189127056204573      13.998780588231821
   948   3      14.089608505205213      13.925747440542889      12.136019245330019
   949   3      12.165778298775637       14.21130766295853       14.37591774832406
   950   3      14.061778554253271      12.189821358528683      14.478835355994102
   951   4       12.10048246312118      12.152041461593432      15.825292708044316
   952   1      14.108460423718318      14.165238240966008      18.229371678761364
   953   3      14.202050318661634      14.428213880887151      16.216867750676393
   954   3       12.05905156426777      14.401964013835563      18.172452086542506
   955   3       14.30472646774381      12.102583155904755      18.146100415312766
   956   4      11.769700941988054      11.961995827409357       20.43711429171832
   957   2      14.041692363138223      14.067439876994225      22.260835355998701
   958   3      14.264315294504019      14.060679192342894      20.326457419975359
   959   3      12.166435845918745      14.275591357267245      22.332880782945061
   960   3      14.180552227724348      12.175600750166774      22.473398783697153
   961   4      12.304400765317137      16.251974732008954       11.84052275786525
   962   1      14.142987603088661      18.209789531465603      14.188058339976706
   963   3      14.178102464862556      18.537450904116994      12.179983476449687
   964   3      12.093305857774272      18.222646786837803      14.207331849979164
   965   3      14.301226455657922      16.147832457660723      14.032623848421089
   966   4      12.196897658671642      15.836266877745702      16.141118221513558
   967   2      14.148997261618188      18.264898831946226      18.104032360204531
   968   3      14.226285716759739      17.923311607440226      16.244868422132306
   969   3      12.100066110629355      18.145086119163164      18.328774292678968
   970   3      14.181680798303988       16.25641320993374      18.560705235580556
   971   4      12.058937403228045      15.970010644674032      20.008415078507063
   972   2      14.159267287978825      18.101999584396186      22.191482758602532
   973   3      14.190162735683518      18.447754415418842      20.301365152368813
   974   3      12.208564859726998      18.188709515553551      22.291050387368845
   975   3      14.345352932431725      16.205864150501881      22.125206641838293
   976   4      12.422300419238134      20.076454969527628      11.963988617740862
   977   2      14.238680151224465      22.338316206814675      14.046111053550113
   978   3      14.058427221456068       22.03330420913079      12.171535849194955
   979   3      12.198989244308663      22.315939895857806      14.448048319835008
   980   3      14.068905203635167      20.286344763607239      14.524382977530246
   981   4      12.196340359722177      20.371797736327451      15.907828174870167
   982   1      14.150449864637576      22.196526558613503      18.268224268589822
   983   3      14.266168490388313      22.524400634389114      16.213009417743223
   984   3      12.109853600437173      22.486893493256762      18.122378168782269
   985   3      14.102263538996183      20.178279689985281      17.980352389355939
   986   4      11.814432739627076      20.194639776271146      20.401557923727115
   987   2      14.174072443225581      22.154643754723022      22.278112246171311
   988   3      14.148049074177656      22.344247591295531      20.320150828853361
   989   3      12.215295210509666        22.4987334141201      22.339382365975229
   990   3      14.085736186135669      20.260752189176401       22.46268912116809
   991   4      15.956963859521993       11.97470568786942       12.02477641961589
   992   1      18.151244474375925      14.197544060731289      14.141300811790476
   993   3      18.373671323359336      14.071099406591834      12.116425065598701
   994   3      16.111208009157068      14.024084562444216      14.289518481710513
   995   3      18.550960110151816       12.09613765802378      14.204404253093672
   996   4      15.838583452865882      12.234049158663941      16.031435128886649
   997   2      18.226265396387038      14.206883879573097      18.071713455442616
   998   3      18.265811727936146      14.089824562931227      16.202695285762896
   999   3      16.270506923438798      14.179869209527871       18.34502357162345
  1000   3      18.347748994563513      12.124670829450986      18.318508805978716
  1001   4      15.880249043086792      12.156257550578099      19.982901035368378
  1002   2      18.122262008251582      14.174691091046501      22.201816004291288
  1003   3      18.282966068342013      14.082424503796691      20.320698360229972
  1004   3      16.245205475188172      14.104446757379314      22.393015056821852
  1005   3      18.390554230512514      12.147161154526714      22.459725898228086
  1006   4      16.124716396140222       16.25978104740863      11.852336626367967
  1007   2      18.092728456066443      18.145743653321169      14.196295525291308
  1008   3      18.262768065108308       18.42533505473309      12.221418370796425
  1009   3      16.218944511552998      18.427055866339618      14.233086712091458
  1010   3      18.158354389579603      16.244307282720563      14.056647031921074
  1011   4      15.890337340597014      16.015781781048801      15.969758981259476
  1012   1      18.141846400743717      18.224168643026694      18.172162067950527
  1013   3      18.463073084617719      18.190994391682064      16.159887609228829
  1014   3      16.121558550945586      18.226363048043368      18.416715545153082
  1015   3      18.264793005117696      16.137982729821378      18.313582983661608
  1016   4      16.044380969174068       16.08190738768776      19.909771193410077
  1017   1      18.193073323458588      18.137756283207974      22.264339341993963
  1018   3      18.310969077356305      18.319886972706655      20.264051030819129
  1019   3      16.160254753696666      18.443331754018093      22.265975982262557
  1020   3      18.347679312509062      16.079719005561095      22.358770990628926
  1021   4      16.082266599443795      19.973936952731769      12.108328597393674
  1022   1      18.181141839308388      22.229708356449535      14.166063913037899
  1023   3      18.454937742042514      22.185747395672948         12.121407087667
  1024   3      16.159383304147237      22.050378717615107      14.240096436418582
  1025   3      18.531137473596839      20.196912273693403      14.259482186359874
  1026   4      15.909547428290615      20.392631085810379      16.017522843565789
  1027   2      18.064191882903849      22.330787985594295      18.248957383929469
  1028   3      18.368833080483959      22.245445521288687      16.282790414571846
  1029   3      16.213410623378877      22.195437094179979      18.287702865401048
  1030   3       18.44369488367952      20.316248196038124      18.241754300910234
  1031   4      16.358754380878334      19.798648523135089      20.227177055138096
  1032   2      18.247326183954925      22.184043377636662      22.308329020374646
  1033   3      18.401217720892806      22.311807864354094      20.271815783748306
  1034   3       16.26602619597368      22.274611518746269      22.242961410923815
  1035   3       18.36060838352261      20.315413783961478      22.357200564693148
  1036   4      19.932472399906082      12.280409789122634      12.115922030101357
  1037   2      22.248376395854702      14.319133427497901      14.160456701664391
  1038   3      22.445048657093416      14.219283056994737      12.183069937715402
  1039   3      20.338903819528859      14.218964579466084      14.207131311313306
  1040   3      22.218245577710672      12.155101985018943      14.150412564712555
  1041   4      20.148977016572438      12.411601764102617      15.904357424927692
  1042   1      22.245388222010099      14.167378478573127      18.180176542638389
  1043   3      22.454520545713763      14.100682210163397      16.132601937903075
  1044   3      20.209976626583288      14.120445881614904      18.318746635275573
  1045   3      22.253082327670263      12.089929208996555      18.430240781982977
  1046   4      20.267195413582208      12.281500558205126      19.899165175340542
  1047   2      22.265467209006093      14.213507439115546      22.166588778666913
  1048   3      22.349573434386102      14.171420074275153      20.306949373167356
  1049   3      20.333576901193798      14.100916900797118      22.431437019920121
  1050   3       22.36431373840567      12.166027212893011      22.437397677480945
  1051   4      19.928274566595555      16.048535531679399      11.987302341581985
  1052   2      22.221621922581271      18.338714530732727      14.146519306644073
  1053   3      22.496074930108652      18.150553456776535      12.191296799540932
  1054   3      20.358813339496436      18.082725134459722      14.136487996359453
  1055   3       22.56229189714967      16.227394555665665        14.1841223996986
  1056   4      20.247510079765572      16.583113754154631      16.483573994597542
  1057   1        22.2915001308298      18.221003988502218      18.223568121119186
  1058   3      22.365824249110037      18.137837528097762      16.132560387223918
  1059   3      20.287899715303055      18.068727732383973       18.34129672261022
  1060   3      22.543154478322283      16.170524587229014      18.187593154687047
  1061   4      19.988917656460533      16.462413734846617      20.038198857024863
  1062   2       22.23084335979711      18.302770165189646      22.259139705359612
  1063   3      22.498298059416584      18.090093515373024       20.33985236956315
  1064   3      20.335644442377198      18.106896789797773      22.290437822112924
  1065   3      22.413615455592335      16.144968236155339      22.449307276797121
  1066   4      19.862946192049485      20.225759623124244      12.185918221084789
  1067   2      22.235649250611655      22.329902494883783      14.117491859003806
  1068   3      22.285953472488732      22.372405767802558        12.2471815935863
  1069   3      20.360255428751717      22.399236493361659      14.365409415459194
  1070   3      22.265177688927448      20.278569534547231       14.20965450159802
  1071   4      19.856027942798562       20.29229220564206      16.176007914786737
  1072   2      22.275131490136776      22.151864853372249      18.217101370226498
  1073   3      22.443103071551697      22.358798744930617      16.301325015629768
  1074   3      20.352896849801354      22.452542867531765      18.246284742231044
  1075   3      22.293706100735143      20.283717565831139      18.346694409586156
  1076   4       20.00403954329861       19.92169880367863      19.980749332330404
  1077   1      22.288848525015329       22.17760637121939      22.257121091139627
  1078   3      22.274896447211642      22.523542610018257      20.230329142834524
  1079   3      20.232350361267208      22.552985314619857      22.297057603621006
  1080   3      22.338016068006041      20.174562052421493      22.294247364910788
