(written by ASE)

1080 atoms
4 atom types

0.0      24.299999999999997  xlo xhi
0.0      24.299999999999997  ylo yhi
0.0      24.299999999999997  zlo zhi

Atoms # atomic

     1   4   -0.094021153382899167     -0.2768978568419968      -0.135577497631309
     2   2       2.044138048716309       1.923421037251601      2.0542202883140965
     3   3      1.8935223700052455      2.1770049174395902    0.098155253127156922
     4   3 -0.00086624126436184038      2.3005698400235359       2.122329097228338
     5   3      1.8812379073747327    0.059858693925598241      2.1249318219409017
     6   4   -0.056763399376780245    -0.25256940328304822      4.0006426654049356
     7   2       2.083101549824466      1.8978750835936611      6.1232802812206266
     8   3      1.9210550129041832      2.2024465945629053      4.0613599875439048
     9   3   -0.030611279736155982      2.3083709521024547      6.0487911946141892
    10   3       1.795357768757132    0.025268222438763636      6.0213406069858841
    11   4    -0.13376133973059737    -0.25742539782261997      8.0140509914327041
    12   1      2.0701485139138458      1.9795933378658035      10.062656386924324
    13   3      1.8726508615931092      2.0434212603515296      8.0231215497840527
    14   3   -0.026683707330023922      2.1971643114046677      10.128934344208854
    15   3      1.9446259216601196   -0.051598989384803146      10.315530782768491
    16   4    0.038643140036893391      3.8481026800296405   -0.034209278620856765
    17   2      2.0506117026013264      6.0159809289837867      2.0563973630423855
    18   3       1.999068651710447      6.3330392737400887      0.1337244285429707
    19   3    0.027581479969800978      6.2475056990312794      2.1542261286991433
    20   3      2.0461806325062413      4.1414732859255983      2.0577451716331208
    21   4    0.022420336643022103      3.7806544414211825      4.0511441002839614
    22   2      2.0375222885015565       5.964909556218065      6.0934544275849483
    23   3      1.9426429958066422       6.192825594676667      4.1276328888206955
    24   3   0.0084279003702801836      6.1746915481756748       6.228781144732439
    25   3      2.0558074676638198      4.0905657915339368      6.1235656239446596
    26   4    0.090228555636406346      3.6802804285748962      8.1984812341084794
    27   2      2.0216957117967773      5.9255823019963021      10.216825128912264
    28   3      2.0305719382027529      6.3051440280005524      8.0884886186948943
    29   3    0.029979017183121497      6.1468701869649855      10.011216379062073
    30   3      2.0546473913739107      4.0648173581369864      10.037299185239542
    31   4    0.040996129168151867      8.0163459088759392    -0.13785835973694446
    32   2      2.0225575158304676       10.08830089688785      2.0019890846390265
    33   3      2.0925885442050149      10.116424922097828     0.12134623070654608
    34   3    0.085508248902940037      10.325992708143366      2.1889328897916491
    35   3      1.9473635868947514      8.2051240299819561       2.272787881349918
    36   4   -0.019273057059462466      7.9612332188539332      3.9444586802508339
    37   2      2.0253592856407909      10.059573047590773      6.0867508213642489
    38   3      2.0507677766447441      10.375368387537604      4.1574485493821713
    39   3    0.073896416947179147      10.425804881741627      6.1745463305329267
    40   3      1.8959998237574032      8.1899057694086377      6.1080825397257703
    41   4    0.015335065574539161      7.8327755821352643      8.0937955054763684
    42   2      2.0270892477010154      10.029639285991051      10.095629262709128
    43   3      2.1131670909422424      10.238792840090536      8.1408197264352058
    44   3     0.09123004432871222      10.312716365736918      10.116848437905736
    45   3       1.960155506948811      8.1692663812730153      10.138342380464012
    46   4      4.2614908536933482    -0.25227575318593704    0.076627278672212307
    47   2      6.1981125182352761       2.042937526508783      2.0533889274333026
    48   3      6.0109034498428597       2.030495527769892    0.036838334820490252
    49   3      3.9625889641448437      2.0363254454287687      1.9872390608360746
    50   3      6.0195804371080737    0.072403170800152156      2.1651419579222329
    51   4      4.4280249313975348   -0.081455366315682648      4.0432319150613187
    52   1      6.1365908944536978      2.0014219148517136      6.0560756757184615
    53   3      5.9221864813138785      2.1277510227829044      4.0215963353242223
    54   3      3.9686153595096032      1.9497776368085238       6.071755622682562
    55   3      5.9955816137832398   -0.047872673156906194       6.024166562689925
    56   4      4.4425794601571571   -0.016954098230509643      7.9529814568567048
    57   2      6.1880866450836569      1.9756635688593203      10.065942904981267
    58   3      5.9739997492257819      1.9781930846134552      8.1035034811503923
    59   3      4.0877435500656789       1.917802761938084      10.277641561050183
    60   3      6.0638955979404914    0.016670351491803095      10.187148258175295
    61   4      4.2640948083255763      3.9217537937730831     0.10652250551322109
    62   1      6.0841114670083574      6.0247746168049314      2.0476333472501178
    63   3      6.0132354048003052      6.3427429256220087    0.013805605983044032
    64   3       3.968245791613521      6.3182303121370644      2.0789369930352199
    65   3      5.8611303659004035      4.0092304593747494      1.9844762241256633
    66   4      4.4272147973632938      3.9758666591559706      4.1444553540027718
    67   2      6.2428389823784061      6.1076357028820745      6.0945567447908005
    68   3      5.9072735948315556      6.0011639782985595      4.1195095986489472
    69   3      3.9494033719088608      6.2455552685854929      6.0932712570038561
    70   3      5.8516768910132031      4.0906565473129914      6.1259751193862408
    71   4      4.4208544364982076      3.9509467011246318      8.0720564101217018
    72   1      6.1183763013572889      6.0004676043050251      10.097743568328756
    73   3      5.8545278403932111      6.0767084188330589      8.0490083719218166
    74   3      3.9714693801943373      6.2848095745075954      10.101204299118098
    75   3      5.8523167040377562      3.9925317433011211      10.030721739398507
    76   4      4.1816664842278914       7.839851329184949    0.064554211977758152
    77   2      6.1056094313008931      10.098108264610174      2.0233184958134736
    78   3      6.0531752153112635       10.06025472348543    0.078715313269647993
    79   3      4.0445259610369364      10.164388436128236      2.2323824812450717
    80   3      6.0729259370669082      8.1708106518166321      2.2649391006284696
    81   4      4.3383164464046722      7.8949674609588465       4.037162647241276
    82   1      6.1009228470336785      10.042968743499692      6.1154407210141644
    83   3      6.0434698912989582      10.362912842652493      4.0785654583627773
    84   3      4.0055454233131602      10.255596167199078      6.1294384288435406
    85   3      6.0596521735676179      8.0326103682180729      6.0118605172868458
    86   4      4.1856052129632122      7.7545123916114971      8.1476435156983023
    87   2      6.1047656852649625      9.9735975737017952        10.1344756022442
    88   3      6.0541233549514102      10.284372169425239       8.174082963451422
    89   3      4.0553729733335251      10.215570626280842      10.163507061582774
    90   3      6.1273793379702148      8.1076706710600206      10.123962293947494
    91   4      8.2777210993582013    -0.21769075037650851   -0.089700407897255377
    92   1      10.115043482284623      1.9866670759491962      1.9685196797912574
    93   3        9.84054550413593      1.8309682202827995   -0.077267919356387813
    94   3      8.0740306843613414      2.0673111653422436      2.1714446784900354
    95   3      10.062287041152375    -0.01831297775788631       2.341899244195031
    96   4      8.2607416096990978    -0.13457786952831335      3.8205295995561412
    97   2      10.151144358946677      1.8437583186736612      6.0809532481283419
    98   3       10.12982334839462      2.3710401839889435      4.0778912442344835
    99   3      8.1646866834357184      2.2538658030344245      5.9949734873537981
   100   3      10.073112452827111   -0.013710070586095472      5.7546374026054217
   101   4      8.4303467154063814     -0.1946323892607979      8.3287893828424142
   102   1      10.181486143536882      1.9763377223714844      10.095196944752075
   103   3      10.040625876635934      1.7923186330706173      8.0343982479726428
   104   3      8.1070686406620922       2.100517759210669      10.147647244609493
   105   3      10.011291900438602   -0.019509956682195545      10.314396744837898
   106   4      8.4024074838264138      3.8699590199824154    -0.12560786092998616
   107   2      10.116379495878149      5.9230918264241739      2.0503038283596986
   108   3      10.084869741041846      6.3575469467916266    0.053633986077250645
   109   3       8.127764644428872      6.2357370678361335      2.0261371277247084
   110   3      10.100996975791157      4.0453241958575283      1.7440886649659597
   111   4      8.2806540264252337      3.8297199352051781      4.1633845279192432
   112   1      10.138156110726833      6.0256921887056203      6.0594832838306933
   113   3       10.14891673947068      5.7793992934925154      4.0086933507202565
   114   3      8.1031219976969986      5.9213691428368378      6.1660352027001553
   115   3      10.195805218384352      4.0135020813333373      6.3790058765053672
   116   4      8.3530094932469154      3.8454918282407164      7.8869262541842806
   117   2      10.131443098035923      5.8574531650156878      10.162566974845138
   118   3      10.174397571027752      6.3366082221415621       8.143268526056513
   119   3      8.1580971166998442      6.1139596768147264      9.9993974323123496
   120   3      10.233000163875213      4.0035470192101448      9.8844740022325279
   121   4      8.1076687252774153      7.7183728763270434     0.04980894050208072
   122   1      10.042351892038646      10.098835176468869      2.0048517839950422
   123   3       10.14253653547542      10.072681890538883   -0.036398930840892275
   124   3       8.032250845467896      10.168127588351974      2.2180242071413634
   125   3      10.065654341405342      8.0859650158254812      2.3928061896424784
   126   4      8.1623666627388154      7.9717257618244561      3.7657937454687822
   127   2      10.117830631349854      9.9306750487062985      6.0705673947007917
   128   3      10.093957893822939      10.454284817957655      4.1334941471082631
   129   3       8.147279075250875      10.384586741508267      6.0761125900930484
   130   3      10.054944250177538      8.0789855334723804      5.8615447334655926
   131   4      8.4028403842908634      7.8668534279951619      8.3392343182493036
   132   1      10.124111418355053      10.137825319684119       10.11037656602004
   133   3      10.014466197153332      10.078475380776055      8.0538095107959489
   134   3      8.0369580449049867      10.323761005991939       10.14845507137788
   135   3      9.9868600731305577      8.1112953071186435      10.301494218613582
   136   4    0.053045678682751535    -0.09167290013693051      11.797780136739062
   137   2       2.095200795033612      2.0437997245139767      14.053647703280474
   138   3      1.9081897118934699      2.0880479589864369      12.175304896163235
   139   3    0.024246323366780478      2.1310274161909257      14.313929052170828
   140   3      1.8291574430194164   0.0054307483366712195      14.261386642724565
   141   4    -0.08470740995638075    0.074692378024183187      15.852807016544658
   142   2      2.0182863167731164      1.9562015301264024      18.173514760259778
   143   3       1.988526885890026      1.9797840277843608      16.300207492658824
   144   3    0.013916190174212237      2.2271329217202163      18.390061329815882
   145   3      1.8903473295567903    0.063196788049123792       18.43058224019639
   146   4    -0.13468838729850932    -0.30127018132310768      20.292648270382628
   147   2       2.065478147544388      1.9792239419239512      22.272365203546403
   148   3      1.9677627725795843      2.2234473716639744      20.379329717514189
   149   3    0.021646548621251992      2.2732107608685777      22.423593176452886
   150   3      1.9688074854880853     0.11469750984619002      22.382910686613425
   151   4   -0.037320630587502623      3.6778795134467908      12.001487688875777
   152   1      1.9834165120850293      6.0128701427891809      14.105318142297859
   153   3      2.0378216656044623      6.1010609665604081      12.089289403394083
   154   3   -0.055342625926138311      5.9799622845175184      14.401570456096016
   155   3      2.0794278054857882      3.9711261780967959      14.374416284182804
   156   4  -0.0015149303120674553      3.9555787397467062      15.818972227091384
   157   2      2.0302233389589071      6.0995863823373213       18.07726615722277
   158   3      2.0774748039330757      6.1614203308419668      16.220453838609945
   159   3    0.016558123369214348      6.1342149167748978      18.353427616536219
   160   3      2.0224772936856863      4.0989011191663201      18.364412436878208
   161   4     0.05704843853256425       3.951751489613057      20.044340348993789
   162   2       2.065285893160715      6.0581907425121164      22.242672375996246
   163   3      1.9648034790710696      6.0782371677628522      20.370751339682851
   164   3    0.038966522266394119      6.2248510038150826       22.50992904096568
   165   3       2.020067952393708      4.1721199665353996      22.520139182973516
   166   4    -0.37932956431216119      8.2480638499548391        12.0367266078303
   167   2      2.0116581805915779      10.012573958516695      14.142893762855183
   168   3      2.0557829677488493       10.29879628934833       12.11392496698441
   169   3    0.046339630645815817      10.318005034217032       14.19145075119931
   170   3       1.854218566918463      8.1193445486340448      14.138894115484694
   171   4   -0.028729761770251858      7.9616484179889015      15.814114670808562
   172   1      2.0303884449519627      10.076210589600342      18.145089658694619
   173   3      2.0859327489971267      10.188947073001255       16.11910272854842
   174   3   -0.032122884482050126      10.195871711765154      18.389056389562221
   175   3      1.9783792784098095      8.0540283784071711      18.432274579638431
   176   4    0.077126481929133475      8.1724729426259977      19.907884083969076
   177   2       2.003972578022462      10.139882590339756      22.177169816583159
   178   3      2.0281126718687341      10.225403804458409       20.31716535496545
   179   3    0.051809909038820941      10.229469445254145      22.468436794391181
   180   3      1.9607619153720914      8.1796454053074115      22.381891312626927
   181   4      4.1276598406156024    0.039818779838533276      11.740695493145161
   182   1      6.0856337424832168      1.9927498042077483      14.123644245298749
   183   3      6.1080942897123416      2.2093277658705746      12.100575316941169
   184   3      3.9923862402492007      1.8962780861742463      14.245653290075246
   185   3      6.0847052240459174   -0.044860791828089767      14.214903558135942
   186   4       4.343946363706495   -0.059688264033867185      16.007116524244712
   187   2      6.1048531835973234      2.0604783524040928      18.117556414495226
   188   3      6.0310312770321506      1.9387787968651817      16.243673784280219
   189   3      3.9676070069759479        2.01644733907218      18.386637999080669
   190   3      6.0232626656287076    0.098922355052076014      18.477854013152932
   191   4      4.2318531551188441    -0.20972083560983093       20.08122259413906
   192   2      6.0756198597099971      1.9867046005858915      22.238443959232786
   193   3      5.9177427103723836      2.2289087595741019      20.351804967588244
   194   3      3.9972524140320425      2.1522366041380478       22.47249672028655
   195   3      6.0116791117563704    0.092644680171375837      22.239276801874116
   196   4      4.3482830070267733      3.8258807582636809      11.926648278968486
   197   2      6.1767536562335286      6.0187507973392833      14.107662884102661
   198   3      5.9636810455182072      6.0205483379646223      12.153810078910901
   199   3      4.0259432477040145      6.2368974477145827      14.152825327650961
   200   3      5.8572186196518379      4.0619838036195297       14.23903716655553
   201   4      4.1846378544522205      4.1469170468569638      15.877583232192736
   202   1       6.051665470866765      6.0409743744498723      18.158214922225476
   203   3      5.8385228655280956      6.1018837602699687      16.140711322846077
   204   3      3.9640045069498897      6.1404272939102995      18.406413039620581
   205   3      5.8437508165258842      4.0019589392992794      18.259117285935329
   206   4      4.1695718671149384      4.1216890774249944      19.939965247891859
   207   2       6.139160248397534      6.0090732516253711      22.258129405929079
   208   3      5.9528850780479976      6.0150293294918526      20.364172031779152
   209   3      3.9979693770353828      6.2494540926105255      22.467068423164758
   210   3      5.9117952040733579      4.1054867848363994      22.513586737876402
   211   4      4.1118098556362552      7.6529443186611781      12.183909086331276
   212   1      6.0882971876844101      10.057297572306984      14.089673367204165
   213   3      6.0455214920249745      10.349834811925035      12.070392846045815
   214   3      4.0118679726248443       10.15668382925376      14.097407574920528
   215   3      6.1188355124065241      8.0271942630544615      14.178329713935492
   216   4      4.2391440076741373      7.8514393073491888      15.867760053166835
   217   2      6.0495221645186446      10.143390219119787      18.007954943059545
   218   3      6.0684554097452779       10.09471322671641      16.150602813702164
   219   3      4.0909187681984207      10.082964792030385      18.414238383562196
   220   3      6.0479844266352636       8.160248651797648      18.427696373116394
   221   4      4.1024200925368106      8.0635639472828959      19.865489450716748
   222   2      6.0302418662841966      10.065777254518785      22.270814459441851
   223   3       6.027239891532842      10.306519555118117      20.377804322503312
   224   3       4.046431041755814       10.19898171274899      22.399545949764175
   225   3      6.0622149447101208       8.153636107724612      22.258305919197866
   226   4      8.3771046151493778    -0.20617832713889162      11.976344045897491
   227   2      10.209649610748539      1.9234815484503029      14.171432510228795
   228   3      10.117087463267181       2.249916994093951      12.211775287430441
   229   3       8.125979515374345       2.291251517871415       14.13442303872996
   230   3      9.9003356151828381    0.015442882725091372      14.050025703515562
   231   4       8.361776135456525   -0.047843931020204039      16.039930231318422
   232   1      10.083001393773733      1.9769698881343001      18.207519784349618
   233   3      9.8908653291134563      1.8306359432582249       16.17212596674187
   234   3       8.001092452688539      2.1173351672396405      18.447140976631687
   235   3      10.007910062140651   -0.029050057502940058      18.567971679778932
   236   4      8.1109302579361184    -0.11606439954000725      19.996599249266247
   237   2       10.24558053391125      1.9182987895981141      22.275676190906019
   238   3      10.088637190254136      2.4154099867849443      20.331358644820927
   239   3       7.998397861103304      2.2288324429290176      22.229163741250247
   240   3      10.012223018189559    0.046339660870709912       22.01485954067153
   241   4      8.1451145992259431      3.6617449164369789      12.180586114343996
   242   1      10.139073860464705      6.0154604496963264      14.134878404315613
   243   3      10.026028443559571      5.9829232233746401      12.098021251538617
   244   3      8.0818818475698322      5.9262341001913699      14.264287428308167
   245   3      10.202973216919199      4.0139179232172717      14.528003952158242
   246   4      8.2793518600537048      3.8509946521640628      15.898729677572163
   247   2      10.006392572448206      6.0019082823583467      18.138693203152627
   248   3      10.082664810520967      6.3872710135071626      16.226694633686773
   249   3      8.0837708866585345      6.0906999342270751      18.340457144777805
   250   3      10.152530418152926      4.0708980498186582      18.080680825199543
   251   4      8.2270226141160308      3.9022013504699009      20.114583673495094
   252   1      10.083838907759263      6.0428575994048588      22.245673867008286
   253   3      10.267044709922187      5.8284483752025187      20.210445517631804
   254   3      8.0306083641846122      6.0624641254351284      22.400456235596199
   255   3      10.142924006419193      4.0229928717109527      22.600921908100805
   256   4      8.3612015372161377       7.844437714874303      12.012648763527686
   257   2      10.197272943489772      10.026456367473294      14.168531903084681
   258   3      10.091259317046076      10.363799305974458      12.199058911508944
   259   3      8.1065524231458976      10.376931045776429      14.101156644689304
   260   3      9.8597826692669788      8.1145527182556432      14.003701721055272
   261   4      8.2382406124502339      8.0236892706376679      15.909288752579029
   262   1      10.051346724731964      10.056398096694263      18.185406441323689
   263   3      9.8535408787188512      9.9215396827389437      16.145493255192289
   264   3      7.9870606489610214      10.124352097119974      18.438071563931516
   265   3      10.017104168655889      8.0535604431605492      18.561864596002817
   266   4      8.0123889498059917      8.0280596992502851      19.883614033967216
   267   2      10.108676798493502       9.959142027254769      22.311779527747941
   268   3      10.018638936659416      10.440275313432057      20.323324024480723
   269   3      8.0459901595646173      10.298056550317284      22.331052369695612
   270   3      10.050972563846763      8.0994949765541762      22.066433324819798
   271   4     0.02311730355537513      12.253293925644314    -0.29726284772756795
   272   2      1.9430915530811572      14.086473364611745      2.1102162070000188
   273   3      2.1079655261750956      14.305861268431974     0.17227965352831501
   274   3    0.069499320701392572      14.165570570310699      2.1845473682135648
   275   3      2.1884795459951167      12.204172643229448      2.0821276946981655
   276   4    -0.14823383014299685      12.000337779141571      4.1188477463295134
   277   2      1.9507238016225141      14.163795748399128      6.1560203995146052
   278   3      2.2911482615101124      14.226317841354698      4.1054697979902635
   279   3    0.069647575761056235      14.170744991000531      6.0419046990754115
   280   3      2.2385942301464534      12.278749810368931      6.2062071417943079
   281   4    -0.37904842541555667      12.076139975330308      8.2762404975959107
   282   2      2.0065351949886097      14.093002700813779      10.190478626360392
   283   3      2.1845719837072335      14.412012106342084      8.1067249091886922
   284   3     0.10280351917439276      14.257659604615995      10.116817464949435
   285   3      2.1569860186970038      12.229900190485663      10.083924285709983
   286   4    0.014043045013729596      16.018063762725227    -0.24351254423635557
   287   2      2.0432111452159196      18.109507667769275      2.0670133552365968
   288   3      2.0688313245985248       18.32703060516868    0.041563826052954431
   289   3    0.026765495950791713      18.407303623493409      1.9399438290828148
   290   3      2.0641907098696337      16.220139755197227       2.106454907470924
   291   4   -0.099073286681250025      16.320465787819487       4.463925424631892
   292   1      2.1035330946088915      18.231243762575293      6.0753257769577491
   293   3      1.9597300835380576      18.355465090865167      3.9867634863665464
   294   3    0.016308172890962452      18.383292192285079        6.03946745797586
   295   3      2.0265272141732993      16.194410352658746       5.911468528704547
   296   4     -0.3483973929362002      16.141572528512128       8.139650961837555
   297   2      2.0757399717248806      18.198538754112665      9.9971693587471933
   298   3       2.039511999519807      18.346707288780692      8.1304052112319489
   299   3    0.082816521794931333      18.440261517311608      10.140753095958834
   300   3      1.9739110557797299      16.310336367670931      10.164789778393764
   301   4   -0.032501518351467633      19.913791412526539   -0.055242148548481272
   302   2      2.0490854227311188       22.17171486423852      1.9689206762220637
   303   3      1.9178069997703608       22.46716599169531    0.053264196609725797
   304   3   -0.026825649585059282       22.39964851282425      2.0971255304086522
   305   3      2.0335533105477399      20.311784298233835      1.9865823389520088
   306   4    0.013683047098763064       19.84430077876263      4.2133086787680014
   307   2      2.0830419908543458      22.160468116673659      5.9579777093466975
   308   3      1.9309665864482459      22.363056785372905      4.0336591262669979
   309   3   -0.026479104363983461      22.298668975272872      6.0740731877659302
   310   3      2.0494371332700783      20.311321609863384      6.0960488956264394
   311   4    -0.01610923992610324       19.84624757624124      7.8400366930018226
   312   2      2.0278741926151698        22.2993704967047      9.9539044549085816
   313   3      1.9467904337693467      22.407103016219622       8.056655605918575
   314   3    0.043941053729125858      22.288244577741509      10.219022563819619
   315   3      2.0815780391461174      20.333209353755738      10.234562776386072
   316   4      3.9371503812066924      12.217044263764322    -0.27235175655328359
   317   2      5.9963483848909753      14.146068105484968      2.0218910975447417
   318   3      6.2326351184138975        14.2648888278001    0.096335027039489582
   319   3      4.1212779755792823      14.372085235576813      2.0268268448327293
   320   3      6.0335652670407693      12.199938766321965      2.0400405777476207
   321   4      4.1267761688001672      11.828955625727911      4.1602977660743985
   322   2       6.117839047255849      14.140501699463018      6.0665914080266781
   323   3      6.0961955805570458      14.253051057490302        4.12407406874076
   324   3      4.1576686350420111      14.527925376077542      6.1489893408615925
   325   3      5.9746441313109164      12.279130245716324      6.2068896312047492
   326   4      4.1611061049235607      11.840150465388277      7.9940363468214217
   327   2      6.1250728159840344      14.130722322433316      10.114652464982036
   328   3       6.023899300944219      14.406192468621153      8.1323010427106457
   329   3      4.0813703202799365      14.502289918806834      10.099458328478697
   330   3      5.9447415470338854      12.270953239559651      10.094764415521501
   331   4      3.8843547310452973      15.956824544660556    -0.17376430242466073
   332   1      6.0358432478360582      18.149191831709846      2.0617894242134538
   333   3      6.1609283337249199       18.24188299326546   0.0012315946001603465
   334   3      3.9955211690957566      18.341643700881118      2.0512682613884472
   335   3      6.3628655131324159       16.15092290318217      2.0824159307726071
   336   4      3.8167315502954482      16.152945251227951      4.2985996122103662
   337   2      6.0765811014400466      18.160057681954903      6.0534733569828063
   338   3      6.1356280315436074       18.46208878994435      4.1067303959420762
   339   3      4.1578905973490405      18.095931446809896      6.0299248098755083
   340   3       6.329247989022595      16.293260338449908      6.0793308844107603
   341   4      4.0324315914660067      16.013240114883374      8.1137959922667768
   342   2      6.1594330395411818      18.246067567657736      10.091232005593367
   343   3      6.0474954707028834      18.382842410227148      8.1208474156318449
   344   3      4.0281441964034901        18.2750733132603      10.255060486010652
   345   3      6.1435882629473317      16.329317374768941      10.186813948995045
   346   4      4.3273298841868169      19.863425124035672     0.12135827932476079
   347   1      6.1051071035340669      22.291029160731622      2.0092947066740661
   348   3       6.070476492253718      22.532205256409537   -0.033526833605580161
   349   3      3.9451593997274652      22.450219185575939      2.0051978325821422
   350   3      5.9868010944518035      20.283260892247139      1.9327586863329786
   351   4      4.4205385610678052      20.173717770492242      3.7976638244885565
   352   2      6.2753765549349829      22.281013843794483      6.0479393758531783
   353   3      5.9033345749420407      22.256211332843254      4.1064368964418172
   354   3      3.9467803052032369      22.459358143052938      6.0938168215244453
   355   3       5.873311073380556      20.324567743874294       6.165739805553538
   356   4      4.4007227607708961      20.359826795130225      8.0921940523926406
   357   1      6.1412936086492103      22.277302598108683      10.097122235673146
   358   3      5.8825710096685508      22.335722984701931      8.0332907635580337
   359   3      3.9751967181973207      22.374436884848159      10.248468126316652
   360   3      5.8218044591896332      20.265284243609141      10.091349485905019
   361   4      8.1323282987420793      12.221111134103229    -0.38063930043270811
   362   2        10.0424228432842      14.139973199151154      1.9219322396881955
   363   3      10.125915593397616      14.352725953536233    0.036904051866200223
   364   3      8.1385048905630324      14.107329175653961      2.2406473988889686
   365   3      10.338431622588784      12.214851390246013      1.9576762316457601
   366   4      8.0173693134952302      11.790951142939303       4.086479289034652
   367   2      10.081423441963276      14.157981985302003      6.0526206051127902
   368   3      10.291445715989793      14.044762443363721      4.1282764991755156
   369   3      8.1321354621577395      14.147313325283113      6.1484004871593356
   370   3      10.256271179091863      12.268228908707668      6.3175713473899675
   371   4       8.152464171182741      11.756307503620514      8.0793708265950244
   372   2      10.219974366869373      14.100665143320711      10.210091519859105
   373   3       10.14121945530742      14.507298529989802      8.1049476012267991
   374   3       8.064005745633219      14.211249560551536      10.066030827727984
   375   3      10.201376733221739      12.225007374162772      9.9658268571178805
   376   4      7.6569711342305702       16.36910600295462   0.0014503673804856915
   377   1      10.131185900103452      18.178233290294664      1.9848211703598264
   378   3      10.200907438767892      18.150734307407419   -0.064955018564825509
   379   3      8.1272243680043719      18.381185303557835      2.1037558947241806
   380   3      10.037628489286586      16.156430681812413      2.3396780001696502
   381   4      8.0792886722210575      16.292682810346349      3.7043888436577785
   382   2      10.246428556671987      18.177858627307838      6.0672846710622723
   383   3      10.138986625841374      18.531077643244032      4.1081904241107905
   384   3      8.0959048715359749      18.566990184910857      6.0616706017794275
   385   3      9.9840503526874471      16.243747797769938      5.9166092520400397
   386   4      8.4243912127478335      16.197644940617923      8.3058845810280779
   387   1      10.183103893452957      18.211423671829468      10.124358229814959
   388   3      9.9406627410394854      18.118462612013396      8.0598862546237182
   389   3      8.0404077915498569      18.474139107709629      10.185714348276505
   390   3      9.8925063650708971      16.204433781142662      10.244955164629637
   391   4      7.7755120695283928      19.915663431671938     0.33129651774006408
   392   2      10.116260623252147      22.188243239347436      1.9621752347064636
   393   3      10.128270426030792      22.567730902170876   0.0059998109709806244
   394   3      8.1704090199017223       22.33287041894005      2.0790796338281785
   395   3       10.38198780345847       20.27291468173447      1.8632227762574558
   396   4      8.0880776222249064      19.935073187073755      3.8619814269911958
   397   1      10.180682600992563       22.23878831629591      6.0307084316889821
   398   3      10.359071089706307      22.091077272370846      3.9743179716265393
   399   3      8.1302282717576482      22.214895708409038      6.0873918950513444
   400   3      10.300444963451612      20.228203216846428      6.3523592215558686
   401   4      8.4598202609584643      20.120129678602261      7.9604753030260333
   402   2      10.231092793656083      22.171356342747828      10.153468980899572
   403   3      10.182722816405985      22.543873313141873      8.1359442718542052
   404   3      8.1745654920338264      22.320813931702141      10.079994086832107
   405   3      10.178846208273349      20.265552439126708      9.9878312434953038
   406   4    -0.31506794200649763      11.912458256218143      11.942268976445726
   407   1      2.0336260282497753       14.18931563280875      14.107999218617882
   408   3      2.1668617553623966       14.33132943085657      12.082056315850387
   409   3   -0.022131833839643875       14.15971989128122      14.325773525556844
   410   3      2.1397443576547217      12.178625873823814      14.319660595351637
   411   4     0.18670652242361388      12.091901719089217      15.780047265068061
   412   2      2.0429177200490547      14.040136387367989      18.203707173627926
   413   3       2.060325400181827      14.359943326082124      16.254007676568271
   414   3    0.059696842620840893      14.150355121765413      18.302317546917269
   415   3      2.1585047242545574      12.156452922706061      18.214434962192726
   416   4    -0.11172650903489441      12.093028776989176      19.894023287729166
   417   1      2.0400491972225732      14.137412795759985      22.208966604064557
   418   3      2.0782437665684368      14.324658539014834      20.189838233021568
   419   3  -0.0038882082684082702       14.19685244713593      22.474804090604486
   420   3      2.0723475820355399      12.117725798632886      22.533628468103544
   421   4     -0.1938396325379575      16.028141890928087      11.926008959592561
   422   2      2.0521436445172947      18.212024540243203      14.065559569368578
   423   3      1.9389716751025685       18.38295782620159      12.200374720086614
   424   3    0.019277005284741938       18.44848433652491      14.369637742689816
   425   3      1.8910844350178619      16.340446901459956      14.250694641658539
   426   4    0.024900254963711628      15.864940216034984      15.998630374473954
   427   2      2.0318244171257156      18.204759144959983      18.136167320209545
   428   3      2.0310757584285404      18.344274457765803       16.27443378024698
   429   3   0.0055036152278307654       18.46824936421396      18.311204485751158
   430   3      1.8664008609368148      16.307962868045824      18.312764616797047
   431   4    0.043106480753392941      15.888971268659194      20.055457978533308
   432   2      2.1075207130124873      18.124397605370351      22.224765898082506
   433   3      1.8462075513283553      18.304616682264285      20.336546907913082
   434   3    0.041611173180048561      18.173524325773279      22.557258464449188
   435   3      2.0418191802374936      16.221617846423563      22.437888579400536
   436   4   -0.053412257326949944      20.257356698359448      11.743686106489974
   437   2      2.0507337132926855      22.277560837460999      14.080509096261911
   438   3      1.9251155943017308      22.291971171547743      12.208973548763893
   439   3   -0.017633158547473639      22.271532224264888       14.36108997984535
   440   3       1.984619768320957      20.351158140184111      14.368397327908486
   441   4   -0.024107387329839674      20.254742692965472      15.924668837096796
   442   2      2.0250911171421042      22.251682750700123       18.16300045125627
   443   3      1.9447516555255424      22.383189477261002      16.289592924510682
   444   3  0.00054071177927166752      22.313264246841726      18.487952254209919
   445   3      2.0292046417503959      20.330015280082694      18.399647367560874
   446   4   -0.068550618284791962      20.094573708562528      20.144083352638052
   447   2       2.046910117222299      22.163758380057953      22.253924606385191
   448   3      2.0288204788520687      22.392207979166312      20.360205721221522
   449   3    0.073386731545310085      22.472090804744642      22.343311968353792
   450   3       1.947907556850766       20.28553953472376      22.395208473397719
   451   4      4.0996320784737721      11.820298429323852      12.228863289448151
   452   2      6.0938138146463796      14.083815170426242      14.204900180121129
   453   3      6.0109576867766643      14.318885648835884      12.126903278168053
   454   3      4.0973863374567738      14.480343308142896      14.158817314425086
   455   3      5.9075018468229219      12.215065630797069      14.180708756277486
   456   4      3.8629083098632204      11.906882541196143      15.905234308489574
   457   1       6.087988102427766      14.135294092619953      18.143563509220083
   458   3       6.018267892325639      14.403526372477788      16.127312366816696
   459   3      4.0092696378746249      14.433018855628717      18.210618825883238
   460   3      5.9540771931382741      12.094457435345177      18.297778678237517
   461   4      4.1242929257778425      11.983137597416507      19.910624916302481
   462   2      6.0887953786462177      14.202725229170371      22.154032244831274
   463   3      5.9109741685850565      14.173479678217372      20.272846125254997
   464   3      4.1032898496314614      14.182047112117264      22.551742026539898
   465   3      6.0010768405431305      12.163038284913799      22.543058685555778
   466   4      4.0363442015777862      15.919239720047072      12.175020257081203
   467   2      6.0867642815564791      18.228848726721928      14.121123414444094
   468   3      6.0603617985043003      18.482856571998681      12.188930571782743
   469   3      4.0052226915374227      18.257917376225677      14.207286180821377
   470   3      6.1518989113591349      16.331351313852682      14.100315588387495
   471   4      4.0477678692816603      15.875166720124746      16.112304942422995
   472   2      6.1576701016539488      18.207591294410076      18.187817436845229
   473   3      5.9361199774145321      18.251818417214036      16.236892282505803
   474   3      3.9664280732885522      18.204679247077401      18.433536906173128
   475   3      6.0673811240324529      16.304318460077468       18.43738383008343
   476   4      4.1249449624425605      15.974146815434803      19.993342743584172
   477   1      6.0368644460252474      18.188367879950238      22.230705906398626
   478   3      6.0902483752871941      18.505812563561847      20.210333414382845
   479   3      3.9941102240680633      18.273845486651272      22.289471727336036
   480   3      6.1204606920858833      16.137906679201667      22.362233798028168
   481   4      4.2457960103557033      20.382106926177354      11.857388398517434
   482   2      6.1874811681016872      22.344828020955731      14.113790980368483
   483   3      6.0299434053229239       22.15062928921617      12.212763548293269
   484   3        3.96521126392628      22.408913302960453      14.246758448293393
   485   3      5.8974052510323682      20.297285882628451      14.370163456852168
   486   4      4.3772723148323633      20.398207310396597      16.198640501528928
   487   1        6.07139386918052      22.284845027488359      18.216776618341278
   488   3       5.864004402765695      22.347559475838263      16.184707191753066
   489   3      3.9279986132710696       22.47315737561409      18.337315910002964
   490   3      5.7844660409988737      20.244076251890945      18.188418411909183
   491   4      4.3457662061483102      20.154799029762678      20.103335873204205
   492   2      6.1573960195288526      22.171723058485277      22.309342802691816
   493   3      5.8472337635688305      22.287768388253543      20.357430246297906
   494   3      3.9837186680132404      22.455319379932575      22.462596690030928
   495   3      5.9970113451454319      20.299712129654985      22.382996329602893
   496   4      8.1518087640424479      11.791722288855475      12.177520219376772
   497   1       10.14788782048196      14.151180668521016       14.14796710788954
   498   3      10.004378660139219      14.166098758854291      12.111699145315631
   499   3      8.0381626985800132      14.205919374368991      14.226163519357193
   500   3      10.164743212103041      12.120592228257218      14.483482656146409
   501   4      8.2973416090383338       11.90640024430428      15.905168956760326
   502   2      10.087650396620662      13.993686596363416      18.188016836570686
   503   3      10.059215555226363      14.461198485828277      16.255770813632502
   504   3       8.130052793977038      14.307692921667241      18.322006654959296
   505   3      10.053102879220441      12.127350033091739      18.055206306537581
   506   4       8.108275054313447      11.892318259484286      20.052218508902378
   507   1      10.064721989118793      14.217170998622986      22.225430299520589
   508   3      10.208482410265713      14.069199025924696      20.175347872660328
   509   3      8.0279989322472787      14.020013622225594      22.255237461053056
   510   3      10.176704019750519      12.169261711131195      22.477885458663827
   511   4      8.4125513935239322      16.057389934086178      12.138668443185274
   512   2       10.24486689991036      18.227662432018583      14.122404799218588
   513   3      9.9679050545927304      18.432182994200286        12.2329957578378
   514   3      8.0100248367226303      18.484112517442377      14.290867397072581
   515   3      9.8830429838817437      16.300090959801274      14.099891661134009
   516   4      8.2315762587060508      15.927349793949288      16.014702556581124
   517   2      10.212582674414991      18.186982467733365      18.166193509280347
   518   3      10.008256144138391      18.069839505990412      16.253891071957149
   519   3      8.0839412254713956      18.380527905900287      18.296424119211366
   520   3      10.007186640589705      16.298127609758442      18.503567097833809
   521   4      8.1414043412898955      15.928461386692685      20.075106394833103
   522   2      10.018197078564679      18.123943724382112      22.334779822156506
   523   3      10.093371205807777       18.55926897643484      20.204081470715046
   524   3      8.1310802178141053      18.370599919509655      22.185839310018327
   525   3      10.090261457630163      16.260186011880911      22.019015514359861
   526   4      8.3107174749491914      20.204706999629924      11.964500954524881
   527   1      10.194934218309257      22.245267369302262      14.143501913861586
   528   3      10.024551693632315      22.161118058992773      12.119565422342403
   529   3      8.0739025464720608      22.149941226762369      14.294440478578347
   530   3      10.125935691194666      20.210341699448918      14.519607862791663
   531   4      8.2671254771484737      20.290599386392646      15.952014476362011
   532   2      10.045783459649808      22.219068487969921      18.225615088964457
   533   3      10.057659762942761      22.567949409801304      16.266987653131263
   534   3      8.1134869766346327      22.299526744731885      18.392441043938319
   535   3      10.178094941564709      20.262773315992114       18.03448281338834
   536   4      8.0427596429728077      19.989536194466432      20.342330947432181
   537   1      10.088867434096853      22.233958877276976      22.247348871292481
   538   3      10.339381442084559       22.10599870965893      20.216298757650222
   539   3       8.040990067389199      22.363546944332029      22.234955197459893
   540   3      10.384598034832324      20.213138540136217      22.331434868449367
   541   4       12.20196596849005    -0.31716028942062507   -0.040608300208024591
   542   2      14.019073434909872       2.063518391668079      1.9407804641369859
   543   3      14.353281504124721      1.9520359977657584    0.033089646510851875
   544   3      12.146921002022726      2.0093740454356932      2.0792154377183532
   545   3      14.340151015371541    0.096464724462628021      2.1434847822790268
   546   4      11.994562721355761    -0.22295520597948687      3.7656098679653147
   547   1      14.160654159990676      1.9738655712060225      6.0168217135956255
   548   3      14.317155996911982      2.1754534936969532      3.9835526376663051
   549   3      12.114068643415816      2.1459806910754082      6.0220081091168192
   550   3      14.432759824371059   -0.048145353710902457       5.936686468185286
   551   4      12.255119536245799    -0.35519383312431374      8.0250096783205045
   552   2      14.208443718800867      2.0636094388968864       9.955490558103584
   553   3      14.252119457793704      1.8238292745698832      8.0844966995527248
   554   3      12.228144635952335      1.9201014931698002      10.310573278023663
   555   3      14.250619105906356    0.044688683547767886      10.428680553241318
   556   4      12.144390132493232      4.0773950812366273     -0.3571574325254202
   557   1      14.133796620692728      6.0575774467122381      2.0023764844773124
   558   3      14.130159774224367      6.3285034617574638  -0.0089703880384627548
   559   3      12.085890559126829      6.2875652184247457      2.0021163627987582
   560   3      14.303057445203924      4.0207091208795207      1.9426979172640557
   561   4      11.998035646212335      3.7656625656718163      4.0907419965302072
   562   2      14.098493004794046      6.0764853852783398       5.972156816630811
   563   3       14.29428235050333      5.9698312363226984       4.063350012348212
   564   3      12.178003236223057       6.104570561103654      6.1436866491596493
   565   3      14.161291050443889      4.0933827228476032      6.2931935805623072
   566   4      12.109351025038666      3.9224372798384119      7.7743534337158433
   567   1      14.145372354424902      6.0279309830864811      10.117562264762968
   568   3      14.123053750014364      6.3781308056733641      8.0841217450126628
   569   3      12.089572221278219      6.2891211816641333      10.130911611331934
   570   3      14.150724610878985      3.9986265394735483       9.995645966932404
   571   4      12.090583631117648      7.7146035063944485   -0.051708929498083374
   572   2      13.995053831970003      10.100623301560463      1.9961943712152559
   573   3      14.277609614080488      10.025621338199622    0.065250099109559132
   574   3      12.119330301049253      10.073852176830639      2.1656432275333604
   575   3      14.283690875640167      8.1587057276395214       2.227786462327209
   576   4      11.941998516509916      7.9503694911844853      3.7674331383687925
   577   1      14.093685507639728      10.097800927760375      6.0182607325952748
   578   3      14.350581569719653      10.257108407232272      3.9987636748263928
   579   3      12.059094417996821      10.234023755709797      6.0990091462942564
   580   3       14.38011503004496      8.0684198862134995      5.9209873203134755
   581   4      12.126696429102758      7.7282257909027976      8.1067142777875798
   582   2      14.180188453131269      10.094140933977776      9.9759924152984691
   583   3      14.141183582921919      9.9301025237321667      8.0892996359916403
   584   3      12.180215077719632      10.082814223106814      10.293429465834421
   585   3      14.151270635295628      8.1322641161990958      10.450841322937363
   586   4       15.85471131528592   -0.066302207210990588    -0.12519487277037197
   587   2      18.200884116187481      1.9680963321402443      1.9866584329074497
   588   3      18.335791092790654       2.182959663741276    0.043148054786628164
   589   3      16.313219287503014      2.1446688303074715      2.1023028027526651
   590   3      18.281602935034243     0.07458546494429974      2.0859070153281838
   591   4       15.84992568258409     0.04228844427891814       3.922615413547947
   592   2      18.120871080999247      1.9590937668483916      6.1058710337228232
   593   3      18.352001414867875      2.2022543486014934      4.0324801124899565
   594   3      16.245677680268347       2.244105107342369      6.0535238226670005
   595   3      18.182910830754754    0.059719230856605819      5.9517590318433662
   596   4      15.979353169079554    -0.27131054883558964        7.86273710946862
   597   1      18.181778191496079      2.0026817185110821      10.065054450958462
   598   3      18.339224630637165      2.0766574862376439      8.0266568434366885
   599   3      16.165276299949721      2.0326557899552409      10.356391164841877
   600   3      18.175297397982042   -0.022514403037237334      10.327048354000459
   601   4      15.889218069280368      4.0627476856318241     -0.1936614747565942
   602   2       18.10594093756611      6.0579706132134445      2.0263671388079878
   603   3       18.44046550177378      6.1656135624766755    0.087096601815424612
   604   3      16.248649281650152       6.130663815234902      2.0034540999681241
   605   3       18.39998826519869      4.1286616500455517      2.0521106420402768
   606   4      15.883544274030941       3.940280433805754      3.9042907294185674
   607   1      18.174056986216858      6.0753441489002178      6.0616453164841202
   608   3      18.380306912704405       6.105613964454089      4.0116819361568918
   609   3      16.160960007530839      5.9944982019987307      6.3241742441606066
   610   3      18.463960500955285      4.0466415340383195      6.1125883902450138
   611   4      16.027621583360531      4.0876092216066171      7.7694153941613253
   612   2      18.069418026965216      6.0799096172636906      10.084256013940481
   613   3      18.427925683484986      6.1105269450306317      8.1591543203019956
   614   3      16.213315592180955      6.1277453295969124      10.077957435688052
   615   3      18.420143102140564      4.1247508733431522      10.134156250593136
   616   4       15.84004193343964      7.9486660864031338    -0.14598027628081964
   617   2      18.177291836359007      10.118176073121747      1.9903023187370543
   618   3      18.370661688310506      10.130587549635191     0.07238413104197626
   619   3       16.28431030610091      10.202071495117687      2.0400643953644684
   620   3      18.310915502644562      8.1548100017554059      2.1296050806914106
   621   4      15.843285549464454       8.122915186508024      3.9932252218580295
   622   2      18.052117204924542      10.163169502419576      6.1085261433304119
   623   3      18.314203438606405      10.206296799155417      4.0680788138481763
   624   3      16.185905740833164      10.282406175931516      6.1529417563767108
   625   3      18.286768271762401      8.1741368078749641       6.055007652579941
   626   4      15.918446628305551      7.8790022401193367      7.8663566096745692
   627   1      18.139534210597358      10.064131880412548      10.074570229919862
   628   3        18.4335524696166       10.07671489219501      8.0345308084816125
   629   3      16.132549422334176       10.09220493012578      10.253429965346038
   630   3       18.40989251972557      8.0267203175299802      10.165013331805332
   631   4      20.269954227464627    -0.30444340483683036    -0.11184484281001655
   632   2      22.219130205509703      1.9893666843829474      2.0173808810011615
   633   3      22.409503260141406      2.2057974859704452     0.09176377043485931
   634   3      20.311536701024103      2.1116519195320023      2.0760697114599154
   635   3      22.406576043802815     0.12217221236016906      2.1112403068715397
   636   4      20.057043824243536    -0.28736479213166488      4.1161903813106751
   637   2      22.234280089749326      1.9563922034659824      6.0640587651176334
   638   3       22.37872360769941      2.2042947092102514      4.0809756607175913
   639   3      20.316335765104984        2.00935897319513      6.0246833662565225
   640   3      22.477144318913265    0.081078983236552035      6.0493443876957782
   641   4      20.104888907168551    -0.33064348224986556      8.1472131866934703
   642   2      22.213267434133339      1.9256238837238484      10.144132496037926
   643   3      22.365201717813413       2.103355396262359      8.0756832789606978
   644   3      20.294989177155063      2.0446247843440215      10.156184016479578
   645   3      22.448854806104354    0.046978764522801808      10.117106526034947
   646   4      19.994353782875592      4.1078346202592781     -0.1898388985017741
   647   2      22.243343329396144       6.049154079408865      1.9893645094922481
   648   3      22.369024665157525      6.2693491792129254     0.10005377825916122
   649   3       20.35699881644118      6.2883296585375543      2.1274564023753166
   650   3      22.306678663526913      4.1733737792381884      2.1231692369508757
   651   4      19.892318761603175      4.0550190741200502      4.1631621212179013
   652   2      22.242782475533566      5.9994747877880981      6.0214628515442419
   653   3      22.422032581007564      6.2564522503900557      4.1127893018887764
   654   3      20.362258053760314      6.3121494501584907      6.0682064401096536
   655   3      22.207157147516686      4.1282530364554271      6.1128268744456911
   656   4      19.872511331842663      3.9688833247656268      8.0520960343999537
   657   2       22.21552049527088      6.0323397182648666      10.011835524913227
   658   3      22.304744954635733        6.24809274947338      8.0993504488353576
   659   3      20.334939081242531       6.119313747610736      10.260406087716182
   660   3      22.319050608136138      4.1027981762915608      10.080254909710334
   661   4      20.026687636361796      7.9415128737092449    -0.18171407800654202
   662   2      22.230239649649249      10.104088493385555       2.007902311237614
   663   3      22.385086287379444      10.241574252150841     0.12146017908862917
   664   3      20.341394924888522      10.152842717404008      2.1732700988641125
   665   3      22.470693437382856      8.2102189547632918      2.1743715278713203
   666   4      19.920277875022737      7.9537316348485438      4.1486299285821984
   667   2      22.230736509849642      10.056641045217237      6.0891427359449279
   668   3      22.506866473523129        10.2288222904018       4.123247063292621
   669   3       20.33770144863955      10.116125422285211      6.0102177271581203
   670   3      22.485718005721019      8.1841436351146335      6.1556267125183721
   671   4       19.89180452821979       8.046119718089944      8.0070469158506707
   672   1      22.288910450470087      10.084397063535244      10.045325241906804
   673   3      22.302685460259049      10.340609794228072      8.0357774824541863
   674   3      20.256672567032822      10.184554668689991      10.183881447788712
   675   3      22.365884327198668      8.0562424408219737      10.265154295435195
   676   4      12.317554784718252  -0.0091227790481614914      11.805373756706324
   677   1      14.194630812913262       1.992992839609246      14.193216113140174
   678   3      14.158276942974473      2.3122341751664233       12.18646198920754
   679   3      12.130682348327111      2.0816713252856442      14.261651829384553
   680   3      14.332344418764587   -0.030750930624715827      14.091983208315209
   681   4      12.219796375626704    -0.38235847845132792      16.226312147096802
   682   2      13.998064204848287      2.0319413347209534      18.237525379207618
   683   3      14.410545385241905       1.938862148299455      16.279682521160158
   684   3      12.133727957913056      2.0039959799408806      18.235938228309326
   685   3      14.383871471513906    0.083091713877029058      18.328806785058553
   686   4      11.959008489299121    -0.31698493933173599      20.094571608775368
   687   1      14.160154509558236      2.0076154036337601      22.234809045121636
   688   3      14.327321194742346      2.1537079191804365      20.199138791416729
   689   3      12.122831571221806      2.0677890227162448      22.376402702173834
   690   3       14.43094694245106   -0.011181485984196916      22.199746514268714
   691   4      12.259063117150568      3.6783898804072872      12.015920423706465
   692   2      14.051365696759156      6.0911910326890606      14.091166874155432
   693   3      14.258306486973531      5.8906486629732528      12.205376089799666
   694   3      12.161186648862158      6.1792176039296143      14.300514112950637
   695   3      14.129331130738588      4.1328225186017766      14.499360087921611
   696   4       12.10583696595749      3.9543072253716702      15.936979368965424
   697   1      14.150084193503373      6.0773284199251894      18.186486579197521
   698   3      14.186431574874396      6.3903228998982913      16.172877691635065
   699   3      12.081435585812281      6.2705661490237281      18.184822766193019
   700   3      14.293078159862395      4.0124742511479736      18.141284978928791
   701   4      11.851877617210324      4.0507667242465661      20.077576927829885
   702   2      14.161866668851852       6.095703708438462      22.151194007756189
   703   3      14.179713412210125      5.9543286302958265      20.246544014466448
   704   3      12.163579309833242      6.0831763427680476      22.430178275230677
   705   3      14.125459159380469      4.0987768068545787      22.499832045472679
   706   4      12.071184350913379       8.045885654335029      11.749361969575316
   707   1      14.159940988394172      10.093083888450213      14.184135821401405
   708   3      14.207222241239716      10.374822890255579      12.164401843547695
   709   3      12.111115377771958      10.148979157951301      14.208232788336757
   710   3      14.432089615434073      8.0548425303792133      14.033081737536198
   711   4      12.169001345886874      7.7683109395420118      16.272991913610344
   712   2      13.953427471187494      10.154322344751082      18.207167221854611
   713   3      14.292705247760734      9.9564521025353585      16.277348963174031
   714   3      12.096040646783143      10.088688267503185      18.311658656757579
   715   3      14.291277170759944      8.1780424691038913      18.398934807926143
   716   4      11.858940510955353      7.8464736352951725      20.037430900816048
   717   1      14.103197614420413      10.104473953312743      22.244098649672932
   718   3      14.344653786622599      10.255141034467989      20.204099913754778
   719   3      12.057350213713699      10.239784678359023      22.213887158107173
   720   3      14.299984448938933      8.0830596520446214      22.165021750421783
   721   4      16.155148034101853    0.039392229981992696      11.798898821258689
   722   2      18.206141086060139      1.9260802618732977      14.107936021441413
   723   3      18.336546937133988      2.1859699991015766       12.21520971253894
   724   3      16.301278087581561       2.303953277933191       14.18126068309593
   725   3      18.236107788034442    0.047328806203728056      14.223904354945399
   726   4      15.835104500841506    -0.10049331678682318      16.234750702662268
   727   2      18.217171469357261      1.9468169282801826      18.191815196813408
   728   3      18.262293300070624      2.1406761043843723      16.278240039976065
   729   3      16.340214775055884      2.1732003831914368      18.352829984994724
   730   3      18.278406670980981    0.056705826813815932      18.307779961491907
   731   4      15.809448863573703   -0.062124874010974718      20.249817704826679
   732   2      18.141011823270834      2.0367126429439639      22.231392645077769
   733   3      18.388553160846548       2.181898242230512      20.300065392297906
   734   3      16.282620187500452       2.260040447978791      22.301186153694459
   735   3      18.230253733678275     0.11546467674914472       22.33337734315338
   736   4      15.977850250560556      3.7769166091064745      12.090565287022487
   737   2      18.157587651624159      6.0741707813810919      14.108496537181399
   738   3      18.274363948879735      6.0498509471392961      12.189796532254853
   739   3      16.270813062760375      5.9857422407862861      14.284410767732709
   740   3      18.468074411237183       4.144325719538009      14.276927040923063
   741   4      15.896054782636904      3.8916453021989912       16.10508360867745
   742   2      18.124783070743803      6.0428522875108586      18.185837121224502
   743   3      18.382952730728231      6.1649493879920625      16.259705018245917
   744   3      16.267817523517017      6.1103962696925098      18.268726663166152
   745   3      18.400655169697306      4.1179170986489728      18.326876776329332
   746   4      15.869706303470533       3.981193982657099      20.080167665658205
   747   1      18.140209611053393       6.104880655293476      22.261488184347904
   748   3      18.450122296672944      6.1088561385658249      20.226185123459935
   749   3      16.131089712782963      6.0214819644692614      22.446865992893517
   750   3      18.492001963740481      4.0685626681574085      22.327293969211745
   751   4      15.879324911891947      8.1935024768499378      12.046912146889483
   752   2      18.187933281840834      10.179059542481866       14.02545727679839
   753   3      18.250293111086275      10.089988547321678      12.157980792354882
   754   3      16.267932440263152      10.241416895955709      14.253171190547777
   755   3      18.249720956988156      8.0951828847529974      14.279787738512391
   756   4      15.838361176533434      8.0917895734240108      16.113858412192183
   757   2      18.211689071323487      10.095429424554125      18.151337139215279
   758   3      18.338160043048582      10.072048268949247      16.273512578275199
   759   3      16.317822626536099      10.134022583177259      18.329394247220531
   760   3      18.346264538884832      8.1387589992038887      18.392857632827688
   761   4      15.820181201771305      8.2327999420634317      20.146764542042103
   762   2      18.126146969788408      10.131665346983736      22.215587818157921
   763   3      18.320676848768375      10.197582733951407      20.323419615124486
   764   3      16.262703981578436       10.20967771808043      22.384064546293629
   765   3      18.363894719777552      8.2047446017026342      22.350145771377527
   766   4      20.026151428338654    -0.24997030082070268      11.868850646829383
   767   1      22.250921216864565      2.0141037232130956      14.120668289113157
   768   3      22.351662233136189      2.1721780331016989      12.084419985932424
   769   3      20.214442152507939      2.0301754395837652      14.400262808013137
   770   3      22.346167884481108   -0.034499900735397208      14.374032081540292
   771   4      20.272973077523389    -0.07341946282463517      15.859360522441785
   772   2      22.241338712207352      1.9886701510556255      18.176238765024852
   773   3       22.33201040088813      2.1146825430558054      16.308197050462194
   774   3      20.320204462114361      2.1112737123360881      18.303067593501158
   775   3      22.406790799033395     0.10258197602246415      18.339093827744424
   776   4      20.333689249324454    -0.34648851562658578      20.363039851869328
   777   2      22.264702805801328      2.0136647383515163      22.249273141077825
   778   3      22.369378497971169      2.1920775633022922      20.353980170833704
   779   3      20.352351641910744       2.113825848041035      22.427157367514639
   780   3        22.3962837752055     0.13837562067581796      22.400200285499643
   781   4      20.046426083890022      3.8456816116310053      11.916773241583764
   782   2      22.280488389529253      6.0263497409510975      14.011154959033879
   783   3      22.471342993906678      6.0535859951354922      12.127833848839998
   784   3      20.319492168668017      6.2384119509938749      14.248076037470117
   785   3      22.197104171397481      4.1156757550023002      14.348525369111192
   786   4      20.253869296390185      3.8899832495787452      15.909087325106741
   787   2      22.245364986659109      6.0613612842768587      18.137763122702456
   788   3      22.301542255882715      6.2152670455196768      16.260203365299105
   789   3      20.357455937951915      6.2328917744281034      18.356457257190812
   790   3       22.34144688212513      4.1479623296560053       18.35440186378009
   791   4      19.930840102509851       4.151106923495103      20.294103308195066
   792   2      22.318144283554851       6.076457652223147      22.215396124173086
   793   3       22.38095052677599      6.1992732174168808      20.336077422060448
   794   3      20.398210693777344       6.260682323146141      22.392076865756476
   795   3      22.325176791317595      4.1821871644506023      22.449192380823931
   796   4      20.206617739337521      8.3404930530449217      11.730428649031809
   797   1      22.274037165722763      10.091668780319349      14.140964047740868
   798   3      22.384613021836092      10.191443308165695      12.132913406656165
   799   3      20.226747835791471      10.056355718077093      14.320634523133064
   800   3      22.492205192845873      8.0502753281337824       14.18935585495726
   801   4      20.201785045999952      8.1262022929460134      15.824848532236453
   802   2      22.295234758488295      10.126256205072581      18.076737740580018
   803   3      22.289491272540694      10.125967631135254      16.219333697551335
   804   3      20.312219907042689       10.15246343322122      18.375657460852931
   805   3      22.413134603870613      8.1459194156705159       18.38062041007781
   806   4      20.005588806619219       7.926131048374085      20.203136941644651
   807   2      22.226675402388153       10.12800343441379      22.247421862419451
   808   3      22.379087759883269      10.178416811682958        20.3747881631616
   809   3      20.335058788788615      10.205528090124474      22.428606612795125
   810   3      22.419702236545213      8.1990552705452462      22.465599003593411
   811   4      11.800595289488742      11.944828621879379    -0.15214035818209434
   812   1      14.101958853028441      14.135049358257815      1.9929476375873092
   813   3      14.190380882298459      14.453684258425962   -0.055348615089474723
   814   3      12.093369532097842      14.457546710397242      2.0086551452158927
   815   3       14.26227592252191      12.086786016897619      1.9426543858262177
   816   4      11.868782799502426      11.969737479866982      3.9116812264835104
   817   2      14.124674543684403      14.205904171329507      5.9957866715888892
   818   3      14.234308500588282      14.006872455325908      4.0742299025266071
   819   3      12.139929813061528       14.36545468271018      6.2134415194810186
   820   3      14.087592704222052      12.205967734167585      6.3540944446959999
   821   4      12.141425907099359      11.873096382824828      7.8789479510161735
   822   1      14.157032063552936      14.139085721529337      10.107812297922402
   823   3      14.149968950769244      14.468950661990716      8.0915102314766614
   824   3      12.111743837793645      14.427548591709662       10.12336633452856
   825   3      14.185855111420475      12.087731729887286      9.9930570376323828
   826   4      12.085668334986249      15.916537930159533    0.028159643838323478
   827   2       14.08400258639975       18.32580741569625      2.0160204115580669
   828   3      14.256627259495295      18.069103368755936   -0.021743207289702013
   829   3       12.17778257913703      17.993186027781295       2.090582191458124
   830   3      14.391237530737515      16.217991479475472      2.1248040385183624
   831   4      12.027530837160697      16.119627624019412      3.6942292007226869
   832   1      14.179958165262049      18.172271413745573      6.0406794380756201
   833   3      14.384872391030138      18.291876853803416      3.9838119039758837
   834   3      12.137317259357244      18.187415573786549      6.1340466157876081
   835   3      14.398712965093299      16.150746084804176       5.880495222771434
   836   4      12.274598594486525       15.97497327647967      8.1634404326766195
   837   2      14.222452976870999      18.253357667491738      9.9804237955392914
   838   3      14.192401061611029      18.044750522342525      8.1096456834186519
   839   3      12.209408646451282      18.094614798135314      10.332119504971603
   840   3      14.232226670946799      16.250138511705348      10.448365915213923
   841   4      11.917812812051544      20.087806470637592    -0.16417640558720317
   842   1      14.183483539277118      22.228866482178745       1.941804267763328
   843   3      14.186577082424261      22.578550928420722   -0.056601458316544985
   844   3      12.130933532258016      22.560001754125594      1.9190817436046543
   845   3      13.993425264975675      20.206892121999136      1.8843119711444143
   846   4      11.882371329344936      20.210911309587246      3.9250360599527232
   847   2       14.17196073291203      22.243634101033702      5.8922262451342613
   848   3      14.194788361908399      22.216186483735779      4.0070879653987417
   849   3       12.23057949206097      22.349531452839539      6.1882826773115607
   850   3      14.112581757431954       20.28137618879768      6.3070619356033539
   851   4      12.242824387962573       20.21035986162639       7.805625648219217
   852   1      14.196401881525132      22.232537674420477      10.091489268247667
   853   3      14.183337062933777      22.545935763448945      8.0752508039196176
   854   3      12.155141529151063      22.500634226000532      10.127633480173957
   855   3      14.022112748927391      20.202873015112434      10.022178457080996
   856   4      15.842948408425652      11.993387281748731   -0.026565973557470389
   857   2      18.102389001509369      14.202074621902057      2.0921415524822073
   858   3      18.427275498157286      14.154765947128544    0.055163001411970954
   859   3       16.22751468019041      14.091583779191524      1.9551104919612894
   860   3      18.413068488584315      12.134744044489421       2.033122566155499
   861   4       15.81928384305788      12.109018242979552      3.9147206552433507
   862   1      18.157957752709684      14.115883639168159      6.1088894700346286
   863   3      18.319568445326066      14.085955413930959      4.0158002037017306
   864   3      16.121721512375739      14.020211112909829      6.2909016747510567
   865   3      18.424062335076307      12.092909142047819      6.0978612683849862
   866   4      15.929783081208177      12.209964043367446      7.8853517119150469
   867   2      18.163132881224048      14.018130470458875      10.158710839400072
   868   3      18.211077113654738      14.387172631693357      8.1557931266703054
   869   3      16.205938548377738      14.256051337071618        10.1165125981756
   870   3      18.266841275399329      12.130849530386987      10.012594259308896
   871   4      15.887934658522543      16.097363617684124     0.23189289468501376
   872   1       18.21673343276596      18.173242051812878      2.0339770589514701
   873   3      18.377262219329868      18.254435328802302  -0.0088457385151416365
   874   3      16.184314136243227      18.388385746829872      1.9390641183636976
   875   3      18.270017755736802      16.125700014628947      2.0400403600059711
   876   4       15.87750448889062      16.261471123064332      3.9802173890184691
   877   2      18.176997189681973      18.120606278615575      6.1485702164872551
   878   3       18.13749983608913      18.436433524370614      4.0608403626072462
   879   3      16.242363265982871      18.504749001552455      6.0796598189635311
   880   3       18.10338345739677      16.214185922448337       5.917964559185803
   881   4       16.13246650413182      15.837441502534213      8.0150282291010306
   882   1      18.202889306051652      18.224459209073459       10.14641298697164
   883   3      18.383664155125512      18.197819012328669      8.0757880925577439
   884   3      16.164414316455481      18.272193534653407      10.305140775679172
   885   3      18.217713378975652      16.202984435350192      10.258351601771574
   886   4      16.318556027894317      19.798068800929691   -0.025331600746526801
   887   2      18.119853272222009      22.188488510025596      2.0360934577197174
   888   3       18.38152173396097      22.449577346526695    0.017621665639580768
   889   3      16.261989095775014      22.283768630222575      1.9897220073308828
   890   3      18.395010349153047      20.315578664736666      1.8962820554689164
   891   4       16.21589147157465      19.890281318205137      3.9608055174495829
   892   1      18.197497000879988       22.25898018380202      6.0289182261645742
   893   3       18.39862672615979      22.278074827111386      3.9617649507326012
   894   3       16.17403096794375      22.131241130719555      6.2364972624535708
   895   3      18.451804241083238      20.234076263848046      6.1837541681935839
   896   4      16.079583888528528      20.260311886652421      7.7372851553063855
   897   2      18.112490396449136      22.221104053299886      10.116339696884943
   898   3      18.347155608606631      22.353571509000361      8.1301941891597398
   899   3      16.215952442045456      22.288020290599466      10.160188569414963
   900   3      18.422029481715807      20.286570365698413      10.053182073224242
   901   4      20.057656039529245      12.264431155671861   -0.099875630470310617
   902   2      22.198727098185131      14.110429908006376       2.067591997467932
   903   3      22.408501120547285      14.100599020481713      0.1353410131042036
   904   3      20.317563355771373      14.201291749595912      2.0893235595378581
   905   3      22.372326080257437      12.187364590343794      2.2404408827438242
   906   4      19.913115884430397      12.145914558424927       4.174443307853462
   907   2      22.106230819578322      14.182525177528632       6.124504730168125
   908   3      22.345175917170923      14.302747253710953      4.0936897591791137
   909   3      20.240491973500912       14.36622033745714      6.0583020537026435
   910   3       22.30473726387962      12.234674878475452      6.0219599544142248
   911   4      20.123314171018645      11.811942343742448      8.3154193259883318
   912   1      22.232197259361566      14.207735038898583      10.121669663515034
   913   3      22.411495750195588      14.233856438555996      8.0562922688238086
   914   3      20.199534042277971      14.347365801465896      10.112083646189138
   915   3      22.309915390279446      12.194380614518007      10.193875281846349
   916   4      19.842981632749805      16.289420402828419   -0.043773235715119749
   917   2      22.223393537639879      18.059971147269948      2.0692776866951648
   918   3      22.281326168844512      18.321547452176016    0.063069320109139487
   919   3      20.324880452912165      18.225121620192294      2.1012230832258485
   920   3      22.422574610227567      16.177465399234244      2.0113660024822066
   921   4      19.957643028256175      16.136947659084946      4.2471439889172125
   922   1      22.190968808840442      18.174537915909816         6.0707638747049
   923   3      22.455157977012341       18.22822960634036      3.9905341676638408
   924   3      20.178742085852246      18.105143305937151      5.8202403200177253
   925   3      22.500678868807789      16.160435741551385      6.1002850673303621
   926   4      19.909509336035015       16.01987712406186      8.3638018433719914
   927   2      22.141616053228905      18.299846419916879      10.036918379713555
   928   3      22.381300004901725      18.244633811855735      8.1277664734463038
   929   3      20.290182358221532      18.149088322932254      10.190152667084613
   930   3      22.542365488141133      16.306862690127755      10.122419254383452
   931   4      20.020496550292467      19.897652714230709   0.0066392430434282024
   932   2      22.251870862432124      22.128831380533676      2.0155245936161306
   933   3      22.322577171222061      22.456791642738104    0.095531081410892615
   934   3      20.337379607016871       22.50879521120487      2.0244596449851078
   935   3      22.256621191624578      20.272891166815253      2.0621743560410257
   936   4      19.977394897119058      19.960842591603321      4.2115475978379528
   937   2      22.224603704463437      22.126869854579923      6.0944597940528862
   938   3      22.306545008718793      22.460853135065463      4.0596225991855652
   939   3      20.321273032316181      22.527173741366592      6.0545405176486007
   940   3      22.160213952616619      20.264876711729659      6.0412273168831687
   941   4      19.879054406703293      20.196468710949762      8.0855768965950219
   942   1      22.247406301704114      22.230558173789202      10.072312077364613
   943   3      22.304067549128124      22.462952746060406      8.0126917986772099
   944   3      20.238772033818858      22.544785107126298       10.06560850605652
   945   3      22.314789133399753      20.218505304883756      10.206950059225658
   946   4      12.225796146005804       11.78091855087008      12.014130398905584
   947   2      14.179635778733381       14.19226851699467      14.015765300379828
   948   3       14.15262429092809      13.892262006803961      12.150536772714281
   949   3      12.191197690294008      14.166406165647977      14.380000945868499
   950   3      14.119348493942912      12.172037151856056      14.483336165728856
   951   4      12.155589093103343      12.170735044522591      15.839715992897213
   952   1      14.137547045529731      14.150719208970072       18.21719675177216
   953   3      14.188205819798791      14.451814692103921      16.218182483774822
   954   3      12.065819715432568      14.390977591049289      18.177645626486143
   955   3      14.326675597737456      12.095844924243377      18.137932747344241
   956   4      11.788797072713885      11.956284973327588      20.424558598220795
   957   2      14.046523282003607      14.067579175345166      22.263062165121507
   958   3      14.245356234753164      14.056533738726152      20.325680061206356
   959   3      12.164738164932702      14.278776599387921      22.328008952402445
   960   3      14.187923658707508      12.181915417375158      22.489650073285389
   961   4      12.381015515288881      16.284126507438788      11.895147355299551
   962   1      14.172639480473267      18.185779754995718       14.18874603920214
   963   3      14.184080968267383      18.525472382914497      12.184297195403088
   964   3      12.111579270517691       18.22235999305903      14.193588757532323
   965   3      14.257514113735413       16.13347221744587      14.005880774469658
   966   4      12.248504247577726      15.833394491159964       16.13948253248051
   967   2      14.233739437550234      18.248462859621547      18.089336496848109
   968   3       14.21656548313649        17.9254220782571      16.236785241347405
   969   3      12.128778860033721      18.139777777802191      18.313309925601523
   970   3      14.194049520919014      16.257886233684282       18.56842756952339
   971   4      12.137260386415898      15.922625218441361      20.029712905678533
   972   2      14.165377902712748      18.114737404114255       22.18047923340027
   973   3       14.20769498364788      18.451844630122302      20.292967724974847
   974   3      12.201314220960231      18.211725861521025      22.259561738455496
   975   3      14.307714367909639      16.216686985938079      22.123691759716074
   976   4      12.451685672140391      20.055662481981972      11.963075067082482
   977   2       14.22203732600995      22.341355584326912      14.040759238908368
   978   3       14.08976854358337      22.060876957713539      12.170372397018983
   979   3      12.215823604766214      22.295645324628879      14.434394513320663
   980   3      14.105148705826181      20.282428636644145      14.511875417719956
   981   4      12.266210670957673      20.364435597034664      15.942798920730127
   982   1      14.172357769875511      22.184705434761106      18.267184387376179
   983   3      14.239777417349355       22.48911450385539      16.227933623721977
   984   3      12.104878039747003      22.505178399000176      18.159296761897345
   985   3      14.135714638098753      20.165440094353784      17.983962321088413
   986   4      11.869142916577809      20.210043137988496      20.415831964739414
   987   2      14.128315099148516      22.191521935875407      22.244069972880069
   988   3       14.21863800627032      22.313135669579644        20.3067876378459
   989   3      12.202032359963528      22.435312352328587      22.338868356870794
   990   3      14.103031936996233       20.27239685946164      22.470318271593687
   991   4      15.937818172657146      11.951145542214395      11.926572627067356
   992   1       18.18639723208981      14.105130096294772       14.10893349117746
   993   3      18.250796815980291      14.197658004102118      12.102060661798649
   994   3      16.142260643915122      14.080842846519637      14.371693933559996
   995   3      18.370796376418156      12.082689378466364      14.345492738823379
   996   4      15.939565792894546      12.104799331013913       15.95707644998361
   997   2      18.251755124195032      14.164780692161768      18.086989149489593
   998   3      18.349148205552812      14.273332481292252      16.214621964911171
   999   3      16.282937987623168      14.216131422967425       18.31986260083994
  1000   3      18.334273440842594      12.136277745463708      18.293664581601821
  1001   4      15.875857321704817      12.131460466832154      19.985968178069303
  1002   2      18.104678046537202      14.167484325317156      22.236315929483478
  1003   3      18.269008070015602       14.06787457059696      20.349861057767257
  1004   3      16.228447879490343      14.151330318858998       22.40490497970211
  1005   3      18.355438975149365      12.148790457477968      22.497493259012458
  1006   4      16.257212179534569      16.158467050493659      11.772207754678227
  1007   2      18.111211564764538      18.166984060306827      14.242116773373159
  1008   3      18.244327216906015      18.439546968012664      12.235386610517526
  1009   3      16.229750450879287      18.411205439919382      14.230402313874624
  1010   3       18.28566267249191      16.254927604833728      14.154931780304358
  1011   4       15.97637369757128      15.925943607007232      16.003037418206972
  1012   1      18.229440881406333      18.184568147880462      18.164193472197187
  1013   3      18.433487657863338      18.274212738289595      16.166857997916075
  1014   3      16.172573907243446      18.214767277577486      18.398484478120263
  1015   3      18.262939068727189      16.125949766599426      18.437013941062364
  1016   4      16.107459160469077      16.071963341768594      19.897272397882048
  1017   1      18.193638462619141      18.129586736049575      22.276855843307168
  1018   3      18.303941385693779      18.346805858054292      20.282000108015595
  1019   3      16.161182876008507      18.431605369000181      22.291381120581526
  1020   3       18.40197115587242      16.082746934957513      22.324392811229878
  1021   4      16.111670060609345      19.923639397941045      12.119928759615268
  1022   1      18.178597728863359      22.267220051917587      14.175738357642944
  1023   3      18.436069092886726      22.205026815271257      12.119285170164691
  1024   3      16.157045436731043       22.08274260007471      14.290656006862589
  1025   3      18.500741639876427      20.234120760801677       14.23908298073815
  1026   4      15.957418494379558       20.37857157753653      15.976413035610884
  1027   2      18.147980770503825      22.228128606649804      18.173566613174692
  1028   3      18.357306859703957      22.291578052155817      16.293995309843989
  1029   3      16.281827538138007      22.277185120943258      18.269700445013573
  1030   3      18.424765789067255      20.322644896717836      18.316498516701227
  1031   4      16.378363893965137      19.805203681166262      20.221737366736221
  1032   2      18.211875410749101      22.204633382964694      22.276213442459639
  1033   3      18.352088291081927      22.365629810745517      20.322192483208063
  1034   3      16.269051007384903      22.270534755437804      22.353532223992936
  1035   3      18.354337894955378       20.32484511041984      22.382755662030721
  1036   4      20.522239327074278      11.855517696040213      11.782888944170043
  1037   2      22.259964096756825      14.088542302852838      14.139585845216917
  1038   3       22.37946931345768      14.350962244756015      12.201795715940529
  1039   3      20.302898005022328       14.37613683109886      14.175683331927088
  1040   3      22.181179950759219      12.184507145713868      14.215793113099251
  1041   4      20.233911523066634       12.01361591615616       15.81344302212721
  1042   1      22.260294232505871      14.173509421622057      18.149933994571668
  1043   3      22.216112722382597      14.361652874609623      16.132966799959213
  1044   3      20.218334849703098      14.169337823612354      18.416296600901017
  1045   3      22.276466854157395      12.098846637270681      18.423379892023995
  1046   4       20.29337074459708       12.25651631119254       19.90727891008396
  1047   2      22.248176174049892       14.20230560894354      22.204679847976912
  1048   3      22.380359542353634      14.192072947514554      20.331165586013139
  1049   3      20.332835701765276      14.068230875875333       22.40419208430486
  1050   3       22.43011045003508      12.173410184493699      22.414225512640982
  1051   4      19.960126344285275      15.937598684729805      12.036973040060589
  1052   2      22.287219301470419      18.215546234362108      14.068977489708914
  1053   3      22.479957702672834       18.24938462227577      12.171677012215612
  1054   3      20.371535962239207      18.220560858128714      14.158702936381687
  1055   3      22.459793921139735      16.306429982861683      14.230008921064083
  1056   4      20.185290909876226      15.964929299001369      15.947049631859908
  1057   2      22.291732491774237      18.088483792755031      18.131183659903691
  1058   3      22.282270266340415      18.305488579457723      16.253996323084589
  1059   3      20.387054141485244      18.188766941896191      18.471254804111965
  1060   3      22.462384741373896      16.238095020588556      18.323130412188114
  1061   4      19.932353768742587      16.309443959134271      20.080414298498699
  1062   2      22.249295656847149      18.262525770507445      22.241152306020368
  1063   3       22.49698128603486      18.191342809416806      20.330950396423351
  1064   3       20.34403449079517      18.194627001555556      22.284254840764874
  1065   3      22.365819977950451      16.165202859489273      22.469731794014336
  1066   4      19.856864482814963      20.203761269866856      12.179018278479568
  1067   2      22.245144441988081      22.301185964796897       14.03537843654628
  1068   3      22.296055724585326      22.346514844484659       12.17707289369328
  1069   3      20.335026893193252       22.38883116775709      14.331895534555473
  1070   3      22.303683188290453      20.303995683140108      14.311718341809298
  1071   4      19.974185128579144      20.208539388807878      16.011188981647848
  1072   2      22.229871452004442      22.173041670373138      18.239233628661182
  1073   3      22.344121496641204      22.326236116836707      16.342923899330213
  1074   3      20.316277895088156      22.458441220837962      18.367678243668831
  1075   3      22.291054912144439      20.281670994773048      18.442580211068144
  1076   4      19.990448737874246      19.934826216491224      20.162916583853953
  1077   1      22.290079337734333        22.1818908907732      22.304722525900679
  1078   3      22.288373646420887      22.522216754237665      20.284394910456758
  1079   3      20.243682044345011      22.534162865264928      22.331607887623115
  1080   3      22.434512424303296      20.168583088572994      22.313979731329297
