(written by ASE)

1080 atoms
4 atom types

0.0      24.299999999999997  xlo xhi
0.0      24.299999999999997  ylo yhi
0.0      24.299999999999997  zlo zhi

Atoms # atomic

     1   4   -0.054452736555044942    -0.30948054762367549   -0.048462417386014478
     2   2      2.0533914004149807      1.9236088580559507      2.0567201554039154
     3   3      1.9068800699059609       2.176100507428254    0.092510724823803195
     4   3    0.013200007602672781      2.2844748794478678      2.1007927712516246
     5   3       1.934041186680334    0.059661021017909502       2.085201444086501
     6   4    0.085420439783049709    -0.34757673170521247      4.1313904867519797
     7   2      2.1147149878186742      1.9081028972192378      6.1129941496963749
     8   3      1.9375115891397232      2.1908869526434116      4.0532138881044757
     9   3   -0.030319573537783324      2.2603515375019887      6.0316335730445632
    10   3      1.8652021949300879    0.035192011774659554      6.0176744093784382
    11   4    0.019083305841249797    -0.27939951523155943      7.9076470569379032
    12   1      2.0830779636984151      2.0014756081959733      10.055329275770159
    13   3      1.8618221269028652      2.0477842504913868       8.015610714108826
    14   3   -0.031584055617365582      2.2521175222614636      10.090152117346433
    15   3      1.9122200675413485   -0.032081201861765073       10.31753960741044
    16   4    0.021070296865583194      3.8255393587834834   -0.010733268386016022
    17   2      2.0653067903413524      6.0072896183606588      2.0532420759162693
    18   3      1.9751894970959702      6.3385909952566157     0.12062469047282746
    19   3    0.038628736429507947      6.2514012764090534      2.1671177245050166
    20   3      2.0543351183164886      4.1361297315127308      2.0493046560253769
    21   4    0.013997237380412007      3.7644470025151446      4.0565354875027833
    22   2      2.0238726422648141      5.9768809518567885      6.0901288019347408
    23   3       2.012202197651797      6.2081993448884782      4.0962899534052699
    24   3 -9.8474144621807808e-05      6.1624617741729804      6.0509404232317516
    25   3      2.0369356370637348      4.0963222205245309      6.1004544773224403
    26   4     0.16075550363516666        3.73383527534794      8.1996392942688594
    27   2      2.0954004553255379      6.0037820324730893      10.224528178863672
    28   3      1.9233971123459386      6.2589586887247002      8.0607181272955515
    29   3   -0.022873325420120501      6.0083730067459609      10.167777021660564
    30   3      2.0272470293557978      4.1016209732612454      10.012313410790069
    31   4    0.056618884599965925      7.9580708982082067    -0.11058269115603248
    32   2      2.0227492299373804      10.084103813470458      2.0138726498490978
    33   3      2.0123823949931241      10.177388245562106      0.1179569665485433
    34   3    0.074345707823191873      10.344724478539705      2.1832294115096591
    35   3      1.9556724659056652      8.2095826059457444      2.2325123089215588
    36   4  -0.0049583058189577069      7.9165201826730796      3.9702464246009446
    37   2      2.0739350310773288      10.056576110579504      6.1138512789554431
    38   3      2.0368495762035783      10.396375162144512      4.1301993923160421
    39   3    0.027691267365323048      10.435504876716484      6.0896837030919109
    40   3      1.8840319815631452      8.1794722165712646      6.0684159454656657
    41   4     0.23208624299407063      8.0307727217972236      8.2213198298497492
    42   1      2.0559021968666391      10.098459408612161      10.118802403598911
    43   3      1.9313771476569355      10.226388998614343      8.0600574464039205
    44   3   0.0063524031706722345      10.298904658847913      10.154644298570421
    45   3      1.7344948323361915      8.0694839062371368      10.080775321045783
    46   4       4.201147125726675    -0.27361591761570564     0.15725284390698593
    47   2      6.1906265209639297      2.0414937595382532      2.0845597290929661
    48   3      6.0324166739812348      2.0810902987351532    0.036647102191936155
    49   3      3.9737232719776583      2.0570353958065342      1.9771965169020018
    50   3       5.997749665203207    0.082106387751441412      2.1264537110362602
    51   4      4.3938836173389388    -0.18418434157969063      4.0632617355783793
    52   1       6.121658070387169      1.9835652246724376      6.0488735467680934
    53   3      5.9495692603348189      2.1666491973379385      4.0249924038555926
    54   3      3.9929628573321434      1.9948805974032544      6.0842649664544011
    55   3      5.9662309735655699   -0.051899253125208586      5.9561129212815924
    56   4       4.345726059585286    -0.19409048548294422      7.8204950600780831
    57   2      6.1283073371209555      1.9710916907290077      10.013962211062164
    58   3      6.0585772573232202      1.9864972644627161      8.0935692806841342
    59   3      4.1047508760647231      1.9078837182707358      10.246275539538459
    60   3      6.1051163712776697    0.025849430488504282      10.331068848961323
    61   4      4.2923630685483838      3.9304378983437691     0.11891877381071732
    62   1      6.0991541359637678      6.0420571518733146      2.0331349352963324
    63   3      6.0321092496543347      6.3507990794934281  -0.0037508561926684137
    64   3      3.9777437629481276      6.3142808848694063      2.0343763654640092
    65   3      5.8656573958792064      4.0306575264991613      1.9904989903766968
    66   4      4.4325596115889354      4.0029941177779156      4.1253602080582708
    67   2      6.2565115689347017       6.120242051296338       6.095356303878761
    68   3       5.883884574734993       6.027677460834683      4.1211755888581365
    69   3      3.9411140740428259      6.2349446233807431      6.1409574767152897
    70   3       5.870501039145724      4.1127630759292595      6.1287813500200858
    71   4       4.426487646790739      4.0014541237104613      8.0538021392163248
    72   1      6.1391252189968535      6.0008931534021173      10.109733798559004
    73   3      5.8891360087264264       6.103201389949974      8.0532563557952557
    74   3      3.9934315422759918      6.2658074429058193      10.032759167496025
    75   3      5.8801244647000219      3.9985514638904194      10.033295001908197
    76   4      4.2003255177525931      7.8444112251294404    0.044362686381570399
    77   2      6.1076558352770016      10.080303807152536      2.0060201807565066
    78   3        6.06992043045532       10.08918887073861    0.061507977217615806
    79   3      4.0335798101921112      10.211334445538078      2.1763461006411409
    80   3      6.0461954729985159      8.1755335615566906       2.246017112687233
    81   4      4.3376016984302455      7.8899999885959602      4.0474543019402969
    82   1      6.1087357269053379       10.06464232837379      6.1096775377065748
    83   3      6.0121268293740897      10.355970612524233      4.0636080256992786
    84   3      4.0018372050113573      10.233118045624286       6.137774945578486
    85   3      6.0103782734491036      8.0484210560066636       6.028383404794825
    86   4      4.2480193969015332      7.8139589848503181      8.1301594100508652
    87   2      6.0733724188723031      9.9482935176764293      10.140681483446885
    88   3      6.0709367538175298      10.248272128766136      8.1753347703332526
    89   3      4.0935365012625002      10.225032477988005      10.115563992643136
    90   3      6.1096345618757866      8.0815011891435322      10.164440492859148
    91   4      8.1952385924781375    -0.19773847723463189     0.18287998326155083
    92   1      10.107822244020513      2.0134083841476977      1.9938984433763514
    93   3      9.8747875382456094      1.8663895273168709    -0.05224281224632208
    94   3      8.0693085601880856       2.092199706159116      2.1280104184343673
    95   3      10.092071323551597   0.0051759645672439444      2.2783250055221047
    96   4      8.3459260416350052    -0.23469076036420738      3.9005605272764767
    97   2      10.148217691178962      1.8400770653508831      6.1090143237685313
    98   3      10.112630595265657      2.3599814310469904      4.0839523991576492
    99   3      8.1609723667702099      2.2489624754509316      5.9971889997858234
   100   3       10.09814815380841   -0.017665999651916092      5.7914843951927999
   101   4      8.2013571916644565     -0.3907501301942885      8.1343972617446951
   102   1       10.15685382008833       1.955331242314166      10.081161007457377
   103   3      10.048883903439583       1.878315416697969      8.0404219245294808
   104   3      8.0863020704081787      2.0431772701315021      10.265291567854852
   105   3      10.132099118351672   -0.033651316088931842      10.423636022951346
   106   4      8.3930520963991722      3.8886273161892868    -0.10446058749049907
   107   2      10.114334109022218      5.9442377618448639       2.054776888316562
   108   3      10.077702182023225      6.3708967982334777    0.047004776704041858
   109   3       8.136123055604827      6.2686611689945391      2.0365220708125853
   110   3       10.09585279474806      4.0649032933313904      1.7618595054715065
   111   4      8.2619946130004394      3.8058399539647638      4.1695053657383774
   112   1      10.141685488727946      6.0466347063737302      6.0603399762401189
   113   3      10.167206867808028      5.8098311842351729      4.0108212345446459
   114   3      8.1106599715656866      5.9599262809588271      6.1333530081486174
   115   3      10.195081274494225      4.0323755671434638      6.3323472584436491
   116   4      8.3562645000109566      3.8166544298904421      7.8789896730045905
   117   2      10.132203046307502      5.8602510151370515      10.164419322393574
   118   3      10.161747741415617      6.3392224687915633      8.1499348176579858
   119   3      8.1638374024707669      6.1347168535355632      10.052360333468364
   120   3      10.202406619462208      4.0045908570894531      9.9120950148025635
   121   4      8.1745837447126402      7.7724013437879185    0.019351870070974598
   122   1      10.053494837743392      10.117232799975339      1.9627057633707852
   123   3      9.9810832439221837      9.9497772953392243   -0.058446919351360246
   124   3      8.0256031441700557      10.168712856667424      2.2277873668760777
   125   3      10.081640000817044      8.1053426729793596      2.3857651499385031
   126   4      8.2029487853078056      7.9841069039199892      3.7751414008866844
   127   2      10.109592693575516      9.9384054181709125      6.0826504883132584
   128   3      10.090359622557186      10.438098266231256      4.1431823882150445
   129   3       8.143252074757104      10.378645948959727      6.0646476764036086
   130   3      10.066784415141599      8.0878366323649775      5.8822765770198382
   131   4      8.4189468763217139      7.8954503808805017      8.3612831054033556
   132   1      10.119409904444636      10.142972184163204      10.119696940106669
   133   3      9.9970209172956217      10.070125077987754       8.067714120326519
   134   3      8.0288298740151696      10.330978950278976      10.168994047381851
   135   3      10.005386393141572      8.1199024970657998      10.297632294554365
   136   4  -0.0080180226730238672   -0.085140472410137322      11.790111348581409
   137   2      2.0218281308062247      2.0566208354359889      14.015468282854476
   138   3      1.9273024619702031      2.1031491287202342      12.157275984466668
   139   3    0.040847767815358364      2.0705557083337691       14.35787882531419
   140   3      1.9548492678401921    0.023452592101219315      14.311334827550462
   141   4    -0.11069660909817493     0.09153390787336628       15.88631682607986
   142   2      2.0114800414267244       1.981139566686458      18.197037905878283
   143   3      2.0082142902419338      2.0019877376507282      16.327671702965986
   144   3    0.040024682803750301       2.192808093229818      18.423549283974918
   145   3      1.9831590055026138    0.074117191850054276      18.477438105180482
   146   4    -0.12569448128151053    -0.27329040013472977      20.314539574326691
   147   2      2.0729709542761596      1.9831906812687308      22.292321985145477
   148   3      2.0197467602683599      2.2312268737130356      20.392918842477354
   149   3    0.038431231824904002      2.2687283445805275      22.415773462455324
   150   3      1.9882922764776998     0.11506586388702593      22.355642764755377
   151   4   -0.050077902349699867      3.8242447167819149      11.857479726698717
   152   1      1.9782129430918678      6.0179651560395921      14.114568253666524
   153   3      2.0624658801046234      6.1095813655790376      12.108904235554427
   154   3    -0.07487865948457724      6.0297563639900895       14.36610365394335
   155   3      2.0330906184528446      3.9826880983623005      14.389223205338061
   156   4   -0.017504149753721356      3.9829292557506411      15.843226658689263
   157   2      2.0571221401390232      6.0818396821779039      18.117302764553081
   158   3      1.9598691773968759       6.131230793148676      16.249065096546708
   159   3    0.031350667462946451      6.0853995335064148      18.427659461696194
   160   3      2.0583543317345665      4.0854468785027569      18.375731404646803
   161   4    0.019257080072616069      3.9501939844252711      20.079486901057912
   162   2      2.0704125338180779       6.042935478926462      22.246879254193832
   163   3       2.034534763033669      6.0856130703947731        20.3666832193746
   164   3    0.053317275627638265      6.2114797705510751      22.463752678320407
   165   3      2.0547003029330719      4.1685405309343695      22.510848627092518
   166   4     0.05526623617811751       8.200553629133795       11.73017910920267
   167   2      2.0300427468794546      9.9790902252295037      14.106721880633572
   168   3      2.0127872394760002      10.223445576838781      12.203032071059168
   169   3  -0.0035523254766197869      10.270935531964062      14.287030802263502
   170   3      1.8852714621969409      8.1088779516057752      14.225721072508833
   171   4    0.073751990641245269      7.8554420183394686       15.94678650712356
   172   1      2.0587886046067161       10.05472577786939      18.168116783964496
   173   3      1.9926009939869109      10.298334096852129      16.145157906926933
   174   3   0.0087073069890767074      10.221805682365975      18.346742924546028
   175   3      1.9611961110363985      8.0413015916242454      18.410530128254226
   176   4     0.06892509761682683      8.1367140299568259      19.903967833550976
   177   2      2.0521934138883933      10.122592259579866      22.173901121001975
   178   3      2.0396144767170306      10.244602546027789      20.309119721735332
   179   3    0.057458037683864947      10.300606182822856      22.405936951842012
   180   3      1.9463367868350709      8.1927628436529609      22.380422060182696
   181   4       4.151263091002634    0.042666161623817832      11.759182163423722
   182   1      6.0850544230185752      1.9950601809588318       14.13651930584048
   183   3      6.0740894269320078      2.2559946102297666      12.128244506988022
   184   3      3.9669152612152354      1.9905309191785892       14.33207124531522
   185   3      5.9619737079120299   -0.054983965311735557      14.227808660047581
   186   4      4.1875001197441861    0.085515669292921551      15.867797473328647
   187   2      6.0819322192610956      2.0862012582739142      18.118333025561359
   188   3      6.0713330256711879      1.9258052375623316        16.2557858430716
   189   3      4.0072349875647637      2.0163231829727115      18.406103937997027
   190   3      6.0180226220231008    0.064209858065752828      18.492683859723577
   191   4      4.1251397944427293    -0.12912805028984753      20.127139285973513
   192   2       6.089196883839465       1.971775646262133      22.271824633600531
   193   3      5.9308637258572405      2.2373592667763131      20.369000873173594
   194   3      4.0188369464192668      2.1423633938481124      22.471829936570298
   195   3      6.0847463658632934    0.095923490928824198       22.24929434755451
   196   4      4.3934439254431297      3.8836363254240274        11.9559844226749
   197   2       6.200760058014267      6.0020938696585269      14.167789374110864
   198   3      5.8857504653885915      5.9768898153092547      12.174502120301781
   199   3      4.0162030975893677      6.1555649583126657      14.270147575350816
   200   3      5.9003995616764575      4.0674673779108721      14.281480423652981
   201   4      4.0649405283443905      4.1022072456331689      15.798085477920521
   202   1       6.093085905562579       6.049560152121626      18.169575725003828
   203   3      6.0117522874280782      6.2176853963967176      16.146987735259426
   204   3      3.9930630361759967      6.1551114099518465      18.328804179206539
   205   3      5.9100084174727368      4.0054760190365011      18.274557644689867
   206   4      4.2062268323940311      4.0976804492045495      19.983666561371521
   207   2      6.1546129243477754      6.0185147407213737      22.261232039917896
   208   3      5.9086842492384921      6.0434204498748594      20.360658592576922
   209   3      3.9991079036655828      6.2787022626282951      22.479102076374264
   210   3      5.9142661598195021      4.1247879806127079      22.491470919831443
   211   4      4.2314230558734875      7.6981972135895207       12.27291043842572
   212   1       6.091342461852407       10.06922832426792      14.096185488178557
   213   3      6.0225982110176437      10.347893333802507      12.083838972962587
   214   3      3.9746926101607638      10.176369131132329      14.215437468143071
   215   3       5.955855084895501       8.033428890256971      14.068695331029659
   216   4      4.2799884542575644      7.8471685519959173      15.914669515088542
   217   2      6.1026434823451563      10.136231747232124      18.045034179139542
   218   3       6.044814627415291      10.073859052502849      16.168864032509408
   219   3      4.0893965961336844      10.105318118560733      18.353809232203844
   220   3      6.0605630259292074      8.1616184370382481      18.441729300453762
   221   4      4.1698403834419153      8.0337312533010472      19.876557984026512
   222   2      6.0928465118877595      10.078886723926976      22.238273555127634
   223   3      5.9559826702025207      10.285763327932534      20.347756223510409
   224   3      4.0392416208484008      10.207891030045431      22.428197411297393
   225   3      6.0528116198651167      8.1715615883379069        22.2466534495404
   226   4      8.2014345934437305    -0.11219112349735214      11.808510566966616
   227   2      10.204082889600626      1.9151906832343841      14.132399614644632
   228   3      10.166858649649374      2.2609616793749252      12.203296207701195
   229   3      8.1360085059774114      2.2240019242112199      14.123001756894009
   230   3      10.013386920205702   0.0068712423278419399      14.106622720163564
   231   4      8.3420522573989278   -0.035147574938069123      15.965018088753556
   232   1      10.078178579202232      1.9920656698864176      18.185210981941864
   233   3      9.8863754593622168      1.8766778850336279      16.169720908863955
   234   3      7.9960913867482688      2.0585242968421329      18.475225543241958
   235   3      10.038783476124655   -0.019194305494701049      18.582847989329277
   236   4      8.1882482371625542    0.033225503561026055      20.015189071242354
   237   2      10.236814293681901      1.9484083989114027      22.323977417641469
   238   3      10.087601162706704      2.3732912490510536      20.338142897697331
   239   3      8.0192866635820046       2.266681664436859      22.235703314820924
   240   3      10.028477118026432    0.043095410042089152      22.050718503113607
   241   4       8.102814245789272      3.6326332365022163      12.143007873632499
   242   1      10.151972266839362      6.0118967492056363      14.127787644421311
   243   3      10.086760648285882      6.0190525393398477      12.096344235457273
   244   3      8.0967582492686567      6.0229227092360267      14.176399709832511
   245   3      10.196330191294459      4.0200540092461834      14.503767541503741
   246   4      8.3401506181039746      3.8022044938654207       15.93260281007486
   247   2      10.040031910921062      5.9701337938140506      18.177399822456469
   248   3      10.068851855527853      6.3820118962724246      16.226741610063943
   249   3      8.1118429570431463      6.1373459267313422      18.354274202182403
   250   3      10.110016110074348      4.0493305169131579      18.045402863918643
   251   4      8.2340093529781448       3.882971311160186      20.142861192356211
   252   1      10.103846401636538      6.0679246297922251      22.222511084622141
   253   3      10.255783856493007      5.7821141550585899      20.198713536319289
   254   3      8.0427268343884766      6.0806341848747749      22.351337359906879
   255   3      10.155091360833206       4.027635582908208      22.585317904350966
   256   4      8.3810104145819846      7.8403635380513137      12.031736546981518
   257   2      10.177363791660527      10.020271300960943      14.164234129215195
   258   3      10.104885295271028      10.383025909187266      12.186884226744178
   259   3       8.111610944619601      10.352319026086963      14.089235283907591
   260   3      9.9337093767045239      8.1118143618099019       13.99282140739224
   261   4      8.3031472115470848      7.9761073206192945      16.003225255850204
   262   1      10.100862559405394      10.064377071671929      18.167494833801221
   263   3      9.8812781741808777      9.9170206227481614      16.141340421876791
   264   3      8.0221958706476126      10.113624848648968      18.431018852777097
   265   3      10.061346075857186      8.0566293882268329       18.53204410719869
   266   4      8.1118470102158717      8.0428252215047547      19.904910437275742
   267   2      10.184600247968023      9.9736790572528875      22.317262686795225
   268   3      10.106538077487151      10.429364758409513       20.30340704501598
   269   3      8.0394734020057825      10.309989633604717      22.247026148642867
   270   3      10.057919775439041      8.1125771509766356      22.031958675428381
   271   4    0.098833757128934788      12.150111202952802    -0.31127759780299585
   272   2      1.9940220904169759      14.117673122558882      2.0220300054371081
   273   3      2.0765014489228673      14.354162408259084     0.13165389006471626
   274   3      0.0872494921068728       14.24876427796978        2.17764624289959
   275   3       2.148995093168812      12.242698768875465      2.0813125969269084
   276   4   -0.075849292102434684      11.942655799923644      4.1038602695540778
   277   2       2.018126636031726        14.1490247930709      6.0313448438288706
   278   3      2.2414291906518145      14.305017815168958      4.1222102463116741
   279   3    0.086197157426712162      14.244675621848273      6.0076977021558235
   280   3      2.1443117486016847      12.281384832329353      6.1877894164991858
   281   4   -0.068308159783529512      11.793549919160844      8.2416380847049648
   282   2      1.9980974910127001      14.119577932350207       10.05008599057987
   283   3      2.0496723773221683      14.402755332457598      8.1423113180395301
   284   3    0.073500927086549511      14.204514465438058      10.276457913968306
   285   3      2.1284026149763036      12.254685399462238      10.150014749087518
   286   4   -0.024338429472889545      15.978887911734429    -0.24521396326700892
   287   2      2.0248495880418935      18.125572479211922      1.9343594460571008
   288   3      2.1118385943849121      18.245004342000041    0.038220368034639698
   289   3    0.071070414214803118      18.415283062724892       2.039527867477835
   290   3      2.0722521322695679      16.260078435796707      2.1977811924667994
   291   4     -0.2723450237339009       16.12245563467912      4.2289085513624949
   292   2      2.0891986933558933      18.234843121462198      5.9612547500293722
   293   3      2.0264300624435929      18.423462294976485      4.0646208884581183
   294   3    0.083544376744706147      18.432996144455217      6.0869570733028517
   295   3      2.0213865513897518      16.306603616525813      6.1220693099986931
   296   4    -0.34191355974260274      16.185645340421868      8.0386376040439931
   297   2      2.0178441424494409      18.206735384795408      10.061581015921925
   298   3       1.968813960738661      18.270009196143288      8.1659902133809883
   299   3     0.05611522805075015      18.433774431335763       10.23370819735629
   300   3       1.934934681889962       16.30721579369289       10.29109901344081
   301   4    -0.16996696447140971      20.056499462424124    -0.16589011844382104
   302   2      2.0564768796554169      22.151811239601141      2.0830315904360313
   303   3      2.0098128929901637      22.504954858238843    0.037495866018084474
   304   3   0.0070271788433561655      22.405197262169125      2.0199848691542828
   305   3      2.0811820527937162       20.28012172611303       1.991483268901151
   306   4    -0.11089868010123199      19.943012873733352      4.0833895785522119
   307   1      2.0576499187177406       22.23609631915345      6.0088378624729764
   308   3      1.9520710392160783      22.346330348679658      3.9870232352014727
   309   3   -0.055852047119181188       22.33511994269924      6.0745790557863781
   310   3       2.067038736344379      20.231942626712851      6.3305291143188924
   311   4    0.068945372513624537      20.082984936975663      7.7991769582305635
   312   2      2.0389266267588169      22.328809360926609      9.9842144482783404
   313   3      1.9195745808249853      22.399791833026068      8.1119145937377866
   314   3    0.047062001793838709      22.271999878752961      10.298429280077215
   315   3       2.083368372612791      20.321472725682074      10.221356617548251
   316   4      3.9769722812833401      12.198801790882102    -0.31598017433217862
   317   2       6.106357391908797      14.122809991894231      1.9659871069429928
   318   3      6.1491714650742875      14.315594326554255    0.090102610867528923
   319   3      4.1002949075047166      14.383556350081204      2.0895168642049717
   320   3      5.9908558866325929      12.203447849200154      2.0530660801734779
   321   4      4.1686885994869582      11.840633627744806      4.0993038418769432
   322   2      6.0826848139327785      14.107104862141151      6.0816714788262791
   323   3      5.9329467738741233      14.205546244478402      4.1691523519542741
   324   3      4.0663418089134042      14.431934027414163      6.2639286286541402
   325   3      5.9592632762872775      12.256142412923403      6.2453669669781622
   326   4      4.1376871680208946      11.777333674207975      8.1174502023312289
   327   2      6.1375824727488739      14.171409528578184      10.114325291167269
   328   3      5.9836333083031885      14.420134462369587      8.1697550054387982
   329   3      4.0114736931995933      14.469904189671544      10.157877809476274
   330   3      5.9122240417526042      12.293162867335299      10.098486703520628
   331   4      4.0496459556843449      16.006146245273328    -0.29009170970079629
   332   1      6.0690721220484853      18.157015889115623      2.0335532465232147
   333   3      6.1475735695718488      18.212321015196846   -0.012547351538062268
   334   3      4.0023387746236612      18.305831148927837      2.1201164590052195
   335   3      6.1570857567041877      16.151303167996055      2.2643028740500561
   336   4      4.2138631094174812      16.082771783152122       3.812701888509066
   337   2       6.160477542828362      18.179266696537344      6.0496526287574062
   338   3      6.0316581768791364      18.417346015650942      4.1422502660011773
   339   3      4.0538831124473589      18.308649801426455      6.2211248057959949
   340   3      6.0591877583780365      16.292013719126913       6.090714279701797
   341   4       4.088536635738425      16.064695594376488      8.0291490136761503
   342   2      6.1396994552069186      18.314910477265482      10.050415559482696
   343   3      6.0222786180244245      18.206049576925313      8.1458155580923854
   344   3      3.9860400778874037      18.246073218098584      10.293648658283951
   345   3      6.0181009874222333      16.303912890658275      10.325413614845317
   346   4      4.4113543870662477      19.877962623385734     0.11649290801480688
   347   1      6.1217168378010056      22.258471097822444      1.9943758751242349
   348   3        6.06555024683691      22.514262486422005   -0.045898574547832818
   349   3      3.9849082112228822      22.434522687541349      1.9917039202307947
   350   3      5.9951618525796579      20.251091314844857      1.9754000076610843
   351   4      4.3919933354479053      20.183218703057992      3.7202293629535648
   352   2      6.2155440082619284      22.232593506110504       6.032718983776876
   353   3      5.9606699271977561      22.241168663017401      4.0776389704288558
   354   3       4.079668494020912      22.321938972436477      6.2521842981952496
   355   3      5.9501677806381164      20.277150809785145      6.2426563284479117
   356   4      4.0264578408599467      20.386467237612734      7.7469182280912623
   357   1      6.1090060377940887       22.25004495101382      10.086114444960236
   358   3      6.1277725986310818      22.514116121605785      8.0630898674544245
   359   3      3.9935213430126622      22.399354249254412      10.223450713886178
   360   3       5.887932038957767        20.2307979459706      10.153957996656228
   361   4      8.2967761795892638      12.153134611869477    -0.32436943332330609
   362   2      10.121852635844624       14.12927622138514      1.9036928231247088
   363   3      10.028531716409878       14.30211902730284    0.043651788835711323
   364   3      8.0787051563415062      14.188325414789192      2.2649681568152236
   365   3      10.171423866122053      12.205976396759269      2.0173760715587452
   366   4      8.0637917339901435      11.791156348720527         4.0678356247703
   367   2      10.045458319677858      14.181132771153969       6.061058826290405
   368   3      10.198909891270645      14.038375797953965      4.1622512442643824
   369   3      8.0634296948932871      14.204276877741973      6.1585027734702651
   370   3      10.198969736614988      12.280952970357607      6.3631585508623649
   371   4      8.1504270391830769      11.753405903989162      8.1080457448337775
   372   2      10.223205872462591      14.097819244077446      10.220908070561704
   373   3      10.110826648440463      14.511480644033782      8.1263437139260404
   374   3      8.0440782345217841      14.212148495984589      10.117032339079254
   375   3      10.164929280942872      12.225396888368991      9.9276125922362333
   376   4      7.7675960796756005      16.342096226577876    -0.20240299338846268
   377   1      10.147631695141458      18.147472566828547       1.966816552924328
   378   3      10.140789795934412      18.173590892846118   -0.058988209473971501
   379   3      8.1099795305107225      18.282219149185838      2.1143195522408269
   380   3      10.056320736203858       16.14220815789902      2.3397588035052825
   381   4      8.1484494787328288      16.319259666306507      3.6739339313290817
   382   2      10.289046187530998      18.221327257169481      6.0443725138239035
   383   3      10.037395946890527      18.434158162762657      4.1319491990258017
   384   3       8.050061960181468      18.411956653175896      6.1236591043262152
   385   3      10.003251723793502      16.245069867593461      5.9905586406336333
   386   4      8.4639745169063865      16.261696958900306      8.2850069116812399
   387   1       10.18731982222957      18.215807100543742      10.137116244135045
   388   3      9.9535445142437311      18.101285649795621      8.0814595856886786
   389   3      8.0227132461831854      18.335560471004669      10.228809726912129
   390   3      9.9175033634517487      16.197743178751121      10.254724957183612
   391   4      7.9271045463296135      19.791826339589448     0.17664200381249059
   392   2      10.140313198583998      22.124524347554935      2.0508949818642002
   393   3      10.127079068039723      22.608338630794261   -0.029999712036883047
   394   3      8.1644331842790354      22.415990450386296       1.960893791553018
   395   3       10.16490450741783       20.24488482030273      1.8797553979137291
   396   4      8.1492827072692133      19.940904964809345       3.735953754557972
   397   1       10.17217657174387      22.192453048216976      6.0206199644223535
   398   3        10.1172560350929      22.182585358526158      3.9742609868392704
   399   3      8.1169903896330915      22.279328243873401      6.0865409090241869
   400   3      10.194270024868688      20.194920156717576      6.3953138867284283
   401   4      8.4948078643148364      20.130263972553745      8.0471117194117863
   402   2      10.196620346241794      22.196924831916164       10.18069846415014
   403   3       10.10482015350564      22.490350247135137      8.1371215381735009
   404   3      8.1554993199763963      22.433605229094159      10.105846550867712
   405   3      10.085549850976383      20.262672129419883      9.9736082196800631
   406   4     -0.2093987516911649      11.969394188195682      11.739705320563827
   407   2       2.000649572615985      14.120003517430371      14.078929917098925
   408   3      2.0954468802672039      14.303307501064328      12.185725103331881
   409   3    0.025159322655470162      14.294042244807892      14.240623128888263
   410   3      2.0667390521116573      12.242224039262835      14.260998730731067
   411   4     0.11964024210711366      11.781747569986782      16.189173891098324
   412   2      2.0308124772806808      14.048924116358862      18.202263652653574
   413   3      1.9784997204010808      14.348846958304604      16.221130605246742
   414   3    0.051552345019577922      14.243286109623826      18.293554930584133
   415   3      2.0894267335185428      12.170096196359832      18.239606035859556
   416   4   -0.069093752003037759      11.961997718985449      19.940432706919552
   417   1      2.0505825467189509      14.148157072133195      22.206931262453693
   418   3       2.089547207968411      14.335714711613223      20.177187096012474
   419   3  -0.0040424555870928998      14.259583450972501       22.39532096767002
   420   3       2.074191395364648      12.136878337426042      22.523937202398869
   421   4    -0.24016508595554678      16.027620730484024      11.908045382928915
   422   2      1.9906372856380816      18.189281356763615      14.091069097841745
   423   3      1.9864912424565859      18.410091326171866      12.231933371993483
   424   3     0.01841282876537156      18.436923296533614      14.367939761924568
   425   3       1.962143475046521      16.312847088416515      14.255556846808364
   426   4    -0.13733203829944901      15.858863916823182      16.167535569141204
   427   2      1.9836928343527227      18.214349456603113      18.148471821466952
   428   3      2.0254069402681685       18.37550140052813      16.278935308927188
   429   3    0.017042903345106844      18.481098770781649      18.321630117901599
   430   3      1.9447169759612475      16.323162719159573      18.315719399694427
   431   4  -0.0015171878072601191      15.846922491383344      20.105592743450906
   432   2      2.0763795717230975      18.115839082372609      22.192480981696374
   433   3      1.9377583812171386      18.365451062913095      20.309890226379395
   434   3    0.079794218313640627       18.24161332415456      22.506778462673125
   435   3      2.0854579367101662      16.231307367126533      22.364303327994385
   436   4    -0.13154415085646062      20.308158034097914      11.775243476423176
   437   2      2.0417097195196314      22.280315549092855      14.110896195521331
   438   3      2.0158388630408668      22.282801610462116      12.244175252153227
   439   3    0.013294400053469818      22.330094006901401      14.347406161012005
   440   3      1.9925308969769067      20.355479914858698       14.41811000568938
   441   4   -0.083862497099753477      20.258709239347343      15.955820155577769
   442   2      2.0228204457555443       22.25445654336831      18.204828659355361
   443   3      1.9659668105744663      22.399339710823686      16.335859747747694
   444   3    0.044312190248216046      22.342815040933743      18.498969750473083
   445   3      2.0708224888948905      20.356185247352599      18.381532069800937
   446   4    -0.17332639086476448      20.169339574088124      20.223694369649728
   447   2      2.0446274609405051      22.165736950535671      22.315526906276929
   448   3      2.0831474506100709      22.401972312254912      20.392056009045291
   449   3    0.091463439741155353       22.42805134191234      22.358237524468922
   450   3      2.0123788032350576      20.290600029836131      22.425399623568321
   451   4      4.0957491753974917      11.796107578787641      12.028511288495464
   452   2      6.1326173814021114      14.082620177968156       14.18858944858175
   453   3      5.9080702772108182      14.264609666316135      12.170746435879943
   454   3      3.9641575846537607      14.375624788329553       14.27157267132138
   455   3      5.8871106934889204      12.216142401433125      14.241729679493204
   456   4      4.0439292543193757      11.811676773149573      16.001494126652027
   457   1      6.1074055316256111      14.118221829250206      18.121622891408858
   458   3      5.9692038263387666      14.396613729370969      16.113501220845897
   459   3      3.9879205545464922      14.389917658316358      18.179989261226446
   460   3      5.9428983625369129      12.090598636772393      18.240696249920582
   461   4      4.1488899256596916      11.958748604835311      19.898286733314094
   462   2      6.1208117480515218       14.15335671064569      22.089311882131319
   463   3       5.924412171420661      14.166497403791031      20.225875799099235
   464   3      4.1134709201812996      14.198570285678132      22.502985471994055
   465   3      5.9668712888480426       12.17302358471877      22.491774508794517
   466   4       4.179109308739573      16.083817020538355      11.972336663843606
   467   2      6.0679538069055878      18.216770493151657      14.123134203993979
   468   3      5.9405340228693957      18.415510689589329      12.224711229569907
   469   3      3.9638237045970808      18.399364462943517      14.321050335412535
   470   3      5.9694833168780361      16.315383080482967      14.145475634479261
   471   4      4.1459218816056991      15.904140595604801      16.163426259458014
   472   2       6.114515110991638      18.131041435152291      18.214779217358281
   473   3      5.9314882491475673      18.316328504628931      16.259552810190691
   474   3      3.9748424856979461       18.33950376030575      18.402995739437898
   475   3      5.9839143114000652      16.265464923531731      18.328362681629823
   476   4      4.0701622986501311       15.90442393808369      20.023861513914568
   477   1      6.0603989526131592      18.177201363341922      22.215009703095241
   478   3      6.0363406262691433      18.459365876856371      20.205327416510556
   479   3      3.9997635329124042      18.311607106500869       22.27583827035825
   480   3      6.0921497264016962      16.118688789212392      22.369406042562851
   481   4      4.1817578967354425      20.332158612764925      11.816758310089144
   482   2      6.1670205964198734       22.31343413817126      14.075174134678406
   483   3      6.0080586890159342      22.193508201348344      12.211257080024335
   484   3      3.9815856368620386      22.338714790608915      14.387181243713153
   485   3      5.9013274754454095      20.326166690218514      14.384049485256371
   486   4      4.1339913426908241      20.180713639610907      16.005999771710471
   487   2      6.0993987446577957        22.2642455600391      18.192147658414171
   488   3      6.0027675573616301       22.42702996285691      16.311110795460188
   489   3      4.0131008135812278      22.480382968086992      18.390558683201402
   490   3      5.9143584953959971      20.360086230008228      18.263588353111736
   491   4      4.2219470724625374      19.990054349102607      20.223303128602744
   492   2      6.0785328038598863      22.186063626649876      22.312648122519118
   493   3      5.9474972529300372      22.338068313035532      20.338782052667884
   494   3      4.0506053541984821      22.476763760982593      22.400623847862683
   495   3      6.0139015180270361      20.317527614245133      22.377912823490643
   496   4      8.1441153612983292      11.783704300420464      12.161942707444007
   497   1      10.140663068361343      14.153440495066594      14.129682613279574
   498   3      10.031347008155354      14.128131579695166      12.106885756959954
   499   3       8.020467543033357      14.186854101782707      14.222271165306406
   500   3      10.154089605826815      12.123639754389442      14.470420873082201
   501   4      8.3375886462019011      11.932026843782976      15.935185259653995
   502   2      10.143340287821218      14.037166265593404      18.184502801066007
   503   3      10.100234637873925      14.437864729763756      16.211743554907901
   504   3      8.1318055156627658      14.364608953842858       18.17573038918621
   505   3      10.013706087492181      12.136722743884418      18.029733649241464
   506   4      8.3414523535384539      11.951414851063468      20.069333798409165
   507   1      10.095473402062568      14.142036344149602      22.203345902099326
   508   3      10.021093727892708      14.023627910479156      20.167079427258535
   509   3      8.0240079168505503      14.049866235925329       22.34045502335449
   510   3      10.102328027824717      12.123569208278466      22.526097005272703
   511   4      8.4639309476391809      16.217353150365909      12.102444819488769
   512   2      10.280525850426391      18.176148381052929      14.222033209061989
   513   3      9.9641027442744559      18.390127844964393      12.240458421605139
   514   3      7.9728681783244841      18.406426345819074       14.21135595880914
   515   3      9.9639383947709312      16.261628534551178      14.045263941916536
   516   4      8.3410130336220032      15.970787898965032      16.173437113192421
   517   1       10.13129736924691      18.222184014506571      18.184012204882166
   518   3       9.910792958881963       18.11927633954658       16.15542315729256
   519   3      8.0148045862773429       18.33043497115456      18.304203928882572
   520   3      10.105209534003238      16.202223119479001      18.470419308774183
   521   4      8.3491880207913933      15.959001853717847      19.968327467868548
   522   2      10.116601902823636      18.026360507297781       22.29880643163828
   523   3      10.084087001116133      18.492907021266021      20.314088261600386
   524   3      8.1381326482598055      18.325560935095147       22.28476370778306
   525   3      10.091182864029447      16.171121149058997       22.10997680430734
   526   4      8.4314905606229331      20.162991212139715      12.126034018077904
   527   1      10.152555697071971      22.242356985091959      14.128188564155423
   528   3      10.061170252612049      22.047877616285891      12.124235179166842
   529   3      8.0415849522928706      22.260763308490208      14.308153075684084
   530   3      10.066111327601893      20.214067458365516      14.419271869237463
   531   4      8.3758676462109012      20.087794775084525      16.066028464887019
   532   2      10.182945068695332      22.209748175659083       18.18228555546218
   533   3      10.042234145457845      22.537722138870837      16.291883309063969
   534   3      8.0321574811397127      22.391786115564457      18.381193265538279
   535   3      10.034569688191823      20.321298244337051      18.098268494107423
   536   4      8.1532425849927037       19.84722311373319      20.257763365628435
   537   2      10.041700192742022      22.181130692460968      22.238869636957872
   538   3      10.087796857688943      22.170835998511958      20.311004334024084
   539   3      8.0796994022054331      22.379374688842464      22.323990528003549
   540   3      10.142649707960398      20.337886816733921      22.467303094901208
   541   4      12.166714691150185      -0.260499506859799    0.075821507094153293
   542   2      14.020397703212341      2.0945922104430186      1.9526569396118276
   543   3      14.288898074306985      1.8494678949236589     0.05281608345582349
   544   3      12.146568701627981      2.0224513556629997      2.1214314290141596
   545   3      14.233838693463582    0.078782098670739972      2.2429009329226797
   546   4      12.030817368671322    -0.12535230773746292      3.7294219369355202
   547   1       14.14727697061651      1.9849679497881747       6.021447748954099
   548   3      14.356020054462752      2.1899721967433967       3.988108575329202
   549   3        12.1079302407359      2.1549894259996996      6.0111039011503751
   550   3      14.373972893256655   -0.052394932264422218      5.8654421374454717
   551   4      12.175471586682614    -0.37619456598502266      8.0253493905715043
   552   2      14.190595285692815      2.0403201460345617        9.93756340037997
   553   3      14.245417081537319      1.7950207869634223      8.0683235694558046
   554   3       12.22117234273624      1.9559212697546888      10.282138808481003
   555   3      14.227573145880475    0.041714724604542668      10.405833656537727
   556   4      12.164389992277322      4.1240533675405793    -0.34128747461216918
   557   1      14.134894851249939      6.0760013514091202      2.0143344231606659
   558   3      14.165954903270498      6.3474501074021878  -0.0019827062392697267
   559   3      12.088154093820888      6.2938136485454148      1.9771994770174139
   560   3      14.317376826822994      4.0232488871046517      1.9022500618223863
   561   4      11.924132352395267      3.8277241913270483      4.1352157002811341
   562   2      14.106815231123816      6.0863872724782757      5.9611014478642863
   563   3       14.25284869572172      5.9154255606027579      4.0617670155216672
   564   3      12.183398167130434      6.0980527501382937      6.1791107350941914
   565   3      14.155488217292747      4.0940694038214431      6.3167115142729493
   566   4      12.092772974594789      3.9313107013468795       7.769571767621092
   567   1       14.15730263460217      6.0293953067800343      10.107288855136883
   568   3      14.158395405138013      6.3848880388465403      8.0841726232391355
   569   3      12.102586915463659      6.2815879108482031        10.1097474189467
   570   3      14.204666331776261      3.9926449151200605      9.9440079190607484
   571   4      12.095659503775659      7.7300623063454488   -0.048090582574588994
   572   2      14.001172608954493      10.141647596912332      1.9532048965727398
   573   3      14.271896592349394      9.9370302867968405    0.057817891609334794
   574   3      12.121640108478397      10.115510376202678      2.1708716776705757
   575   3      14.238087140281587      8.1710985151278699      2.2760250591444686
   576   4      11.987082132060094      7.9937846617800492      3.7325337265382972
   577   1       14.08875825423234      10.118070319374819      6.0317133224050226
   578   3      14.339196697591616      10.279493924793988      4.0058239628394219
   579   3      12.050708589590712      10.277896674258356      6.1174640193498879
   580   3      14.359552131253986      8.0749812685194957      5.9040993012796683
   581   4      12.135400536593773      7.7233316494035646      8.1078006646540413
   582   2      14.166705240059514      10.114606054642257      9.9871734035662314
   583   3      14.208337675295612      9.8918519110095247      8.0969383503727421
   584   3      12.188590193729965      10.113174986722218      10.250891038635963
   585   3       14.17837539191315      8.1377632503915134      10.457223963457905
   586   4      15.839049441134399   -0.063443211693522947    -0.10197212128327335
   587   2      18.191057957454767       1.963361224637618      1.9920475431665932
   588   3      18.355999309571654      2.1383282091351417     0.04627805395477657
   589   3      16.295841634179002      2.0807415032041754      2.0750723018956978
   590   3       18.31040263308908    0.064255058327470541      2.0924360928581449
   591   4      15.836500660739949     0.10641699891065209      3.9533068309526036
   592   2      18.115414691484034       1.976084752448994      6.1142179144323157
   593   3      18.333224239340062       2.209937080268896      4.0164686154584812
   594   3      16.242420051636394      2.2179598255232653      6.0517571499752263
   595   3      18.216054341637051    0.071320914358669885      5.9086073547705213
   596   4      15.971125709149307    -0.27698362653439224      7.8849594825469174
   597   1      18.189700502316406      2.0084032771449696      10.058793186159338
   598   3      18.366398792285832      2.0574397976795962      8.0208000262053396
   599   3      16.165123809515983      2.0223437974816063      10.327835940053234
   600   3       18.17310069399019  -0.0094229035271730533      10.336306585174256
   601   4      15.897756081023839      4.1413624494599111    -0.20597645055533551
   602   2       18.09994186394427      6.0624418093094352      2.0273682774700541
   603   3      18.398960024171398      6.1576562765508678    0.077593264693119585
   604   3      16.242188965968307      6.1545696423882124       2.016985804836561
   605   3      18.367597508129343       4.120875416312205        2.02551837623023
   606   4      15.888318867391948      3.9694420562511517      3.9342105335980304
   607   1      18.166522502422556      6.0728627868779697       6.040109154116041
   608   3      18.409947822020609       6.100008123026301       3.997423715484909
   609   3      16.153614088838385      5.9873117640632101      6.2888392740782608
   610   3      18.469706290699683      4.0419721800328734      6.1013452994074635
   611   4      15.978805199148969      4.1212376421909864       7.808836977370027
   612   2      18.099072209192617      6.0747597091605856      10.043624147966112
   613   3      18.405096513231435      6.1421835337047153      8.1329066584705405
   614   3      16.233488569690813      6.0867627228847807      10.116566037752554
   615   3       18.46233205546196      4.1234861039030655      10.095171087232275
   616   4      15.840347630045564      7.9768868475239323    -0.10846113732082087
   617   2      18.161077526637875      10.132644083593803      2.0079005246053119
   618   3       18.35478231424365      10.134103271044662    0.045581625282606737
   619   3      16.277106604673175      10.128810868265512      2.0633469430371845
   620   3      18.343877623964705      8.1529379671698425      2.0871589434935882
   621   4      15.834784935786558       8.224469250978018      3.9945461985480253
   622   2      18.085479007443734      10.182293867008051      6.1502050703802427
   623   3      18.352276959592395      10.185046140512341      4.0370234168272541
   624   3      16.207375695944943      10.247650429562633      6.1166175277785744
   625   3      18.323430829338953      8.1769206842500601      6.0272262199243949
   626   4       15.91282538807333      7.9267571422099028       7.851051538115958
   627   1       18.16487271012155      10.076890381688857      10.092879551468361
   628   3      18.406035110743424      10.072964851956137      8.0464906205825795
   629   3      16.152578980972855      10.072978095102396       10.31943604884918
   630   3      18.320336040658496      8.0283676991506372      10.243965216426171
   631   4      20.239296081568266    -0.29418020365438213     -0.1261950391873787
   632   2      22.222573097705588      1.9562348434823587      2.0417051102935981
   633   3       22.42233152362909      2.2028615336830653    0.090108495632666832
   634   3      20.317395411010576      2.1211742169294885      2.0668333771568173
   635   3      22.385557991193803    0.090741094272843867       2.056788957983462
   636   4      20.031061692179637    -0.25928762542646466      4.1725832458756971
   637   2      22.247448661060996      1.9508147886667735      6.0745552847982687
   638   3        22.3847882682721      2.1887055428346596       4.055077815824534
   639   3      20.319187373594573      2.0301136998506801      5.9783472319237729
   640   3       22.42746493559109    0.076443673944197821      6.0373285457139527
   641   4      20.128547297433961    -0.33187499126819597      8.1316887758358494
   642   2      22.228976512753604      1.9356590288100817      10.125946014248903
   643   3       22.31893651154418      2.1497469457304539      8.0585045158558319
   644   3      20.298320642107306       2.017188893063917      10.166242579667452
   645   3      22.474212023805194    0.056671422552414821      10.125618115632902
   646   4      19.990741626224288      4.0951667398934513    -0.16256819624155616
   647   2      22.241326083366445      6.0336660256914518      1.9873743914782405
   648   3      22.430821183800898      6.2601772873606647    0.088382004975359918
   649   3       20.35413957540074      6.2534569849936075      2.0527393685147359
   650   3      22.331676835369763      4.1614311453648547      2.1002628228343836
   651   4      19.913541868806426      4.0341058387482933      4.1612803205974922
   652   2       22.27002386494571      5.9998597908139946      6.0114951379406332
   653   3      22.361180315353305      6.2800631453165874      4.0746499885196314
   654   3      20.368089007653758       6.314668706958753      6.0894956514109593
   655   3      22.209655054563214         4.1257835885573      6.0345872001694127
   656   4      19.913395786887776      3.9528004383939992      8.0281825309735417
   657   2      22.248307502348446        6.08685960228798      9.9757717396032461
   658   3      22.326485474292209      6.1807711313911708      8.0722043531632828
   659   3      20.324033494193877      6.1991805476863719      10.197717135298294
   660   3      22.226721800601993      4.1136003878204841      10.146553431592096
   661   4      19.981391231301551      7.9391210042870668    -0.16749571185071752
   662   2       22.22734502214184       10.08697150921177       1.976168157775458
   663   3      22.433419182846055      10.259774341450715    0.074398638406165979
   664   3      20.345314936262618      10.171771502654645      2.0907539994637769
   665   3       22.46403094137457      8.2096819150602727      2.1186388363620692
   666   4      19.924554104710712      7.9634459855651123      4.1498289490637736
   667   2      22.247811870623501      10.045513236464913      6.0505505597249103
   668   3      22.453206453424318      10.254603738771188      4.0737796740923917
   669   3      20.337890759570023      10.125734749557406      6.0119951315363496
   670   3      22.441159037117252      8.1816698021001777      6.1126766192598314
   671   4      19.932813136156287      8.0142643764696011      7.9212490433745444
   672   1      22.295059902457588      10.067794076288509      10.057250227377036
   673   3      22.308514739635797      10.345819665270749      8.0145066763609449
   674   3      20.273472499757496      10.144531905442376      10.200312188752642
   675   3      22.461452929599222      8.0480820116514789      10.235051622634051
   676   4      12.226916580414288  -0.0046440118740149663      11.769378664075301
   677   1       14.19590088175746      2.0044940008315115      14.164367513202052
   678   3      14.159491669027293       2.327059801256127      12.163528715909644
   679   3      12.137876251631235      2.0875581391439124      14.289673787183704
   680   3      14.265978064129953   -0.035673698469202382      14.121010085346377
   681   4      12.283041867989937    -0.29108736948773101       16.01882441858373
   682   2      14.022046478210735      2.0550966515720983      18.206062730659081
   683   3       14.36584578022755      1.8564558939837492      16.285930405452039
   684   3      12.136769934782858      1.9904932314450849      18.298988029887813
   685   3       14.22683744499963    0.066863758828921066      18.497241796275702
   686   4      12.035236283396831   -0.028560711362468075      19.937543968401073
   687   1      14.154408237657462      2.0229159759289019      22.258487425571879
   688   3      14.320344250541694      2.1985585295007155      20.219724182838217
   689   3      12.117329920288098      2.0640763581633768      22.354267734683404
   690   3      14.399034462971704   -0.030213560968222076      22.149915010958626
   691   4      12.241972948369819      3.6939716461455707       11.99915817349612
   692   2      14.077305670124897      6.0912424862497225      14.061791417682107
   693   3      14.224864304863386      5.8126432096468301      12.184633383506851
   694   3       12.18229128734807      6.1406043336662952       14.31280386597234
   695   3      14.155076841939755      4.1182772955067239      14.515553931180712
   696   4      12.105343079154991      3.9617854096802212      15.896303910116991
   697   1      14.136467145695878      6.0525061588326619         18.180397462761
   698   3      14.222457561801788      6.3936186582759813      16.163559587261346
   699   3      12.087092348699127      6.2448212324884702      18.156235167462903
   700   3       14.30334652540237      3.9990134020967316      18.105679871762817
   701   4      11.883412657608993      4.0319468633427222      20.163796915456331
   702   2       14.16565380153204      6.1479784508536452      22.136170239688735
   703   3      14.122459399788017      5.8304580884365711      20.255007797073173
   704   3      12.174365851872368      6.0636072520356059      22.463574902995255
   705   3      14.125869795565553      4.0951407063624492       22.56226687797842
   706   4      12.084985274627948      8.0299943991702651      11.743902844286545
   707   1      14.148901096744661      10.082228527861814      14.140753661495367
   708   3      14.167462947676905      10.434537431854618      12.137201216087943
   709   3      12.106533430723454      10.187841844576456      14.174765612948148
   710   3      14.432752519443431      8.0299705012410918       13.98182481271181
   711   4      12.159933291942625       7.745382678282839      16.233093501647026
   712   2      14.082629099667859       10.11542722816092      18.103561522437733
   713   3      14.265524550967907      9.8439482937907243      16.208589225257491
   714   3      12.151934359178645      10.092327593115906      18.314892167804047
   715   3      14.183422755408818      8.1347188147895935      18.512025145603133
   716   4      11.998024039994121      7.9454605359446031      19.920494133998453
   717   1      14.136998386761373      10.111870053862221      22.248962480060989
   718   3      14.137189463226361      10.438355852074958      20.225107483652099
   719   3      12.095707767180251      10.256357138029621      22.268169911205746
   720   3       14.28122654381702      8.0785846794157194      22.126828387326039
   721   4      16.145234486314923    0.047007347946204217      11.769162726267261
   722   2      18.208291858118724      1.9621255412871843       14.06991962185711
   723   3      18.330389813135422      2.2004761364273544      12.195701596521149
   724   3      16.295570079735057      2.2526717766428672      14.215534582936638
   725   3      18.264849105022623     0.06732265786222176      14.222565928081693
   726   4      15.883596642121439    -0.15201569696294978      16.079323122233795
   727   2      18.189758300639362      1.9566708792449237      18.197967855818423
   728   3      18.269782896661184      2.0834171975993794      16.299768259398501
   729   3      16.301783305383964      2.0751565899082074      18.365809983875661
   730   3      18.318973526332165    0.049903194140050781      18.367347687485566
   731   4      15.824416589072618    0.012445331834479439      20.214058761446108
   732   2      18.126813182607073      2.0254968989172819      22.251373217990977
   733   3      18.370179388882516      2.1570005213344925      20.324864131517259
   734   3      16.266124329393282      2.2025255674436668      22.340027559377653
   735   3      18.245879330850521    0.087946869274611483      22.341654342608482
   736   4       15.95484877960107      3.8054854737765136      12.013648999009716
   737   2      18.204091687463027      6.0587314971765736      14.088062026281333
   738   3      18.322548301207128      5.9987683517223767      12.188635012515951
   739   3      16.287473007588115      5.9709993966648192      14.280087309262093
   740   3      18.420335723802225       4.106916977703869      14.343239147980439
   741   4      15.928280327629764      3.9188386603883165      16.042229715637344
   742   2      18.094406140878263      6.0432861767724084      18.222588135813314
   743   3      18.333162619955733      6.1408788945099095      16.276767829675205
   744   3      16.223607247217451      6.1097765009205061       18.32919369565775
   745   3      18.376776738061221      4.0660651927520286      18.336194586719113
   746   4      15.846792827503995      3.9972313714192929      20.131352620873862
   747   1      18.145233168140376      6.0916167815201492      22.274541734294225
   748   3       18.43744750851689      6.0554579552134937      20.245936489042069
   749   3       16.12859713614634      5.9828684403866044      22.411746068330238
   750   3      18.474740717623256      4.0393254055318879      22.354506021804479
   751   4       16.00217466908563      8.2022871451446004      11.934504566164394
   752   2      18.119714458685639      10.185987486152538      14.129058197630005
   753   3      18.365194215873192      10.082530250059257      12.230498064825522
   754   3      16.236646150244077      10.190438428986841      14.181440533459099
   755   3      18.272329262963737      8.0608445578187897      14.267334364009253
   756   4      15.902653716076092      8.0337944166226087      16.018810655997363
   757   1      18.174531260214092      10.078499876586926      18.212299019851081
   758   3       18.41701080628809      10.043591564423252      16.181032213114037
   759   3      16.152970619501581      10.053518640875284       18.45760763708045
   760   3      18.327992540098293      8.0319417247021931      18.362431453182829
   761   4      15.999969434953709      8.1992556759511945      19.967751153389575
   762   2      18.078965166289738      10.136106440614521      22.244602781521838
   763   3      18.382173138161459       10.19443133437778      20.329359297225249
   764   3      16.218710263273394      10.222667042227082      22.279841145564713
   765   3       18.36419769767981      8.1836006622137774      22.325491120902679
   766   4       20.02507889940086    -0.21379920441082023      11.848268081458409
   767   1      22.260606611408356      2.0227702476009779      14.099529593334724
   768   3      22.377277945262751      2.1622296495184643      12.071653760548093
   769   3      20.221295640945364      2.0452719885246298      14.408364101980844
   770   3      22.337837756158009   -0.020870708761884755      14.392319474070735
   771   4      20.238842346684823  -0.0036562110182518769      15.841701361670593
   772   2      22.225503610412336      2.0048883118573699      18.200864988120376
   773   3      22.352946710962989       2.103673338003472      16.332616136617421
   774   3      20.322007293259126      2.0835542945460612      18.329097032624723
   775   3       22.42408557922149    0.094254253368578705      18.350211622967514
   776   4      20.301322022833652    -0.33093460674779845      20.391366220652152
   777   2      22.270005415568242      1.9812959008159765      22.281714551281922
   778   3      22.389339242812053      2.1623292167655905      20.375762630310941
   779   3      20.358744090935375      2.0810286834657066      22.427104576614887
   780   3      22.411238682019032     0.10697601714342928      22.408248987973234
   781   4      20.128021483690723      3.8711782686594791      11.842990689109532
   782   2      22.259905551468218      6.0043411577764747      14.026439445576354
   783   3      22.317583050525535      6.0613024652160563      12.168753353496539
   784   3      20.307828392901357      6.1554919268250119      14.318447009670809
   785   3       22.24168181588589       4.104699546364353      14.355436852869687
   786   4      20.241795061102628      3.9098963331329517      15.923179106704406
   787   2      22.241559716456237      6.0632315327347621      18.164752218709257
   788   3      22.363612950706518      6.1591690402901369      16.292367745246594
   789   3      20.349217727328693       6.149185399229701      18.327380425812279
   790   3      22.373960652662404      4.1165072203200221      18.390107935434283
   791   4      19.922662863163037      4.1408489572618326      20.298826721250155
   792   2      22.301474755093182       6.047880290089819      22.226191437866973
   793   3      22.358352717594194      6.1755736681405065      20.347201780011513
   794   3      20.397386733973274      6.2174891734574427      22.439304508091837
   795   3      22.335896021919631      4.1573745827569111      22.442387863656482
   796   4      20.139463907118806      8.2914262242850079      11.732730276359053
   797   2      22.247058347227654      10.007705135431095      14.110377545137396
   798   3      22.328973201585029      10.146570179537786      12.224603845432547
   799   3      20.347019950274785      10.053862725654827      14.281286852617649
   800   3      22.444342363431751      8.1075376274255131       14.29794379694977
   801   4      19.885634746740017       8.141638146275648      16.189478004040769
   802   2      22.204194330919432      10.150313376394918      18.155474387915625
   803   3      22.378914756198181      10.186273290102081      16.242034644628319
   804   3      20.318994699747062      10.053520765760219      18.297250546497644
   805   3      22.457715932060243      8.1196361127730565      18.362274666121337
   806   4      19.888397304124602      8.0238106037297463      20.177553174663824
   807   2      22.242916462144681      10.070040485779879      22.255492930266726
   808   3      22.414054605355755      10.151388257985868      20.348089169690045
   809   3      20.363777591158222      10.152334692267356      22.387429530937442
   810   3      22.447868821908742      8.1783580722413252      22.436295699864857
   811   4      12.065967352784984      12.161546124801053    -0.38599709692926265
   812   1      14.112456229372025      14.138745363129852      2.0454635559117951
   813   3      14.194683029371172      14.385985146360234    0.040351606697781414
   814   3      12.071484666355577      14.340307211733641      2.0694737753088899
   815   3      14.306802360863715      12.086603810185409      1.9332186836891727
   816   4      11.862906398025084      11.956524471919359      3.9046190599186024
   817   2      14.092686219948749      14.201765524951119       6.023415288240634
   818   3      14.235640568570018      13.941602994572802      4.1080812125317721
   819   3      12.118518903729401       14.32093936990608      6.2311437981370927
   820   3      14.117671569892783      12.205552112201339      6.3968115409350101
   821   4        12.0905729081486      11.901690616462323      7.8968215639945116
   822   1      14.166996793011709      14.144625283853202      10.105172056676334
   823   3      14.173541242227632      14.496241334292099      8.0875625508882187
   824   3      12.118273297811282      14.403331394861338      10.104081937482006
   825   3      14.279640229388775      12.097615818952823      9.9092980599862681
   826   4      12.294051717428358      15.863646754858562    -0.18882281909584034
   827   2      14.234982012508731      18.129041786402656      1.9602846853994975
   828   3      14.077972557238896      18.046315794992122     0.02004858171724461
   829   3      12.182019392832188      18.154183874860387      2.2063091872352625
   830   3      14.227006428847405      16.207668763859253       2.337439178286159
   831   4      12.048621848150358      16.166607379247083      3.6893747711026861
   832   1      14.203711403999026      18.166978133918168      6.0477352559725119
   833   3      14.260849573120778      18.515962907353966      4.0113075372580926
   834   3      12.163191451348679      18.228430324464959       6.083064016381214
   835   3      14.352165857951013       16.14773745125143      5.8155917161151738
   836   4      12.246038279155698      15.989694167689111      8.1888334399932052
   837   2      14.241565027267182      18.249447149888091      9.9704024915626359
   838   3      14.180875532320901      17.989039010975347      8.1045436502301396
   839   3      12.217118427939571      18.108011240657405      10.327541846779035
   840   3      14.237351777558276      16.246464180751911      10.458314139551989
   841   4       12.17684350256844      19.847694022678802   -0.076792268955048593
   842   1      14.164278159371737      22.233660133101715      1.9739421355481475
   843   3      14.136717088292709       22.61411386210218   -0.039828097627701946
   844   3      12.098088364950526      22.488622875015295      1.9497297384238732
   845   3      14.031168399071618      20.187877171988351      1.7833911276203449
   846   4      12.372576602657682      19.985006825785085      3.7777852506891731
   847   2      14.148352252723599      22.246412391657344      5.9053844819615717
   848   3      14.155284561505837      22.096017198821691      4.0182874808605424
   849   3      12.206052302204363       22.30085505852449      6.2159302522038757
   850   3        14.1284137023481      20.282314237445036      6.3653610968919114
   851   4      12.273084740701051      20.241778561340674      7.8484302643221051
   852   1       14.18860146745727      22.232378714340609      10.074687016518757
   853   3      14.154447692301364      22.588402687764365      8.0621512432051521
   854   3      12.141528405141575      22.434992239631924      10.087826966869699
   855   3      14.031887983815286      20.195609314535155      9.9476677578379711
   856   4      15.833454729474919      12.249667796081985    -0.12411622104943251
   857   2      18.091169359591774       14.23583424648381      2.0721264323935031
   858   3      18.361267492557857      14.178609821861157    0.078596658867860436
   859   3      16.218409916989007      14.150287449162073      2.0760368454018119
   860   3       18.38481879538482      12.139375416586438      2.0172591084436942
   861   4      15.831534913550783      12.102092330819756      3.9529164029244943
   862   1      18.192950029310932      14.107716947972193      6.1157648398732762
   863   3      18.412852005867201      14.100589106751718      4.0155536112393175
   864   3      16.130591720288567      14.081572895707861       6.259540136612368
   865   3      18.405021348688305      12.098233796885417      6.0421037733331797
   866   4      15.935493032186498      12.215238650268301      7.8996035344842399
   867   2      18.176098906210033      14.033036603479346      10.150467730471993
   868   3      18.228924067831542      14.397482593267851      8.1545815210293213
   869   3       16.22655681779078      14.261938961525066      10.115388636629758
   870   3      18.326388715074415      12.136300462472962      10.072386808284499
   871   4      15.930244763398074      15.909062721197627    -0.21850810172107971
   872   1      18.207279650296581      18.173771942384239      1.9989080384467397
   873   3      18.469750217294859      18.237745652695917   -0.056707991070648577
   874   3      16.169323778461948       18.35393336700891      1.9906765672620035
   875   3      18.329493341138193      16.142707191783405      2.0919226767975778
   876   4       15.97406201178735       16.09974610099426      4.0826211735040694
   877   2      18.215922747935718      18.102787271826884      6.1263745336309032
   878   3      18.151200350977881      18.462277907330691      4.0572483125476513
   879   3      16.248599650207904      18.465457904004843      6.0500859474705422
   880   3      18.109011619711652      16.203491437215693      5.8808068606369419
   881   4       16.16140724102846      15.844896205038095      8.0152679922843433
   882   1      18.226873031534918      18.218558168464646      10.130097579576654
   883   3      18.374830866906414      18.188732389555422      8.0634767903810047
   884   3      16.182190871702467          18.26128651997      10.286934660306006
   885   3      18.237803260379131       16.20185052928224      10.277417394498046
   886   4      15.891668138406612      20.138783717307064  0.00071215258463834161
   887   2       18.10151345374172      22.196051649166812      2.0402898502981843
   888   3      18.395242826458812      22.452301873964473    0.025680744777555019
   889   3      16.239332620401889       22.30011813568246       1.933751392454768
   890   3      18.373659993117005      20.322591462453957      1.8623771925317019
   891   4      16.212126218137101      19.896346664999843      4.0116340587405626
   892   1       18.18487855835998      22.273028381685378      6.0332909773657031
   893   3        18.3762775357383      22.261621934111687      3.9583932654412526
   894   3       16.15558376595876      22.160425269411547      6.2418660634694927
   895   3      18.395606453081779      20.246038062886857      6.2010234744258916
   896   4      16.138956022304765      20.242086450977538      7.7096735553972886
   897   2      18.120363301874239      22.230825774223892      10.105879253633017
   898   3      18.346815132003897      22.391122366873166      8.1227786770159671
   899   3      16.217825631068195      22.324617541563818      10.115779229689537
   900   3      18.421378530870225      20.295990511264094      10.030458515130752
   901   4      19.939244363453025      12.261423880959764    -0.13428613270809039
   902   2      22.235199086232697      14.082512485263715      2.0340667188750468
   903   3      22.452321261403412      14.221255472525065    0.093944562942516366
   904   3      20.347616969817619       14.22944441266627      2.0162901710367187
   905   3      22.377040159751925      12.201939684017781      2.1597677012900385
   906   4      19.932074291953676      12.137270201073951      4.1745613086810245
   907   2      22.164209901683463      14.155727950971295      6.1756694872657665
   908   3      22.335906545429818      14.385388324535263      4.0492611581394842
   909   3      20.287336053405131       14.39367186146613       6.068059131796617
   910   3      22.259339796438503      12.249215062462136      5.9751359671385211
   911   4      20.330626594539037      11.799979212304422      8.3863312552939497
   912   1      22.256462993958696      14.183501370627377      10.120792259591694
   913   3      22.379822669745099      14.274644689707285      8.0691778874034661
   914   3      20.219213656433041      14.371522655132962      10.097127977128855
   915   3       22.17595898106271      12.175363934060799      10.257013865888226
   916   4       19.93812661831236      16.014588610661164   -0.080629131258508652
   917   2      22.201871005155571      18.096832344796905      2.0494701730856226
   918   3      22.339881481747899      18.369818194453654    0.063398959169891717
   919   3      20.331048331660892      18.313805340529221      2.0849454574844208
   920   3      22.414567882196216      16.222238104028715      2.0101683170021749
   921   4      19.990127673943014      16.038957301317989      4.2094800339648577
   922   1      22.210808844758549       18.18675647139937      6.0578305447684659
   923   3      22.491728600271454      18.252938995817924      3.9891328321444592
   924   3      20.188678000794802      18.164929897927884      5.8544856593886676
   925   3      22.532455058870585      16.186376286261773      6.0738254051519398
   926   4      19.974815422779404      15.996661205742409      8.3367545798392797
   927   2      22.164047618389549      18.308888962253011      10.004406711396351
   928   3      22.402925236720378      18.254464026824873      8.1132940759554142
   929   3      20.303410658921869       18.16637682594634      10.177128493043577
   930   3      22.516133467956358      16.316927605038487      10.136187702949785
   931   4      20.028757376125249      19.996084009393464    0.064394420968851063
   932   2      22.237075146849161      22.170503846246682      2.0322136913822648
   933   3      22.348735551306454      22.400990063656955    0.089642112836247623
   934   3      20.330839898232547      22.444592239123274      2.0151122791618068
   935   3      22.337497902683207      20.291771712064293      2.0909116786763056
   936   4      19.947643508833949      19.990564347141927       4.202086746301668
   937   2      22.237653846015501      22.132658632366965       6.106027615445063
   938   3      22.337224140478025      22.438361918598755      4.0442862706373628
   939   3      20.310829178379201      22.505855107013826      6.0327681340563455
   940   3      22.235655201851898       20.26287132874894      6.0162623406030011
   941   4      19.880152636660362      20.179079306070651      8.0604903900611671
   942   1      22.248482726784335       22.25338583120724      10.064612447421924
   943   3      22.285539150009367      22.439402770858528      8.0177909040738502
   944   3      20.236922243203239      22.566041543074714      10.065694854469253
   945   3      22.316412083954884       20.23464862687883      10.223007958148459
   946   4      12.184809247437306      11.791755234515175      12.073396564150448
   947   2      14.179665905868065      14.205423453471091      14.005523315129789
   948   3      14.177950977215566      13.849644815145716      12.141065839975806
   949   3      12.201064483239913      14.144443744419924       14.35253007448542
   950   3      14.147339436541518      12.166232969274112      14.496422380943004
   951   4      12.153828034752323      12.159813457729443      15.825406172313157
   952   1      14.148896086876158      14.134278686903265      18.177127111385552
   953   3      14.208382806540898      14.465940910541951      16.174987789058584
   954   3      12.100914691959433      14.321905103510753      18.154291443605075
   955   3      14.314735100065812      12.082337124366902      17.998157367699005
   956   4      12.102570386329313      11.782402987003881      20.185614244816581
   957   2      14.159763548986398      14.154470235515934      22.074439614224303
   958   3      14.170131730888397      13.927144810701614      20.218057860835962
   959   3      12.180822606623058       14.12794880302301      22.463866111751578
   960   3      14.120971004716001      12.189873052104579      22.585572964239191
   961   4      12.391828857317492      16.295317860723223      11.913887141327432
   962   1      14.205697219677209      18.176680305198872      14.154942991143457
   963   3      14.200156307266194      18.547385786856072      12.156522747290653
   964   3      12.150090753640855      18.293377606102382      14.180792976459946
   965   3      14.211352026972053      16.138742507903693      13.915606596931065
   966   4      12.233553962329026      15.828182438943481        16.1222518266372
   967   2      14.149973573286138      18.242042612366767      18.055511482745349
   968   3       14.20571682637328      18.007583010645455      16.192433832184136
   969   3      12.186112705201998      18.197664074978274      18.404619149493097
   970   3      14.182220751926051      16.242852337024665      18.506409563381933
   971   4      12.125938057719452      16.146122169619659      19.839285124923062
   972   1      14.140442413067257      18.167016673351508      22.240623898105465
   973   3      14.176755116714068       18.50960977613623      20.262891783007461
   974   3      12.087764827678503      18.376901315962254      22.239529366427615
   975   3      14.193907382270861      16.120215385625926      22.246587007136977
   976   4      12.415522123476347      20.028815853461332      11.933879056455577
   977   2      14.214469088951224      22.308445196195741      14.010772470579127
   978   3      14.126743980100843      22.057175621225625      12.149920907405029
   979   3      12.202847406900094      22.261638169787918      14.406742304549637
   980   3      14.146583886772062      20.308882020456178      14.506507443494378
   981   4      12.275603643716392      20.321119059648847      15.883977364899623
   982   1      14.165954722841368      22.248800719447537      18.242594527595955
   983   3      14.159266374246114      22.565445868314065       16.23776405030447
   984   3      12.084375748729395      22.440637428808529      18.290431465072071
   985   3      14.241849917220883      20.204360411737916       18.06740921405607
   986   4      12.168133419656348      19.816524005926929        20.2137408945717
   987   2      14.053883795118944      22.258120802983804      22.219201539545782
   988   3       14.28102156790578      22.157253293779494      20.323478201315829
   989   3      12.110706264373547      22.445930360047367      22.326087122527387
   990   3      14.164965046975425      20.345190279759098       22.61036665011633
   991   4      15.936992211910463      11.969644301294986       11.93020043163998
   992   1       18.20895901000593      14.118928284348122       14.12636097415179
   993   3      18.308226550285433        14.1875258397476      12.103592760020065
   994   3      16.151312993786746      14.099388247351794      14.362014412947696
   995   3      18.355195140727442      12.085508090975514      14.356773686155567
   996   4      15.928648434098282      12.184087860995856      15.987742284922048
   997   2      18.144179337217764       14.13564385510527      18.220853780932718
   998   3      18.300674955450638      14.290812041221248       16.25062129863214
   999   3      16.220345175282628      14.257688685826199      18.228215497602001
  1000   3      18.382386340357197      12.166659969264655      18.196379683866954
  1001   4      15.922512894269264      11.934912784481291      19.974594102140923
  1002   1      18.159065879706517      14.118157591783545      22.234428374558497
  1003   3      18.425935394300151      14.066925089514644      20.224648998326337
  1004   3       16.12887432096645      14.119956943761261      22.456115843917427
  1005   3      18.434233893643928      12.092975588137053       22.38035750128434
  1006   4      16.276463410812621      16.162311578138482      11.782699070544425
  1007   2      18.148863349722113       18.13624138133299      14.249893476139903
  1008   3      18.246662038484526      18.464537769950915      12.228722125631299
  1009   3      16.248639789350356      18.441518876743732       14.19810043080459
  1010   3      18.237441197228243      16.249604478038222      14.124504654966215
  1011   4      16.089151254962367      15.868802814238041      16.048942421660964
  1012   1      18.210524283526016      18.216512874823042      18.198311893888032
  1013   3      18.374970940989989      18.300310371422743       16.17601972057966
  1014   3      16.158152559605323      18.201796553271148      18.429135552973186
  1015   3      18.199780547658076      16.187838387595519      18.474615479517603
  1016   4      16.105869686619393      16.263825205510464      19.863797528098395
  1017   2      18.073428700008847      18.096267179590555       22.29685969148969
  1018   3      18.286112884389986      18.425389938307028      20.388146974894557
  1019   3      16.211763838142552      18.334339252355711      22.400802828061458
  1020   3        18.2912373796309      16.209000447093459      22.299437986086794
  1021   4      16.162599556551331      19.903834057087153      12.102338759065658
  1022   1      18.189895295402756      22.292467605909838       14.16304982537978
  1023   3       18.42225576387337      22.211203192939436      12.109330661816044
  1024   3      16.153987647614969      22.182313277285086      14.352401177918043
  1025   3      18.436137033187652      20.267196308310425      14.263017959238063
  1026   4      16.053463824204897      20.285030313309633      15.915126090116562
  1027   2      18.127827043466702      22.263851456475976      18.177016643647153
  1028   3      18.344702460421914      22.330403973108083      16.303742433364928
  1029   3      16.264333699743613      22.338501058671842      18.287785962698123
  1030   3      18.402015539029335      20.353489645843265      18.332872619475552
  1031   4      15.942674390201974      20.007097532483346      20.053615930466634
  1032   2      18.173707903109555      22.197525381871632       22.28565036670831
  1033   3      18.332692928504084      22.340595835243771      20.348052819404622
  1034   3      16.246046382330704      22.256238668760993      22.437852577441213
  1035   3      18.355298909647644      20.307394189590383      22.445489941622789
  1036   4      20.354040620020317      11.921097966836468      11.776868168453216
  1037   2       22.19711941061345       14.03830906757471      14.170757887022868
  1038   3      22.308030547236392      14.380082036763142      12.255431290207028
  1039   3       20.31176996813549        14.3295448573513      14.271596823900662
  1040   3      22.269590623432439      12.149956787208403      14.210355968628331
  1041   4       19.88264451030664      12.001371609605819      16.202806908723325
  1042   1      22.250823659587549      14.114434495421252       18.19686089431541
  1043   3      22.338029714583438      14.352579127558336      16.157351232514333
  1044   3      20.236964343073737      14.396897473140834      18.196906117635308
  1045   3      22.313761482838387      12.082584552661286      18.400778652376555
  1046   4      19.910477317498323      12.116535467938427      20.152558942447531
  1047   2      22.252802902063472      14.122771537515021      22.195954789900714
  1048   3      22.321654723525871      14.302832103168194      20.317724886979491
  1049   3      20.352022515267343      14.229385024422628      22.464810962894795
  1050   3      22.376782792291504      12.192104137684487      22.365666958286834
  1051   4      20.005189908976615      15.950505718664225      11.994181485328115
  1052   2      22.251115596777058      18.190354824032319      14.088923497498255
  1053   3      22.418759859914211      18.272894892323354      12.204436149476408
  1054   3      20.337402963968991      18.307505887443067      14.181886720609636
  1055   3      22.407102484788957      16.314998463531456      14.287760548993562
  1056   4      20.167758034343564      15.826649374269552      16.200909624107133
  1057   2      22.251097214633802      18.142933167145188      18.155136775130376
  1058   3       22.30402603114263      18.375871325818245      16.271995470083798
  1059   3       20.36605273559768      18.266381937912151      18.468964669256323
  1060   3      22.449716067184593      16.285173373872837      18.285303123734433
  1061   4      20.015010475857569      15.979888737686514      20.003331712227574
  1062   2      22.217970359895975      18.205582493784032      22.228282897976932
  1063   3      22.487424580736203      18.248321275140793      20.325586666748531
  1064   3      20.328659737496061      18.281807154058495      22.272006511072231
  1065   3       22.38308457519506      16.235952819720648      22.455859116446394
  1066   4      19.854597094247282      20.207207352273194       12.17522538657909
  1067   2      22.230960755807498      22.312898009783819      14.053765908220416
  1068   3       22.29299630529162      22.367065858070813      12.191413056156994
  1069   3       20.33250092287922      22.379358162291819      14.347159928023601
  1070   3      22.347252186074403      20.331724375483791      14.312161871300599
  1071   4      19.945600532633591      20.233090134123916      16.000606017985959
  1072   2      22.228045110199961       22.23274662026494      18.243735297724673
  1073   3      22.386394376360187      22.321763632800607      16.346335925026441
  1074   3      20.322622209553188      22.432149296438592      18.393121261985804
  1075   3      22.321054332176139      20.323543609137626      18.466775220921729
  1076   4      20.004132259765765      20.034042014495242      20.111446727161148
  1077   1      22.273641115573916      22.206157850988387      22.315868964933831
  1078   3      22.331482880052665      22.504204760127166      20.296633843703209
  1079   3      20.232105016527832      22.520057022051009      22.334295809553399
  1080   3      22.497477853314763      20.180841561273528      22.325684201530535
