(written by ASE)

1080 atoms
4 atom types

0.0      24.299999999999997  xlo xhi
0.0      24.299999999999997  ylo yhi
0.0      24.299999999999997  zlo zhi

Atoms # atomic

     1   4   -0.079004936266680717    -0.29773387248378408   -0.034502780861890306
     2   2      2.0534114724490777       1.929639792806197      2.0517666170852076
     3   3       1.883430975968772      2.1674587003761978    0.092871718445180371
     4   3  -0.0012415369530109177         2.2647764815141      2.1143718443515116
     5   3      1.9538572287701292    0.062026015829623721      2.0915861391515111
     6   4    0.086642234258932666    -0.34651638703762028      4.1240482218655306
     7   2      2.1060459298210477       1.909739929530148       6.111602473499774
     8   3      1.9256940136695933      2.1890084132414125      4.0552063260525264
     9   3   -0.040166047746820727      2.2692164953334357      6.0357849554660969
    10   3      1.8407631505079236     0.03784018767994439      6.0226646275682079
    11   4    0.016285965522175122    -0.28155309945840429      7.9120329397907865
    12   1      2.0694941780479916      1.9976948991976822      10.058494070025468
    13   3      1.8612804308144546      2.0475165131370314      8.0177230474890955
    14   3   -0.037356268171756794      2.2442846660263363      10.094523948383616
    15   3      1.9227886523777014   -0.030332069789502362      10.329919483079756
    16   4    0.018230008783909981       3.836165325104957   -0.015719687067544747
    17   2       2.055961700132495      6.0118829118012478      2.0584676623955822
    18   3      1.9836441656869888      6.3398468576341589     0.12446646516621607
    19   3    0.024628065260220249      6.2941668944089075      2.1484301401950634
    20   3      2.0069508566178644      4.1385687947215768       2.052169519245985
    21   4    0.012706422411536935      3.7674465268464012      4.0528088263207422
    22   2      2.0205564994523355      5.9676073579927538      6.0888626174587017
    23   3      1.9844412067716861      6.2036714450409542       4.098666769968232
    24   3  -0.0026267421281645316      6.1495141841477414      6.0887247818423278
    25   3      2.0396049809243819      4.0873894318933885      6.0972415470534926
    26   4     0.15705702600204563      3.7371139521941319      8.2113058961564054
    27   2      2.0911689391350361      6.0025615930347254       10.23986162720132
    28   3      1.9456443200388767      6.2468914657155175      8.0606191739564235
    29   3   -0.023532520186868411      6.0355354315646679      10.129113935107727
    30   3      2.0196855224671055      4.0984439173056968      10.020196428500622
    31   4    0.040721135716938826       7.965166331722795    -0.10654002313718515
    32   2      2.0165445893646878      10.084889266135924      2.0077795712217288
    33   3      1.9841824616528687      10.184109161937956     0.11941387161919025
    34   3    0.074244970687523087       10.30168827080489      2.2280229790388666
    35   3      1.9999477105554397       8.210978059542704      2.2300441347480673
    36   4   -0.047979468936253024      7.9438062078385387      3.9679894372692455
    37   2      2.0730369566335485      10.026536042610696      6.0808749411046898
    38   3      2.0851404977206176      10.365978142049659      4.1266219043552548
    39   3    0.062195298839877233        10.4378650614404       6.080902298413041
    40   3      1.8869337487479794      8.1581805053100247      6.0822416556887315
    41   4     0.21024147485490266      7.9841601746286397      8.2239824391963374
    42   1      2.0641187101212588       10.06291768132648      10.099990301889667
    43   3      1.9630655731769864      10.239425388997038      8.0557622058732612
    44   3   0.0036220872790166453      10.270016507440468      10.178511645919805
    45   3      1.7539670611889995      8.0597913688373275       10.08140189426884
    46   4      4.2083792570378664    -0.27096801538309462     0.17994959147503636
    47   2      6.1990316368436167       2.046060377887188      2.0802986987958576
    48   3      6.0291949311565194      2.0887987316933776    0.038635043341572022
    49   3      3.9661983651652282      2.0885435738351421      1.9819392835540766
    50   3      5.9602810707425693    0.088488190048889373       2.118498907396551
    51   4      4.3922503421610841    -0.16432152383203338      4.0463450933812908
    52   1      6.1236339621755596      1.9895957444304275      6.0456538082281268
    53   3      5.9382397041975192      2.1576022656927005      4.0202563543411181
    54   3      3.9854701625469957      1.9803450309206427      6.0842181141752905
    55   3        5.97335154672533    -0.03996614447556926      5.9552942154810653
    56   4      4.3338269972427446    -0.17116127041211898      7.8213929806761353
    57   2      6.1453778026828596      1.9627642018405902       10.01469150214332
    58   3      6.0281411233082389      1.9701841602439163      8.0946361220733856
    59   3      4.0932556631296659      1.9296765524010127      10.280296211339648
    60   3      6.0833346621994142    0.024311781891083885      10.322562174052774
    61   4      4.3264738216873759      3.9811849615377302     0.12738989518999311
    62   1      6.1056644985269424      6.0483904062480613      2.0338963305714479
    63   3      5.9780178072278805      6.3001231810941913  -0.0031791956420833948
    64   3       3.970945517358575      6.2783899414873163      2.0546358033069869
    65   3      5.8910534776799297      4.0333266028466461      1.9926721217572092
    66   4      4.4330023490348625      3.9996138624890536      4.1224090952222472
    67   2      6.2506214228933175      6.1188260971178705      6.0905981477231705
    68   3      5.8957087395302663      6.0267283148237194      4.1182934155011166
    69   3      3.9416230593003885      6.2323761626475669      6.1162769775793162
    70   3      5.8639811973919755      4.1059719297456461        6.12666508963071
    71   4      4.4207023457513355      3.9905854324512466      8.0471422997663034
    72   1      6.1317971072890352      5.9850457827636765      10.103079685275564
    73   3      5.8763637118921297      6.0944385421177536      8.0498252203934566
    74   3       3.994559722176386      6.2582806310741823      10.052535138570489
    75   3      5.8756268468984727      3.9869198344672738      10.023435032075596
    76   4      4.1998639615962148      7.8375644949826677    0.045473778280270653
    77   2      6.0807241383934372      10.073746240502132       2.018282059878004
    78   3      6.1040500868064189      10.107877042336884    0.069677119768403878
    79   3       4.039400605454051      10.275227009800032       2.135187162796254
    80   3       6.002630028914167      8.1699537078704338      2.2311283309383318
    81   4      4.3277630665353168       7.875947007350371      4.0589550478431438
    82   1      6.0817162327936645      10.070304803726438      6.1183848672954939
    83   3      5.9966514080345101      10.356331255547911      4.0612247807041637
    84   3      4.0013127063445255      10.222726159504925      6.1483972059629419
    85   3      6.0158774710671477      8.0457800753920061      6.0315972481985449
    86   4      4.2380211458781716      7.8041655314205869      8.1401176137171589
    87   2      6.0880781502509249        9.94123010769286      10.156922987462421
    88   3      6.0743548989478002      10.269224109534271      8.1777842187139598
    89   3       4.100470379654964       10.21548790778391      10.101199518833633
    90   3      6.1033843681172648      8.0702305129592951      10.145827026345575
    91   4      8.0848376951281313     -0.2617449588359646     0.12005905718624164
    92   1      10.114489508272065      2.0022482177959589      1.9933739106781201
    93   3      9.9223207459433915      1.8671033815599898   -0.046190218557838898
    94   3      8.0756650378879655      2.0565774940139674      2.1428925471242111
    95   3      10.145091671585591  -0.0030112132829869433      2.3309473671121252
    96   4      8.3398382369348596    -0.19803784328786009        3.86206281253448
    97   2       10.14038102100039      1.8323499145398163      6.1046598125519527
    98   3      10.120617279387893      2.3689024439018027       4.083769417676991
    99   3      8.1623095630262501      2.2455741604270862      5.9980519205764073
   100   3      10.098919868390489   -0.023219483528998702      5.7660155660456747
   101   4      8.2182045891448201    -0.38119632559668437      8.1482171811707165
   102   1      10.158322429918886      1.9466909616003607      10.080290298189688
   103   3      10.065011153533973      1.8388317177003899       8.036260378676042
   104   3      8.0877279115725855      2.0337155993855869       10.24932511865291
   105   3      10.130227257828377   -0.038493355618300015      10.434369045744454
   106   4      8.3974082135399559      3.9275935740720831    -0.10375906336607614
   107   2      10.122588883823118      5.9434179224714505      2.0680244170285098
   108   3      10.104022343686374      6.3676385997540699    0.049198734950380851
   109   3       8.140364354088641      6.2817986173009981      2.0172728459360929
   110   3      10.083446968606092      4.0639355880379435      1.7556801096447401
   111   4       8.282320064048255      3.8209100153437601      4.1647317721229689
   112   1      10.138017127366847      6.0361988568302971       6.058949693599029
   113   3      10.131433275110133      5.7906392165234557      4.0148192950915016
   114   3      8.1055400371261843      5.9438346883260964      6.1642568485783675
   115   3      10.186326778572287      4.0225989233545363      6.3537127943873521
   116   4      8.3550935769422612      3.8352494972324478      7.8757199145828896
   117   2      10.134614655544596      5.8448927535314574      10.165679142504837
   118   3      10.165108344102409      6.3254352007106922      8.1486078475716806
   119   3      8.1583887908201067      6.1244895699175794      10.027503319521109
   120   3      10.198709002222882      3.9910014747562395      9.8878380640709853
   121   4      8.2406296581253606      7.8075213433416328    0.016405140707867024
   122   1      10.061403035099168      10.121054390129542       1.976670031848667
   123   3       9.932639519850845       9.937121722205891   -0.053395029089186211
   124   3      8.0181846505412597      10.113562024247813      2.2601227212319674
   125   3      10.103737013704365      8.0980249385682388      2.3727624125667903
   126   4      8.2111342363426179      8.0006656293321452      3.7500829986127484
   127   2      10.081762867346859       9.923249357131251      6.0725400507405034
   128   3      10.101214630448462      10.421662936291103      4.1329513567283982
   129   3      8.1390768060060577      10.365328339561531      6.0738817177257696
   130   3      10.053835510277374       8.075878081045083      5.9003317906714665
   131   4      8.3896836318838091      7.8522937246865592       8.363605586890273
   132   1      10.101708390896828      10.118775987926297      10.121560198290618
   133   3      10.073986317803652      10.104011950903859      8.0523192311612579
   134   3      8.0468375976759425      10.319605881109091      10.126107267784175
   135   3      10.005350799346376      8.0976102890616399      10.298751755224083
   136   4  -0.0060651994205908185    -0.10158795551452265      11.802639097208589
   137   2      2.0081067894193794       2.046175442169043      14.020434574057516
   138   3      1.9228281185885783      2.1245053777120453      12.159917764286799
   139   3    0.031645680753777668       2.093264206553052      14.348925443770096
   140   3      1.9406903124773225    0.038184418405400995      14.295199001305024
   141   4    -0.12777322802097416    0.062513527738906782      15.890224707656563
   142   2      2.0074520291749596      2.0033967549973295      18.194455559348629
   143   3      2.0055699428993452      2.0073992377934489      16.327815074158107
   144   3     0.02946283839758336      2.1550014578534324      18.444555674760171
   145   3       2.035785057313467    0.097994559178440396      18.501311585131258
   146   4    -0.14838056494697158    -0.23872328237778856      20.253334095187277
   147   2       2.080689265731714      1.9966018474628227      22.294805110564443
   148   3      2.0122826334296406      2.2460571339975686      20.400480675395595
   149   3    0.020644775199968268      2.2877861612114203      22.412009489809147
   150   3      1.9693752949079526     0.11903282565108669      22.347297269652667
   151   4   -0.059516292730691651      3.8169510906451953      11.872434037654074
   152   1       1.986452673942861      6.0121528083552329      14.122762488248004
   153   3      2.0531909136020765      6.0974279623964689      12.118097710838995
   154   3   -0.077254295563155925      6.0329898059585059      14.381028162497726
   155   3      2.0290299543785411      3.9857500514823796      14.406308237381731
   156   4    -0.01996298165858219      3.9986813012917928      15.836158402510772
   157   2      2.0582118838129428       6.091788209039068       18.11568041649728
   158   3      1.9747994353460046      6.1378034397222097      16.252435834140908
   159   3    0.026185422120429621      6.1377491543605878      18.400866441507166
   160   3      2.0116176504084793      4.0918929168042153      18.373685498503505
   161   4    0.021616903879886021       3.965965295416539      20.077794787631056
   162   2      2.0657322010567225       6.048854657690856      22.250420479183738
   163   3      1.9996910734629578      6.0717778759865491      20.371609695271783
   164   3    0.035397315017292291      6.2009200547004699      22.494286974975811
   165   3      2.0439465419729639      4.1704020700700299       22.52574276028696
   166   4    0.040555760516017586      8.2361362211327016       11.72336424918757
   167   2       2.071436768796338      9.9524865665647262      14.167982187657691
   168   3      2.0175612272307908      10.218515372149271      12.225167403823242
   169   3   0.0033002217041116729        10.2700860515948      14.249382284728711
   170   3      1.9091297879559146      8.0875184579959996      14.219870174953863
   171   4    0.049160542676061278      7.8736954580786493      15.930866918176799
   172   1      2.0591708743477204      10.051571835780621      18.169670790953013
   173   3      1.9364117046859082      10.258545551058367      16.150976787567384
   174   3  -0.0016057101106965092      10.141917189780564      18.424108164637129
   175   3      2.0036494192723215      8.0428939268824902      18.434916577992215
   176   4    0.070179491132359884       8.154122645086451      19.907348702231623
   177   2      2.0564370365155216      10.123506317641668      22.184145325411038
   178   3      2.0662874385680285      10.225501210818775      20.321610532440552
   179   3     0.04694323464092557      10.310446632863666      22.388177609581959
   180   3      1.9269074158811375       8.189866209007695       22.39157617614147
   181   4      4.1482640093962608    0.037677165497471458      11.770669330977933
   182   1      6.0863323275043868      1.9911172674192776      14.135324726029642
   183   3      6.0758584919553664      2.2519029226754967      12.125650892285224
   184   3      3.9662751132613079      2.0159016664741602      14.323894902243563
   185   3      5.9714566705109409   -0.053161618440055486      14.228429878131204
   186   4      4.2066396717665508    0.077141802534417547      15.871592948437824
   187   2      6.0938874426659151      2.0930313042963085      18.114930900460976
   188   3      6.0653187691644792      1.9308843681227379      16.253298460497636
   189   3      4.0039348070489202      2.0668518395973408      18.411545363684208
   190   3      5.9750460271118113    0.086155542676123048      18.491914008315408
   191   4      4.1246695796891926   -0.070694201817387919      20.082039666998888
   192   2      6.0981106082045553       1.985306425711183      22.271748188361741
   193   3      5.9310039608249765      2.2281347454083118      20.369510367605205
   194   3      4.0139701200576665      2.1307847150161114      22.463863107261194
   195   3      6.1054289786690727     0.10554328519491966      22.265010890452903
   196   4       4.336697588435408      3.8142031313591489      11.900482409969658
   197   2      6.1726768417303406      5.9752201265338778      14.124546108335432
   198   3       5.926289320525159      5.9923649304254401       12.16445025841973
   199   3      4.0417107761107989      6.1206335501464935      14.291330961490141
   200   3      5.9462010592745367      4.0613295959143567      14.316228708148225
   201   4      4.0432601100237573      4.0689913858752913      15.794386051780565
   202   1      6.0968411699810376      6.0508937999525774      18.187444470367698
   203   3      6.0852687942817125      6.2848973589921027      16.157095349725164
   204   3      3.9955031063696387      6.1194491687280825      18.348952570422984
   205   3       5.949882854226205      4.0148133414227374      18.282218268997248
   206   4      4.2307477056084419      4.1161777906905481      19.984095801082336
   207   2      6.1647595021242685      6.0314782364703019      22.266680265958666
   208   3      5.9520969715676184      6.0457016332805411      20.359359191909167
   209   3      3.9898208561590636      6.2830203452123357      22.446520838472352
   210   3      5.9035572656293871      4.1256493588867977      22.479991587868728
   211   4      4.2469025492162737      7.7239689265283777      12.252960918935747
   212   1      6.0893241712504382      10.064851087385636      14.074087420538174
   213   3      6.0690505230632379      10.303354417121218      12.070387214275323
   214   3      3.9874708523709539      10.153404066354325        14.2655179951616
   215   3      5.9201859640040295       8.032419159480785      14.063023249290667
   216   4      4.3094245955942263       7.853805246944785      15.916962214348827
   217   2      6.1109318581485441      10.130710766113662      18.046919323692954
   218   3      6.0553142412153464      10.085248749368438      16.170351837647353
   219   3      4.0962157052439601      10.124956029981474      18.348817388590902
   220   3      6.0399372671860112      8.1623612450918106      18.426720517841694
   221   4      4.1604184787864469      8.0526804260893421      19.874708882814001
   222   2      6.0894779965547094      10.084889712932434      22.252042877448094
   223   3      5.9468472086181752      10.273168317802627      20.354818959173663
   224   3      4.0391202672383733      10.192595318410065      22.464360257039132
   225   3      6.0604276427348678      8.1670463556503297       22.27373881043755
   226   4      8.2110499884981945    -0.14001288666204442       11.82904433571376
   227   2      10.190738505150088      1.8960255340617884      14.137096936434318
   228   3       10.16111524097464      2.2667889603025944      12.198303169902434
   229   3      8.1387703032582728      2.2060852750730775      14.117458941206575
   230   3      10.012372509121723  -0.0070664030995322364      14.070560532536609
   231   4      8.3169217175378858   -0.067587417546069742      15.963326141153706
   232   1      10.085245379403457      1.9871270795807239      18.179995350582935
   233   3      9.9097494772668426      1.8564580425090758      16.160452163376984
   234   3      8.0042287131095229      2.0287408420778288      18.461925927831608
   235   3      10.076039041452452   -0.015601535323036672      18.595503613634278
   236   4      8.1725238010313817    0.025676087720312889      19.987769010497217
   237   2      10.231053196261458       1.949105124776962      22.347681861325093
   238   3      10.094653478256035      2.3902160424690897      20.339241208007547
   239   3      8.0294582462547304      2.2781105608976304      22.244289497720498
   240   3      10.040800906880573    0.041679003475266409      22.040448489901991
   241   4       8.107434362313926      3.6249853816304851      12.151519184856802
   242   1      10.143098223126549      6.0043630136959933      14.131296514556636
   243   3      10.048432099781017      5.9750065097793268      12.094529674075016
   244   3      8.0864280249976215      6.0693352607340447      14.206705099527952
   245   3      10.183279586791224      4.0123340313870886      14.496523461334185
   246   4      8.3415608279955062      3.7977031087703321      15.944097869964821
   247   2      10.095200434919375      5.9590820180710375      18.204115111044647
   248   3      10.090519169946631      6.3603986720620442      16.225725385344969
   249   3      8.1272698504569796      6.2373099143783701      18.247908344495045
   250   3      10.057914730008623       4.044368515480512      18.016605474797586
   251   4      8.2676847271071896      3.8903500065356096      20.145344380847916
   252   1      10.113223262450203      6.0670495949055754      22.221684990341519
   253   3       10.17100058606354      5.7234796099797984      20.199005965030064
   254   3      8.0491166812216726       6.056084918717823      22.389869836183571
   255   3      10.159019574477886       4.030158676736483      22.597166871705419
   256   4      8.3773111297273068      7.8173901968071871      12.045765561210091
   257   2      10.128598925618943      9.9620146305348154      14.204655941338352
   258   3        10.0969905266138      10.381057776753817      12.178954244765546
   259   3       8.127035900512011      10.339816937163659      14.089721020520068
   260   3        10.0289148169014      8.0852228211337707      13.931395884364253
   261   4      8.1397882695741206      7.7516630543829983      16.132484046920254
   262   1      10.108492809864506      10.060636912733759      18.166783702305374
   263   3      9.9714055547097722      9.9518064959614385      16.143183583997963
   264   3      8.0315247663929625      10.096834082346186      18.451899279848931
   265   3      10.113952447601813      8.0567481430556622      18.556439809542482
   266   4       8.148276937534991       8.038669200008254      19.905209593652614
   267   2      10.192832043708012      9.9750648559227013      22.313657201097918
   268   3      10.112881740072254      10.431572162029063      20.320081537244771
   269   3      8.0375692782247796      10.314096790848756      22.237531539856182
   270   3      10.029778771665018       8.111385967575595      22.049724038655967
   271   4     0.08909752348885773      12.179205875064508    -0.32641565716727988
   272   2      1.9716828974925136      14.112920049135543      2.0492138733203409
   273   3      2.0698349610207707      14.271151580105938     0.15601520527344984
   274   3    0.068051595035978865      14.274425226108558      2.2175749787459362
   275   3       2.101695626029799       12.23420598309785      2.1312646112003848
   276   4    -0.10151980285727377      11.946215131165829      4.1017510320277104
   277   2      1.9768436295746763      14.123457819296842       6.146286268257982
   278   3      2.2161447828667158      14.352669287637402      4.1355534209336904
   279   3    0.077882765942779278      14.241182218716713      6.0648880237998455
   280   3      2.1857788557019262      12.258295414707371      6.1469391720427184
   281   4    0.097683458867283843      11.778873794381225      8.2873947214685248
   282   1      2.0323295723470705      14.190501507368262        10.0888316063193
   283   3      2.1449902547073165      14.399928572071691      8.0560059193881628
   284   3    -0.02727136127780054      14.208185746627114      10.279557372509608
   285   3       2.100887306498052      12.177821349188472      10.247036959210805
   286   4     0.18801173078958727      16.118658364344022    -0.42440467147707039
   287   2      2.0074114222857058      18.134395943725217      1.9416378378508912
   288   3      2.1046676875919372      18.280293747749862    0.058875194675645122
   289   3    0.088355918986014359      18.352736048910518      2.0817218284318155
   290   3      2.1202907437624292      16.262446300916444      2.1689230002836224
   291   4    -0.24972394004416704      16.125091087791713       4.208994558025033
   292   2      2.1089875160908633      18.254504427920217      5.9579027262833977
   293   3      2.1029726837749725      18.428771150625469       4.061566751519706
   294   3     0.10055952667035541      18.443823412056528      6.0757702652247767
   295   3      2.0180598629827022      16.331314720348349      6.0839054039192533
   296   4    -0.25181795490859432      16.216914549220196      7.9755098124221036
   297   2      2.0331198787061489      18.208335185551341      10.051157878970336
   298   3      1.9373148939946052      18.280752530320189      8.1650648671933848
   299   3    0.068580319343200441      18.394534221825253      10.300324659036093
   300   3      1.9557409990489283      16.320893382657115      10.296432323377116
   301   4    -0.15700662289060377      20.012425168481521    -0.23560802000715161
   302   2      2.0519979600985607      22.151734413827139      2.0728333978842861
   303   3      2.0424497039739875       22.51051344225694     0.04059499097856465
   304   3   0.0071868758839814667      22.421795515256072      1.9964241193459942
   305   3       2.080693768500232      20.276745914728924       2.000602527225007
   306   4    -0.14528791958592627      19.949953889590006      4.0996946027633259
   307   1      2.0511219151745546      22.250924705163683      6.0126986689261734
   308   3       1.946297094675731        22.3458887488047      3.9840640909768612
   309   3   -0.054128666004177151      22.323758199731284      6.0995891423843558
   310   3       2.088236196720521       20.24502741770867      6.3286369279656363
   311   4    0.072473170905112017      20.105616761531365       7.790493758698072
   312   2      2.0399839248841611      22.329953331174668      9.9935107760914512
   313   3      1.9326327347306977      22.408071485643241      8.1205119561673023
   314   3    0.043533654565550119      22.285759681390168      10.284962497503241
   315   3      2.0578400494654767      20.326510186444604      10.245790515986162
   316   4      3.9742438150362287      12.243518252139266    -0.31738643355988222
   317   2      6.0553111383474665      14.131972750499202      1.9635439745205319
   318   3      6.1276097383703627      14.299786433187744    0.092955628358752332
   319   3      4.1039850108511962      14.323186070596511      2.1693700137883551
   320   3       6.085575577634363       12.22827003062997      2.0593706433670413
   321   4      4.1375469984297197      11.851079620721872      4.1349068710311929
   322   2      6.0774822611886394      14.111029657017392      6.0714986856174962
   323   3       6.052739768743991      14.255208092173429      4.1457679826243705
   324   3      4.1133959891439282      14.488696650908086       6.146315013198782
   325   3      5.9768346176338563       12.26195083954455      6.2157755487495789
   326   4      4.0093159632052258      11.777264610061051      8.1760941479826226
   327   2      6.0993924345616737      14.144444818167269      10.096853994019288
   328   3      6.0167342899782854      14.414656441461513      8.1493144693985151
   329   3      4.1091936804099234      14.460155945494213      10.153308216118591
   330   3      5.9588352855311948      12.274387903373823      10.101528410562384
   331   4      3.8947613356611588      16.179018196144749     -0.5013749543038738
   332   2      6.0819545999682134      18.213833763412321      1.9137069809225715
   333   3      6.1668532161710869      18.243316914547353    0.028147098187470583
   334   3      4.0598693468429126      18.309898268006023      2.0799918582326447
   335   3      6.0946328583032363      16.257401038952928      2.2358986234904603
   336   4      4.0354782537483258      15.977782280214779      3.9757468268946843
   337   2       6.140270344748548      18.170472365073419      6.0426919896558333
   338   3      5.9631339184642025      18.398396246678757       4.136653471237997
   339   3      4.0684449381424628      18.305412491094163      6.2732004360954283
   340   3      6.1724231413148374       16.30140153526925      6.0872161537938059
   341   4      3.9776969348502811      15.945143400615784      8.1224099689792641
   342   2       6.143873137193812      18.304202756855865       10.04079407327125
   343   3      6.1049634163519793      18.257336538922196      8.1377349838314288
   344   3      3.9979156793584942      18.262258666291928      10.264192800819034
   345   3      6.0657146671575353      16.329788750622782      10.313928791436142
   346   4      4.0443385432205377      19.893418349601003    -0.26301151614203905
   347   1      6.1106338276861054      22.225200481738408      1.9853842295618407
   348   3      6.0826431211844563       22.54862580065701   -0.041485946242337708
   349   3      3.9903715418728463      22.409193524054835      2.0107037118316708
   350   3      6.0295719132691605      20.201085322490862      2.1191430323017961
   351   4      4.3489703696086819      20.290773661111114      3.8252801388924396
   352   2      6.2139672132165593      22.265814956101295      6.0420696941475311
   353   3      5.9401535481346057      22.246010954240159      4.0773116494137609
   354   3      4.0707989572426069      22.339873519391233      6.2399156790411414
   355   3      5.9194133614684468      20.300688819448997      6.1982797076375507
   356   4      4.0524715276269871      20.414771060873314       7.754440095287773
   357   1      6.1076689360359318      22.251511666915256      10.086836989098105
   358   3      6.1012688480905677      22.505789162618157      8.0643380818153183
   359   3      3.9910548489636142      22.391153887140732      10.248906962891144
   360   3       5.898206718321652      20.237524733365355      10.167487308777183
   361   4      8.2976514555940177      12.081099675418891    -0.27113313359029234
   362   2      10.137481446967504      14.095263869048306      1.9594646502409159
   363   3      10.040819454892588      14.404050466872626    0.068150186209912339
   364   3      8.0665672963469355      14.332488097345813      2.1689642244699909
   365   3       10.03066416505879      12.206970082385018      1.9221762656528019
   366   4      8.0682347281130831      11.784924276414889      4.0426099204637644
   367   2      10.040229368985193      14.152153676444085      6.0491030510229749
   368   3      10.093691387786551      14.079266135696647      4.1254952233270501
   369   3      8.0866436204066652      14.210259566821787      6.1940712059322323
   370   3      10.212813474462349      12.278226290549808      6.3238678335121765
   371   4      8.0629447924519386      11.742726775083755      8.1036302796825446
   372   2      10.176186496809359      14.086148560724814      10.219996609364253
   373   3      10.146811478886775       14.52146476665809      8.0996254589533692
   374   3      8.0691887522543304      14.262425627994881      10.079120991362954
   375   3      10.179185663675286      12.220190995516255      9.9195387077749011
   376   4      8.1141555282263624       15.97161314717007     -0.2875206374097668
   377   1      10.121119628370753      18.171280092320206      1.9690347438717555
   378   3      9.9904463132082206      18.189960838725117   -0.067330023380057016
   379   3      8.0385588758380973      18.257742365252657      2.2192977895201964
   380   3      10.072160895623032      16.180524818508882      2.3485331732899475
   381   4      8.2059163997596212      16.209927134326595       3.763924328000845
   382   2      10.277907859092231      18.209265591563163      6.0648957855940795
   383   3      10.082295349391007      18.500040453898844      4.1259050142205211
   384   3      8.0481098333510133      18.492357361743391      6.0494773888609146
   385   3      9.9863537821691324      16.260014209662128      5.9409941114884628
   386   4       8.414460638003133      16.205098500077007      8.2774939587305898
   387   1      10.165370117567704      18.230039759614261      10.122838644506833
   388   3       9.915718192842137      18.098897512773163      8.0631069378949682
   389   3      8.0332654068669864      18.363221728648895      10.283371756815621
   390   3      9.9459911203811888      16.215475287960249      10.268442160920429
   391   4      8.1743985067814169      19.885272522777502    -0.14014864331042695
   392   2      10.130753261159303      22.139566919620055      2.0409777953474695
   393   3      10.133255123899374       22.60666627148013   -0.021493208044603088
   394   3      8.1504347819167879      22.471374750903411      1.9572032882168711
   395   3      10.075450973160914      20.252280361388753      1.8509364181184171
   396   4      8.2755216902772624      20.032350774086797      3.8905408065593559
   397   1      10.171038372459686      22.212789392364098      6.0199969146673356
   398   3      10.063869904828891      22.108483270361443      3.9732458919230016
   399   3      8.1145767025338582      22.256924973307584      6.1023157496072313
   400   3      10.189713423194226      20.209822866596017      6.3888881020181669
   401   4      8.4659598782547487      20.142186667476924      8.0215811249557554
   402   2      10.198234151264334      22.188830514538274      10.182683306246433
   403   3      10.121846110843961      22.516259405542595      8.1334802540953106
   404   3      8.1556044064830218       22.43758711191478      10.087727869151985
   405   3      10.096096319904145      20.266600485728205      9.9389165701796856
   406   4      0.2667016771759439      11.962790462831272      11.753466275205211
   407   2      2.0213099475986946      14.119551170962938      14.076715791502648
   408   3      2.0788011915059919       14.31597069834708      12.217114077894973
   409   3    0.031690623656124274      14.283560353891973      14.245441669236451
   410   3      2.0649662096739618      12.231786782220961      14.259155691401791
   411   4     0.10157351011780824      11.797680133251236      16.116482048093197
   412   2       2.032238981137394      14.005647053582521      18.178959975881355
   413   3      1.9956685861272934       14.34736922087974       16.23607714567348
   414   3    0.071382153982497101      14.305741090783032      18.284152989477128
   415   3      2.0216674018820133      12.136929540742182       18.25778667605163
   416   4   -0.065386743751624732      11.946234798019596      19.953659086106022
   417   1      2.0424657959489374      14.144255034692844       22.21989932779616
   418   3      2.0589571735221379      14.329899630215932      20.178870961967288
   419   3   -0.016844171609289898       14.21536481013008       22.38882297537549
   420   3      2.0760371606575236      12.130290562051787      22.517888454159827
   421   4   -0.037101470009634832      16.044831925692201      11.859437692323313
   422   2      2.0127215261330069      18.182063001916767      14.112160822013678
   423   3      2.0293522537859303      18.399610350263693      12.251044618859249
   424   3    0.023683810129373182      18.445825876080534      14.330082140141688
   425   3      1.9572316535503849      16.308065413801103      14.274854892546925
   426   4    -0.12514072442814905      15.858881319411658      16.190769473859884
   427   2      2.0155752865956513      18.176506328707369       18.18903768392299
   428   3      1.9646732195036909       18.39744849888752      16.281939440616547
   429   3    0.012206583759815735      18.413066577863848      18.351204974214166
   430   3      2.0208053559437267      16.297728420722269      18.327801247198675
   431   4     0.14860760498585127          15.85584432459      20.187110395119195
   432   1      2.0294762059743299      18.179966117205154       22.22947863314192
   433   3      2.0082136470015697      18.455484438739141       20.22053322147368
   434   3  -0.0084367538205071396      18.282676354636642      22.417981833015723
   435   3      2.0233009753911206      16.180689195756578       22.38119918948459
   436   4   -0.099246262888692219       20.30295844404133      11.779074923189167
   437   2      2.0467547343101447      22.273376743538069       14.12363411135126
   438   3      1.9762062764283748      22.294255216111161      12.253223636504369
   439   3   0.0077619833530001821      22.340161340767708      14.380991910810682
   440   3      1.9968644321367155      20.360207558303411      14.418139811411976
   441   4   -0.048871609394820173      20.176658202465607      15.992223400830024
   442   2      2.0239234857992749      22.268639851210356      18.195635444677677
   443   3      1.9999368096707777      22.453388191231262      16.326996160280821
   444   3    0.024484396289503729      22.462678530466668      18.428153430969829
   445   3      1.9584039580028323      20.389240620764511      18.321537703019004
   446   4    0.087012193383110212       19.94137305114916      20.255183637152925
   447   2      1.9926368215584493      22.220119606534311       22.29360893679193
   448   3      2.0195279312214001      22.394771816172511       20.37489306434605
   449   3    0.062928847454095591      22.381609431377711      22.410119629503946
   450   3      2.0810070411423833      20.337251688934749      22.427469537716302
   451   4      3.8878776744107766        11.8996510647415      11.824602785177378
   452   2      6.1408342359006687      14.078497573252218       14.16815726306168
   453   3      5.9923168229328247      14.290060923109884      12.175098255211452
   454   3      3.9825649174164455      14.370472669364322      14.271789589436919
   455   3      5.9124875579921694      12.207727837163732      14.267735854628377
   456   4      4.1468088563618517      11.859593893874756      15.966745007278737
   457   1      6.1027615456716822      14.122433369285634      18.142167191489218
   458   3      5.9549359975320373      14.361288713380427      16.121133734845571
   459   3      3.9858465710888389      14.318762515158795      18.235202299312935
   460   3      5.9733798397580067       12.08821823839239      18.244407933649079
   461   4      4.1788455976872365      11.969744051855862       19.89744474223172
   462   2      6.1084895475452399      14.177724532922442      22.109805931225875
   463   3      6.0015649257944448      14.144424729036976      20.238695276917941
   464   3       4.105803219312695      14.194763337641003      22.420742328827185
   465   3      5.9707456371776066      12.171340866903543      22.481020170479034
   466   4      4.1137265021514242      16.033139326928168      11.912294044405904
   467   2      6.0727996590647013      18.205276812176503      14.125567549151141
   468   3      5.9253168512770671      18.427449587856742      12.236053637606572
   469   3      3.9773778890696727       18.37830685429623      14.372003087723252
   470   3      6.0076034691164528      16.311314482772399      14.177661708090675
   471   4      4.1843891777659739      15.888915928453196      16.197784565359679
   472   2       6.106786187453344      18.119034242948505       18.23250766916679
   473   3      5.9798546990273582      18.324715874557345      16.255477443789957
   474   3      3.9928677372739432      18.424143037137338      18.286534393396238
   475   3      5.9433601605887523      16.256279187795034      18.299706145219979
   476   4      3.9665178615841956      15.873698834898356      20.134296995092978
   477   1      6.0958037985756128      18.138368041494491      22.215839034173527
   478   3      6.0055195543865576      18.435885147963187      20.198563053562083
   479   3      4.0670065466748193      18.329572355052811      22.345624229797835
   480   3      6.1182686669853883      16.116850638474173      22.336150295603932
   481   4      4.1995257823033318      20.328118266212897      11.818864863410067
   482   2      6.1599239299267241      22.303330644040891      14.083428033992172
   483   3      6.0384592440668357      22.199989821698278       12.21499722395232
   484   3      3.9803523801656531      22.362040512045937       14.35063281408457
   485   3      5.8906646873380826      20.331137778613677      14.388486105360309
   486   4      4.1492885734415204      20.127327549610495      16.064010095460361
   487   2      6.0841877349171796      22.237177664495139       18.19871479843416
   488   3       5.961255576545561      22.457255741526925      16.315336533183302
   489   3      4.0146809525273284      22.453101020222643      18.418260626669035
   490   3      6.0344844551576147      20.356869547283061      18.217841930668023
   491   4        4.04948849042405      19.809690591543312      20.384129228226868
   492   2      6.0386453826416764      22.194541492273522       22.28272039810512
   493   3      6.0342034425933395      22.364607183095288       20.33258247629043
   494   3      4.0578908342921993      22.455891496019571      22.382727918252055
   495   3      6.0450786753367511      20.329384936396607      22.403632528063468
   496   4      8.1499098323389223      11.763858734105746      12.155653226604967
   497   1      10.128169766769076      14.167840807362344      14.129700297174788
   498   3      10.012125520080099      14.126587489611268      12.104699242548101
   499   3      8.0288104147446759      14.181330649323565      14.268770257311422
   500   3      10.144762296340046      12.147094049902105      14.443709744299056
   501   4      8.3400470394348503      11.966150852702363      15.913370708883649
   502   2      10.140807018679352      14.038003202414638      18.201426696520372
   503   3      10.119280694093643      14.455241861812402      16.221142371146652
   504   3      8.1340462817783656      14.379845948244292      18.154016872205567
   505   3      10.017198282460134      12.140895824422593      18.045370002982938
   506   4      8.3237677731155379      11.936694554134965      20.076760383492172
   507   1      10.123703080313359      14.111913311020814      22.193643741391988
   508   3      9.9958427225397681      14.030702527057842      20.177566644688373
   509   3      8.0449679477099192      14.103916969854604      22.441661741287103
   510   3      10.110274585854173      12.119476929287568      22.569448950784643
   511   4      8.4103255244050974      16.192082578507918      12.057061311593975
   512   2      10.268889655345093       18.16796618937876      14.213229890408599
   513   3      10.016119544548186      18.453768513751147      12.237904952627353
   514   3      7.9860153903971609      18.443809868923644      14.177184142539089
   515   3      9.9488745617225209      16.268424195338774      14.017974120636019
   516   4      8.3212493974142241      15.967289025726657      16.177373266171411
   517   1      10.124778276265582      18.223311272022588      18.179136671539755
   518   3      9.8951336103348702       18.10087890646939      16.152917142724654
   519   3      8.0200781532433272      18.270115594988674      18.344296023892742
   520   3      10.122638049299901      16.205850744667845      18.488203985442492
   521   4      8.3169683414218323      15.967163116004215      19.946774476392036
   522   2      10.148953718095687      18.045110168705765      22.269264491066753
   523   3      10.112847629144504      18.509565782688213       20.31759599503707
   524   3      8.1430609879897951      18.444490709088363      22.235193024485056
   525   3       10.01020159804129       16.17885161618532       22.14910667133039
   526   4      8.3784241562018025      20.132565470781675      12.090477290187467
   527   1        10.1463151916152      22.233536825718669       14.12508022193305
   528   3      10.041901467332119      22.035642981253638      12.120004804815466
   529   3      8.0381976031718736      22.258606043937114      14.349570959466542
   530   3      10.111983620249761      20.222820049264836      14.474042727729291
   531   4       8.361389902494901      20.076426789730192      16.066136858579558
   532   2      10.184367380130311      22.223428236366715      18.173983548820811
   533   3      10.081322091747376      22.564307496025258      16.286951292851718
   534   3       8.033451982772835      22.468197412933741      18.321039216689751
   535   3      10.010134735373496      20.330085566366222      18.087900097568706
   536   4      8.1213166365610974      19.862881551681195       20.22440815539068
   537   2      10.055071969932943      22.220255537304567      22.222415715935671
   538   3      10.044235538081965      22.146068369511038      20.308135925093513
   539   3      8.0915750926880854      22.361283365534952      22.391767841378954
   540   3      10.128242614466615      20.356227502605019      22.510011782124064
   541   4      12.165074204925155    -0.26675420360894658    0.092949467614735423
   542   2      14.040004941625469      2.1013639732753746      1.9436269824441492
   543   3      14.286325261098511      1.8406012973598025    0.048190175293849322
   544   3      12.160960331305333      2.0418774867913432      2.1321589041073654
   545   3      14.211212523913959    0.075344344878781208      2.2574053138046257
   546   4      12.067949646070328     -0.1162936717993087      3.7334983953063512
   547   1      14.152555168410444      1.9802127802787228      6.0245487510137208
   548   3      14.348804815756543      2.1989285069725963      3.9931138362274576
   549   3      12.108744126778188      2.1550997249618336       6.003240402728907
   550   3      14.378512224119634   -0.057059182368318265      5.8626888261015617
   551   4      12.179691154125226    -0.36806600464755651      8.0265357367761059
   552   2      14.192797525769882      2.0435726602471549      9.9400874930324967
   553   3      14.245141810689583      1.7869186814469336      8.0689591928240354
   554   3      12.222414611522757       1.949739686510932      10.282168790399668
   555   3       14.22941403459782    0.035796116804637124      10.405045871938071
   556   4      12.163384751395039      4.1191074572113466    -0.32507075069063845
   557   1      14.146017915952704      6.0690933201963402      2.0081696841963259
   558   3      14.150827692557302      6.3879932621478268  0.00092187904900104109
   559   3      12.099160493571425      6.2690001942135112       1.998515030666026
   560   3      14.341277848247495      4.0246835500041316      1.8969465765211546
   561   4      11.963999723829154      3.7908120806798156      4.1245484761723539
   562   2      14.096026618470734      6.0864945732158517      5.9766162478443503
   563   3      14.306410159039881      5.9284383811921648      4.0675630236568896
   564   3      12.178372734854067      6.0916835573149406      6.1533395031582998
   565   3      14.167028048420418      4.0926203598732958      6.3106966013727579
   566   4      12.087427386002025      3.9132014359217138      7.7720402613923705
   567   1      14.151582931585757      6.0242223691913646       10.10665171494602
   568   3      14.140552524386742      6.3831155534724289      8.0800232504508411
   569   3      12.096093602593498      6.2665990828160361      10.124182537704973
   570   3      14.215113208242739      3.9896419579693361      9.9340453395117674
   571   4       12.11966662192239       7.732905519411613   -0.037084471632319996
   572   2      14.017149704512361      10.143901373636501      1.9346873826987403
   573   3       14.28551751414432      9.9109486337201957    0.057893013371905673
   574   3      12.126935241874863      10.144401793426288      2.1379022116064883
   575   3      14.188015951418402      8.1895533503448217      2.3631676669067012
   576   4      12.032201918480114      7.9886788085304792      3.7258794717146291
   577   1      14.096670244574295      10.102522303006102      6.0417782834879343
   578   3      14.178059361117317      10.430735796777524      4.0267014099768668
   579   3      12.050953056692915      10.284177261971436      6.0614865443006414
   580   3      14.360885553480406       8.069129432871927      5.8909239597764067
   581   4      12.115856636715675      7.7231331916330186      8.1226216325742069
   582   2      14.161793810319738      10.125301534862288      9.9880279409877009
   583   3      14.183828799896734      9.8906683556668611      8.0950786503304073
   584   3      12.172580874929338      10.112777721378967       10.22938845661101
   585   3      14.163573548950442      8.1369128916001028      10.450545839418414
   586   4      15.861726097360185   -0.080049605061295576     -0.1052554528336951
   587   2      18.199590263830537      1.9547688185321284      1.9912238315671316
   588   3      18.338123623263737      2.1607134342066932    0.055849831253395807
   589   3      16.293681242848038      2.0480235492454892      2.0872647443873609
   590   3      18.330333148000349    0.061874380896417704      2.0869211067632776
   591   4      15.845662827768491    0.091740338605429975      3.9420738682735594
   592   2       18.12258484484374      1.9643399930419132      6.1201637979005872
   593   3      18.332439674436177      2.2042961143656719       4.024883213440468
   594   3      16.246234358754485      2.2175265641789941      6.0513317528963197
   595   3      18.211570778137251    0.063087901122143186      5.9216813368158334
   596   4      15.964024711553281    -0.27556928030071409      7.8885147020015793
   597   1      18.191718461234647      2.0012309187428046      10.063249935201904
   598   3      18.361484987002324      2.0562762973834734      8.0267958925536007
   599   3      16.167503679934324      2.0111118727765054      10.327354019934461
   600   3      18.183911403014466   -0.020406543766276146      10.329924288631355
   601   4      15.949883040768528      4.1089817203418351    -0.23471170273305131
   602   2      18.116289618729208      6.0510110528146139      2.0321262099272772
   603   3      18.396207243115342      6.1763215956764865    0.088607621696114441
   604   3      16.249328946901073      6.2364418261352945      2.0231724092152112
   605   3      18.320743628166987      4.1255990185768558      2.0481070096554514
   606   4      15.904240872523877      3.9468392863566018      3.9614468174638362
   607   1      18.176962010615327      6.0725944313060438      6.0541537854547771
   608   3      18.383847907828923      6.1268027079190173      4.0101029687146896
   609   3      16.161310486310896       5.998630403850103      6.3072604020772234
   610   3       18.46862414844885      4.0424357563842674      6.1107614393259793
   611   4       15.99543605045625      4.1124361254518336       7.804886575484467
   612   2      18.095686619030534      6.0807074826705456      10.045167120743841
   613   3      18.417768665813011      6.1496885095700753        8.13798596640863
   614   3      16.227786082289867      6.1032971672766632      10.084746945403712
   615   3      18.445264092128028      4.1261060965466827      10.098084599798389
   616   4      15.916159786900796      7.9139808232244029    -0.17128877795673889
   617   2      18.152580175929835      10.123153352001339      1.9947804640326436
   618   3      18.289826709206576      10.144953683942514      0.0679727839840613
   619   3      16.258762008355276      10.102646001199561      2.1734249424722387
   620   3      18.356968851847835       8.170601807579752      2.1148655483308025
   621   4      15.881166485738914      8.0559452423106386      3.9612744661073038
   622   2      18.057624124243386      10.164954905312461       6.103486794497428
   623   3      18.385687701395447      10.195617323550504      4.0716764612610294
   624   3      16.188136906136123       10.26879488197247      6.0856804500323509
   625   3      18.308171403808768      8.1809008427873504       6.053177532259701
   626   4       15.90915527323814      7.9134206460797571      7.8608387840329605
   627   1      18.143072774181395      10.071849876294872      10.090029784005601
   628   3      18.376294942811406      10.091892235911079      8.0437186912313354
   629   3      16.141723685733577      10.084283896543647      10.316951335685735
   630   3      18.316331060247528      8.0358120354434561       10.24805867994672
   631   4      20.250243358685196    -0.29406313708934501    -0.13594535915108452
   632   2      22.222090673632639      1.9585606132822855      2.0466289249174126
   633   3      22.412322241548935        2.19250567738497    0.099932852852889845
   634   3       20.30845291663092      2.1509888152034229      2.0732804060154972
   635   3       22.36530300482567    0.092630207500492209      2.0845524399421849
   636   4      20.025732122449451    -0.26924641948721295      4.1585224407717671
   637   2      22.247015956574021      1.9495801715279004      6.0773987928847308
   638   3      22.366479965266972      2.2115878138327654      4.0642689150638383
   639   3       20.31362206381413      2.0311550947765356       5.982715399759484
   640   3      22.428969982728425    0.074483752962153441      6.0241958929168051
   641   4      20.135540261213606    -0.34333644916098538      8.1464702081235743
   642   2      22.227006362913691      1.9327960139896778      10.129634670270315
   643   3      22.313289019741482       2.133473767819607       8.062569899920339
   644   3      20.296433702583521      2.0349559421036276          10.16427205457
   645   3      22.453005089837458    0.054117219837578126      10.144686689084024
   646   4      20.015520434459049        4.07311762707368    -0.19111284244428292
   647   2      22.234642891563276      6.0403244624875434      1.9950273033350112
   648   3      22.388259842213959       6.290149252445314     0.10009590868620083
   649   3      20.340064914381351      6.2455435451510652      2.0878314674122307
   650   3      22.341876331416799      4.1704729165307013      2.0967319506337394
   651   4      19.918855654285476      4.0168236739053933      4.1810809366766248
   652   2      22.265804234764154      6.0053569653836396      6.0244774223530602
   653   3       22.37457429919775      6.2703950458807078      4.0851790853395897
   654   3      20.365166763153766      6.3356551296125039      6.0808940857448546
   655   3      22.190230193522851      4.1318165680692358      6.0588102421269774
   656   4      19.912333941067999      3.9478892241174752      8.0416514817464293
   657   2      22.238248313860989       6.092281091918804      9.9857873211219843
   658   3      22.302812960225491      6.2064829294542108      8.0787791217154208
   659   3      20.315316940521413      6.1871866227739565      10.226262681409262
   660   3      22.236599389270687      4.1189834114994133      10.129589584358863
   661   4      20.001416618231723      7.9415702279517495    -0.18040989937525193
   662   2      22.213382969201874      10.106134904133244      2.0037755644721771
   663   3      22.441756093739034      10.247842099936427      0.1031605749707255
   664   3      20.326583851342008      10.217152455133386      2.0932646514907307
   665   3      22.419412330158949      8.2214848006014307      2.1654344370428955
   666   4      19.945035530135467      7.9591415700087884      4.1533584201264526
   667   2      22.255714776512299      10.064307946843979      6.1212627392311232
   668   3      22.426019130110323      10.283672253769112      4.1028875831434402
   669   3      20.343582950647555      10.119028996912228      6.0823977402924472
   670   3      22.466045755371628      8.1906215608750834      6.1019902886468378
   671   4      19.930118266573054       8.039811559331385      7.9357807152229141
   672   1      22.279844142477323      10.111524755315939      10.079890180113953
   673   3      22.367910176788431      10.333655177249577      8.0404846632340341
   674   3      20.261119280323996      10.166815880474426      10.195718978553098
   675   3       22.42716892618219       8.060037281699298      10.247824984507801
   676   4      12.229859816278681  -0.0092921093629204123      11.769185214994177
   677   1      14.200955819766039      1.9945011562137376      14.160517187096785
   678   3      14.163455735969064      2.3191372361499161      12.159130493583927
   679   3      12.135849134244548      2.0924565762360778      14.266451821960576
   680   3      14.270875967052273   -0.045993946832057493      14.108438781031355
   681   4      12.296050636621491    -0.28759763370291069      16.009499798688793
   682   2      14.036088244737666      2.0623068753990395      18.193057470907718
   683   3      14.352474329500012      1.8381658920611863      16.281450735977163
   684   3      12.145682679728584      2.0362976256445604      18.315087810818245
   685   3      14.184315727508743    0.069389266051480367      18.536825494212241
   686   4      12.067650029558742   -0.016843718320471355      19.935267340938889
   687   1       14.16564504342124      2.0220747073275649      22.253185921184308
   688   3      14.305271672707807      2.2386770542223609       20.21974011811135
   689   3      12.118835012818572      2.0937671868055951      22.320378649754758
   690   3      14.406356840329234   -0.033731230034458673      22.131281573026218
   691   4       12.22384511696832      3.6694030320896607      12.020517590143619
   692   2      14.075251163458976       6.080629821294143      14.059291746178911
   693   3       14.26188816163895      5.8212298617859677      12.182332259741891
   694   3       12.18080568218746      6.1100363896034278      14.289043344246737
   695   3      14.169494387901635      4.1122810464099739      14.506976345191136
   696   4      12.096120192106005      3.9519859151779153      15.876649538980567
   697   1      14.140905814018213      6.0490478961089407      18.173199243042134
   698   3      14.197826799762735      6.4000223141736488      16.158556343999649
   699   3      12.093995093449875      6.2170814814286324       18.17327413009518
   700   3      14.352999786889002      3.9997071357754783      18.091788928382002
   701   4      11.912596663464052      3.9589577550749793      20.203848594471566
   702   2      14.155468700383054      6.1323074482882252      22.135654744462322
   703   3      14.175913585031699      5.8241351454817378      20.255358388750864
   704   3      12.180611372059387      6.0596747445123897      22.446244800946452
   705   3      14.141202672691554      4.1027406028133724      22.576825794624337
   706   4      12.073137593067074      8.0394126647919766      11.751901492612946
   707   1      14.129962839781005      10.082967747072734       14.13668198106916
   708   3      14.149677440160836      10.424360905843908      12.130982385654214
   709   3      12.087554260795256      10.238524856292658      14.142372266385722
   710   3      14.419342178778891      8.0289617301087173      13.973933925875981
   711   4      12.110893590862089      7.7435244060226056      16.203112107863891
   712   2      14.110574161131979      10.131694798322716      18.079737542314181
   713   3      14.228699326494898      9.8345763792235399      16.197802652433676
   714   3      12.165861425541587      10.096263840611577        18.3588215733898
   715   3      14.151601793093249      8.1369572308867504      18.531827723613652
   716   4      12.071285707572445      8.0226001634296242       19.89769424354532
   717   1      14.149080172542293       10.10703095827113      22.259861852608143
   718   3      14.142216152810111      10.439262996083722      20.237251241097162
   719   3      12.101770766516941      10.233927578096289      22.302538093745397
   720   3      14.298978612864897      8.0718001721202661      22.093853414207796
   721   4      16.142402715414256    0.044181319513001083      11.769166681221039
   722   2        18.2189698281334      1.9396724966894516      14.072066696999345
   723   3      18.331072013770846      2.1936637083764383      12.197204360314499
   724   3      16.299135788861275      2.2504717466146413      14.211045503333533
   725   3        18.2492602238272    0.053360040530234312      14.219261330865127
   726   4      15.915247642717016    -0.17903671540307775      16.050040965515386
   727   2      18.198218352749663      1.9545531739966702       18.18208530520613
   728   3      18.248735399155123      2.1099097974115195      16.290070096492755
   729   3      16.298572217091369      2.0174400636900907       18.37780208528067
   730   3      18.370173804996551    0.057432816403468721      18.336714649950231
   731   4      15.852943545899052 -7.9215216199931567e-05      20.181471890247789
   732   2      18.140233215210991      2.0210618361072341       22.23934666293345
   733   3      18.366729721204884      2.1405797143321701      20.322327150845798
   734   3      16.273344984897925      2.2190068128415414      22.344784178728908
   735   3      18.221634578256982    0.089428412900081841      22.381780383438311
   736   4      15.964279703378137       3.794400607333106      12.018240312600344
   737   2      18.207962737150496      6.0549272491174513      14.083242344828236
   738   3      18.279200151981755      6.0031366019592021      12.186317210391355
   739   3      16.286207637572758      5.9928823484280915      14.314467682605107
   740   3      18.411495963763318      4.1164344171234211      14.329908427332473
   741   4      15.956425790725593      3.9139180016496322      16.019548267089863
   742   2      18.091367011671089      6.0639540892636035      18.211555035909331
   743   3      18.354085039553652      6.1483950224814423      16.265198769656877
   744   3      16.222173254866195      6.1734033836524276      18.287613687586223
   745   3      18.305255724201132      4.0775164896917238      18.350574535607542
   746   4      15.872634184934277      3.9844220725520665      20.106175143746643
   747   1      18.162787173960083      6.0970678624047991      22.269569882739919
   748   3      18.415671393411436      6.0858690295408815       20.23719699106001
   749   3      16.138911646081777      6.0071624059301945      22.465450850300961
   750   3      18.466692689779997      4.0459891937152106      22.353000781484685
   751   4      15.963605148002845      8.1828697352581887      11.938511295184117
   752   2      18.094691579077619      10.163634709695788      14.161593862802734
   753   3      18.381142325727907      10.154381583615985      12.230204005575711
   754   3      16.219920807334123      10.209545429217247      14.166701616080363
   755   3      18.270441968695188      8.0812114652440119       14.24407738212496
   756   4      15.887116781642522      8.0015662138421657      16.016776500565051
   757   1       18.16932153765412      10.084612731231232      18.201831621203812
   758   3      18.401956954903465      10.052931256796038       16.17069278868232
   759   3      16.140545538256191      10.042151215828079      18.446766339648082
   760   3      18.383669810781388      8.0443258055761646        18.3224748411203
   761   4      15.961278989719638      8.1909462467261651      19.995706285708405
   762   2      18.091560389231603      10.144260315885505      22.220662831812731
   763   3      18.391138707879659      10.185676204380002      20.318170014366927
   764   3      16.225469469157797      10.237664634118389      22.266623158215545
   765   3      18.348462183282933      8.1926253330887171      22.348992220780431
   766   4      20.038476499693882    -0.23904033564549185      11.859380213610418
   767   1       22.25868362625582      2.0262643110830028       14.10194697257155
   768   3      22.366439424419994      2.1843962754261526      12.074378062798226
   769   3      20.215768494855865      2.0526694032222603      14.404756815534409
   770   3      22.331639696485151   -0.018295577578989794      14.376224903969854
   771   4      20.299502097321454   -0.045438790503517075      15.853039900098018
   772   2      22.218525239728006      2.0276418365500049      18.190503094330417
   773   3      22.337609804871192       2.104493620698201      16.321890385594628
   774   3      20.305417872241712      2.1711355101601373      18.320581464681986
   775   3      22.346024253028993     0.13375782478933543      18.386742323178289
   776   4      20.339627146676499    -0.33135213628722798      20.336919627262827
   777   2      22.274071290836382      1.9918352387520857      22.275892594100508
   778   3      22.357434864390321        2.19800170675438      20.378564828293772
   779   3      20.348496250496961      2.0891911973483435      22.453705676559011
   780   3      22.408770387747555     0.11834900093538965      22.401676937316214
   781   4       20.12364013280202      3.8653831446480003      11.843405682597286
   782   2      22.258633040172196      6.0283119582254869      14.019621118070789
   783   3      22.344751870037321      6.0508710104738643      12.162074114348094
   784   3      20.300824722502416      6.1718493919708157      14.286090013685401
   785   3      22.231230938637218      4.1238648897201484      14.360579473862227
   786   4      20.249398969088308      3.9142290271704576      15.913954656969642
   787   2      22.242150496096961      6.0755975144866072      18.158072852619519
   788   3      22.332858036843533      6.1876196672491455      16.284982070168503
   789   3      20.345588209719157      6.0953833797941002      18.347477648195557
   790   3      22.418744789418177      4.1299847270575647      18.370619080540045
   791   4      19.915077984591026      4.1581924772664136      20.266171363962577
   792   2      22.296666297038808      6.0618128548453489      22.225588104967713
   793   3      22.360853185561478      6.1493573851418413       20.34961310479332
   794   3      20.384892546901586      6.2343503688948481      22.432396336656215
   795   3       22.30426876636902        4.17084745544327      22.479442936436229
   796   4      20.157196964590813      8.3133172466861396      11.715221744655011
   797   2      22.254371912418293      10.040667761887063      14.047290985527123
   798   3       22.30222588346901      10.143799945920508      12.194754320346805
   799   3       20.35290629165663      10.072297748868673      14.277168195457694
   800   3      22.445628638815599      8.1200459278284214      14.279401866336695
   801   4      19.907543837440826      8.1533931640650454      16.176248691235177
   802   2      22.219103845194443      10.153859253544306      18.136891588048076
   803   3      22.415103836230376      10.168083333590255       16.24121082266759
   804   3      20.324856617749774      10.103953444821459      18.285446766954937
   805   3      22.393631169874599      8.1165739182606753      18.392498220557197
   806   4      19.904412881179532      8.0357770151698933      20.150137142617481
   807   2      22.236052006061069      10.094869883223561      22.261732509714683
   808   3      22.353295369722392      10.179835868940119      20.363707987103577
   809   3      20.346987267669995       10.15364803210654      22.446159061127624
   810   3      22.436732950414047      8.1893391648483842      22.434898401912005
   811   4      12.092095517565946      12.150159162122588    -0.37045293464460616
   812   1      14.115682640873612       14.13070873916511      2.0381319590627363
   813   3      14.166242955161167      14.428701690586053    0.035681956078573614
   814   3      12.067791194278822       14.32090234163249      2.0712629040679986
   815   3      14.346870304198839      12.094140755860547      1.8856049858316555
   816   4       12.04316828982866      11.792268624847514      4.0657265353073573
   817   2      14.064488647738088      14.163519835556501      6.0250867228142271
   818   3      14.285609524624226      13.978596309575714      4.1054885942137052
   819   3       12.10884577981156      14.374810781310947      6.1400321351077656
   820   3      14.103292435465836      12.216809935808707      6.3902110510837442
   821   4      12.009457041615365      11.809182312416453      7.9886521441325655
   822   1      14.126043980686539      14.138451442645039      10.094458412280298
   823   3      14.119327721745494      14.512627815122583      8.0787932279473988
   824   3      12.086889534645096      14.437822381681388       10.10747147614225
   825   3      14.263104045902097      12.101180898277484      9.9003873743149136
   826   4      12.271456310705958      15.851867812044111    -0.12874991389517942
   827   2      14.244460351651556      18.137235422235804      1.9595773974336439
   828   3      14.100404092837929       18.03431920547964    0.017533384787982241
   829   3      12.175674981318098      18.197146721170576      2.1699478917929005
   830   3      14.192265628247268      16.215639871726108      2.3421318756633993
   831   4      12.033066540520773      16.200445258107653      3.6821391084911603
   832   1      14.195090359187018      18.181376833138604      6.0384022779448117
   833   3      14.235455123397633      18.526907595072757      4.0050857903761647
   834   3      12.155749065787242      18.230570786712736      6.0990543393432199
   835   3      14.433284018157057      16.150904494468513      5.8732423257053918
   836   4      12.185194653292188      15.983544468690788      8.1764413270533698
   837   2      14.220772952082262      18.267439352306891       9.968807023418579
   838   3      14.224944152700784      17.958991075255501      8.1030993858886493
   839   3      12.209259899459857      18.114947180036705      10.306823453934525
   840   3      14.217602973515451      16.244669204514778      10.465187408230848
   841   4      12.277806258429106      19.906733257527495   -0.045273041018127395
   842   1      14.175744660029101      22.229415502290166       1.973031778532063
   843   3      14.120184241130648      22.629896619564466   -0.037406032082744872
   844   3      12.097220248263882      22.446552354365235      1.9629106955001592
   845   3      14.055602373427478      20.190136971391414      1.7410277908499354
   846   4      12.333860886328193        19.9784895358836      3.7884354609659114
   847   2      14.155797720288943      22.242055406910442      5.9009303124729877
   848   3      14.186038689389832      22.082943444969647      4.0158846890407034
   849   3      12.208186790778964      22.295380475831344      6.2021418747139725
   850   3      14.127514853050805      20.280322680075066      6.3699949175280333
   851   4      12.239596687192655      20.280591616945134      7.8240140855579554
   852   1      14.187054987147675       22.22995358397927      10.074796638014275
   853   3       14.14950027706552      22.584842320946112      8.0604455834664925
   854   3       12.14107787991059      22.430905437519389      10.095686656923865
   855   3      14.052364955551305       20.19491992051918      9.9307617349013793
   856   4      15.876134681076337      12.234666452466531    -0.15916377560438599
   857   2      18.094383880568962      14.220606037919323      2.0624509177411054
   858   3      18.391316921202659      14.173399718688275    0.092345359080935996
   859   3        16.2194458408391      14.203520034137266      2.0435773535680579
   860   3      18.336692628291029       12.14258703338027      2.0657784122214902
   861   4      15.839524936166296      12.072711720858175      3.9329117216176694
   862   1      18.180802761577958      14.112479609256406      6.1322700209650529
   863   3      18.388897401490617      14.113577296175121      4.0345780924217909
   864   3      16.125080401344544      14.071141307013455      6.2997041434832957
   865   3      18.425332387891455      12.096643355168768      6.0972401119403443
   866   4       15.94013703735197      12.231171855637772      7.8952882932912134
   867   2      18.080778786334697      14.121204377995795      10.130500864558554
   868   3      18.327343955837698      14.328884408293117      8.1799740679781969
   869   3        16.1967137202899      14.205938973372929      10.138507077940043
   870   3      18.378558024175796      12.182546827883547      10.085215121523811
   871   4      15.932160637792352      15.917813503042364    -0.21306022411141917
   872   1      18.214544175145278      18.170225307381109       1.995064749247689
   873   3      18.438914242082898      18.242338187232495   -0.053163018477164606
   874   3      16.175345360973058      18.333365932424257      2.0126271047265401
   875   3      18.377281963179076      16.136158129976803      2.1109395947541869
   876   4       15.95366814147091      16.048714887791412      4.0585772990764299
   877   2      18.216266380540748      18.107522859623419      6.1217463956043554
   878   3      18.167913077132575      18.437931502358989      4.0651854337259294
   879   3      16.242639235534909      18.465272686212973      6.0545638030844211
   880   3      18.104408955733859      16.201349643538201      5.9249744052464015
   881   4      15.992534755293885      15.973901363225716      7.8679514385404659
   882   1      18.217198743876697      18.197615641372799      10.135956353424664
   883   3      18.354651833396254       18.17759068174545       8.073283821862951
   884   3      16.172046960062989       18.23200117290007      10.319595921609222
   885   3      18.283280489358152      16.166398997071664      10.268868188055571
   886   4      15.949278058820564       20.11813160241832   -0.032277908307597032
   887   2      18.109676353604275      22.178882679646843       2.035127049932461
   888   3      18.421401275362967      22.426699163477661    0.032773365002807399
   889   3      16.246010699971954       22.31708781499038      1.9174440614388415
   890   3      18.362759788660011      20.308492375428724      1.8885842631583998
   891   4      16.215545807786679      19.888225661710941      4.0113811442528595
   892   1       18.18696854745421      22.267607609233792      6.0347076473007482
   893   3      18.357977389877099      22.267928777542064      3.9613693093696019
   894   3       16.15749811922322      22.155332064750628      6.2495218127636987
   895   3      18.385569830068921      20.242103502208458      6.2057508242576462
   896   4      16.138463091709198      20.245415745061575      7.7141654295937565
   897   2      18.120926139710047       22.22643354354279      10.108818076240267
   898   3      18.361600547436947      22.370203427223149      8.1267272539986664
   899   3      16.218901746596185      22.314710291587637      10.113191611450789
   900   3      18.417602220939902      20.284238872080682      10.043963766378678
   901   4      19.979969520387112      12.273954212233788    -0.18203125657419778
   902   2      22.245254435735418      14.095763386844473      1.9814379077155111
   903   3      22.377983573226917      14.186073940084793    0.098616352758576123
   904   3      20.354009123540191      14.191686648485453      2.1054351460038232
   905   3      22.415922349248085      12.210322537147016      2.1953606049394261
   906   4      19.918698380364312      12.143070685174004      4.1501752453530312
   907   2      22.142857414977065      14.162974063381091      6.0909930662010048
   908   3      22.356503544809474      14.354659463719505      4.1146314540669868
   909   3      20.284454470949264      14.392093665488719      6.1063113430899065
   910   3      22.273688483005927      12.262687750162415      6.0343533364507582
   911   4      20.090884984246966      11.780752190019486      8.2854676779794971
   912   2      22.304017400809759      14.100610072308243      10.116218924207862
   913   3      22.381328193360773      14.321565488597589       8.128065603967066
   914   3      20.342669647041731      14.407993073236598      10.099675914235037
   915   3      22.198841575705263      12.236262057413898      10.175637829350165
   916   4       19.96191194436993      16.030396583293772    -0.12587057494339382
   917   2      22.188379573687172      18.082234944589086      2.0475122426512056
   918   3      22.335875006042109       18.30833787414922    0.091206583865494781
   919   3      20.323950605699423      18.310687856208173      2.1114655012989045
   920   3      22.376131863349897      16.201960070005569       2.105104372346593
   921   4      19.929988430750708      16.045460863854665      4.1332095891587546
   922   1      22.212094577995874       18.18036709896279       6.067700966594062
   923   3      22.488048064664241      18.274940839493485      4.0016681000589349
   924   3      20.190145629039865      18.177514299833138      5.8953190137515739
   925   3      22.562727522869746      16.184735057015462      6.1103444213939069
   926   4      19.942950534746867      16.065067667295153      8.2756892944893305
   927   2       22.18374893059832      18.305667840567782      10.017006924808825
   928   3      22.459767551192328      18.223747162663969      8.1278295771128182
   929   3      20.317394404498184      18.160514902999122      10.140800446485244
   930   3      22.530431527855718      16.296635493788077      10.153175779123458
   931   4      20.051671660634806      19.978823406292268   0.0045752698857444611
   932   2      22.237398556113536      22.156325107207273      2.0285428084554904
   933   3      22.307856787519903      22.441188155718365    0.097564586152958224
   934   3      20.333891453949196      22.423794949619268      2.0584394638275363
   935   3      22.365183728340369      20.279694379293556      2.0814031947630744
   936   4      19.956833133446182      19.985367039389338      4.1960823221627574
   937   2      22.233725053885472      22.134358100491465       6.106970348363685
   938   3      22.367053324545271      22.409012433195564      4.0476643632021538
   939   3        20.3112983029954      22.497475855415587      6.0187674303117022
   940   3      22.247735684345241      20.260532048003888      6.0391471891878332
   941   4      19.874001819026127      20.169646217070866      8.0714406939998025
   942   1      22.255161032942446      22.246726478948712      10.068215873740963
   943   3      22.270888876707605      22.452822268456718      8.0200072587243749
   944   3      20.243174300207954      22.544498046392675      10.076147669101271
   945   3      22.340835350884937      20.225033113494071      10.194507226521072
   946   4      12.104175493818628       11.75037500118877      12.118503758640076
   947   2      14.146612965361022      14.196494369187286      14.003532354416878
   948   3      14.189318031116059      13.892361105388312      12.135445349720483
   949   3      12.191397221773466       14.19475537927041      14.322947152523799
   950   3      14.139091195756549      12.180895970601682      14.485484620917889
   951   4      12.097836072631058      12.110194570216295      15.798135581969767
   952   1      14.142273608007253      14.136907449968692      18.178368039799857
   953   3      14.193822188897057      14.470696007448703      16.173952903122196
   954   3      12.099850061102302      14.324508118078096      18.179386156884664
   955   3      14.298564459550825      12.087140046163547      18.010196183143851
   956   4      12.128649287035758      11.782528385503143      20.166550826882137
   957   2      14.150594912218386      14.172914167086484      22.086322424795142
   958   3      14.175008046731556      13.912716093906822       20.22945156015918
   959   3      12.177137111191307      14.147041980202951      22.468702452122546
   960   3       14.11690798757151      12.193464470822233      22.606719182723776
   961   4      12.282937418488141      16.253008613473579      11.838042796620275
   962   1      14.192003259107535      18.186843751489405      14.155782445229832
   963   3      14.202560526190029      18.547290351678914      12.152697050577263
   964   3      12.146192462961436      18.279929238954939      14.197108976437161
   965   3      14.321492629902618      16.144776349136528       13.94254487314095
   966   4      12.192946232126596      15.827172428006195      16.139944466202049
   967   2      14.154831261596282      18.246242258192883      18.062461706312213
   968   3      14.250660119815935      17.993818164294506       16.19740341400135
   969   3      12.190383772656054      18.221634820714453      18.382889873132548
   970   3      14.173579522723204      16.246300338737377      18.520700069743029
   971   4      12.130868899762905      16.150437222883593      19.832251709008869
   972   1       14.14988040943043      18.168383473278205       22.23860897075734
   973   3      14.161830977239065      18.533006467231022       20.26228658302302
   974   3      12.081893449659571       18.35995945385017       22.28051814706815
   975   3      14.234983056656194        16.1289231618805      22.199772236615317
   976   4      12.369289342255678      19.998655459090283      11.959386849785197
   977   2      14.211050888103129      22.295729334197748      14.005481138379805
   978   3      14.146343284551612      22.036487290616105       12.14794488764732
   979   3      12.207069190499732      22.264878616998896      14.392717674683402
   980   3      14.137733331491734      20.301388498231223      14.510294449343796
   981   4      12.221914521318004       20.31919403368331      15.868733547735868
   982   1      14.175169072673866      22.251498196130211      18.242755177480891
   983   3      14.166741757549506      22.568504506343551      16.240086600528574
   984   3      12.087675837204207      22.405405238073204      18.321311781610536
   985   3      14.283533947870017      20.207392684629852      18.058444679358637
   986   4      12.181593093714202       19.85051876570013      20.183341205331573
   987   2      14.074798865375405      22.268488033334958      22.217923865444611
   988   3      14.306391594379718      22.121207741463369      20.327277702398419
   989   3      12.120361128195634        22.4402252194852        22.3095507389517
   990   3      14.151975782542133      20.345343937575251      22.647626841754224
   991   4      15.896682629175586      11.970785597742747      11.950206190685812
   992   1      18.207609977601649      14.120345988341315      14.124964371742825
   993   3      18.421196001945876      14.132465860568439      12.091068944632065
   994   3      16.151699648060909      14.073508611858912      14.357870400397537
   995   3      18.383289317723364      12.081310676486469      14.324054548396106
   996   4      15.934817777979534      12.252286702535645       15.96764386378123
   997   2      18.118893882994133      14.140868538349576      18.201627826457081
   998   3      18.342419530531313      14.238919114435973      16.239412837909839
   999   3      16.206209080072014      14.243066201125437       18.22377915149135
  1000   3      18.366158332126158      12.163945719705749      18.196041628971077
  1001   4      15.920421348212191      11.943026723262085      19.993699127133279
  1002   1      18.158782807912367      14.111267875539136      22.224099948563119
  1003   3      18.414187806693423      14.070819031313903      20.211363759154061
  1004   3      16.125455594659748      14.099999914166299      22.483101582818083
  1005   3      18.422424933717348      12.093536379781568      22.395207322093526
  1006   4      16.104244434713113       16.23408389155437      11.857588788281735
  1007   2      18.147017963217646      18.145288558121479       14.25155323823734
  1008   3      18.291725070802908      18.417814931286642      12.221392634661067
  1009   3      16.249400565862281      18.433235731670415      14.170703054563097
  1010   3      18.248224192103734       16.24382138858023      14.107395907028996
  1011   4      16.007405930911336      15.932030421550383      15.975411913597465
  1012   1      18.210737777099641      18.205780728074178      18.190392709530798
  1013   3      18.349339948118455      18.301221569139585      16.170288076199274
  1014   3      16.160072837804687      18.183972562235478      18.447693810105509
  1015   3      18.217287710975992      16.171876906624394      18.437065491034737
  1016   4      16.104463652711864      16.253356866556523      19.869404315731149
  1017   2      18.093388372368395      18.081048986613094      22.286160265680291
  1018   3      18.305565807964232      18.390024030114375      20.376535094723955
  1019   3      16.224952878064983      18.361104061146431      22.374796103755568
  1020   3       18.26508471447476      16.190651402414087      22.317852834234809
  1021   4      16.152014477820941        19.9151101402081      12.095537187033646
  1022   1      18.200066529488318      22.275324425139274      14.163280978067695
  1023   3      18.423555501542506      22.203331516489634      12.111012844202889
  1024   3      16.156625579778691      22.174004370608319      14.365228634918266
  1025   3       18.46662853817805      20.249427898152415      14.233729207382085
  1026   4      16.017622511805065      20.291768972535742      15.946460037505631
  1027   2      18.151503184638138      22.255018163261774      18.167742657040765
  1028   3      18.357375281365726      22.304286943011032      16.295518305387603
  1029   3      16.279342911301384      22.397715201981846      18.271537624589204
  1030   3      18.353904195415303      20.348463987072662      18.361868236426428
  1031   4      15.972176131575001      20.002625198594259      20.054299864882573
  1032   2      18.190317942575732      22.203667277208204      22.270561569686375
  1033   3       18.29126633629927      22.367201762234419      20.348414171311951
  1034   3      16.247873600700657      22.242839720246561      22.476349154688961
  1035   3      18.371103878707434      20.308758138687654      22.422006815627352
  1036   4      20.040479645606364       11.90007210473739      11.884577757985701
  1037   2      22.226356576065051      14.044550569688836        14.1623224634954
  1038   3       22.27842810164783      14.362961319054342      12.187336350080686
  1039   3      20.339879514324494      14.327002061670909      14.249097580544781
  1040   3      22.287898990192893      12.159405344996584       14.24258731675584
  1041   4      19.887325885619944      12.031723695057314      16.190816116267612
  1042   1      22.279469197014304      14.125144075216046      18.200270833656862
  1043   3      22.339735870034325       14.34671070134141      16.138339672928122
  1044   3      20.247310826858733      14.350578112762548      18.206950454472651
  1045   3      22.373483802177631      12.085898863468888      18.369913484471144
  1046   4      19.937262729475478      12.137941666811534      20.072741034482128
  1047   2       22.25297830835364      14.157239682903578      22.172450951273575
  1048   3      22.320706339724019      14.265211073251308      20.302838025913555
  1049   3      20.339182737700558       14.22128318114634      22.456277842753792
  1050   3       22.35211513997238      12.198637763902088      22.399330478074862
  1051   4      19.938037787046255      16.010087938976813      12.078598728671272
  1052   2       22.26645300569032       18.16597958037967       14.08069351175995
  1053   3      22.383285366825483      18.290073206517008      12.200636854847941
  1054   3      20.349979784520873      18.285299298009171      14.224490004636758
  1055   3      22.423854843499544      16.295037843531702      14.255859900585477
  1056   4      20.174914173442954      15.811429636190239       16.21123114660654
  1057   2       22.24280841022701      18.116197039198408      18.153458024986936
  1058   3      22.358288761340994      18.345214915174079      16.263359629629608
  1059   3      20.348222912571909      18.292770677818492      18.412084616714324
  1060   3      22.387884944899003       16.26415941331036      18.263458092205848
  1061   4      20.029395143025233      15.948762281617604      19.981096459148912
  1062   2      22.234697248031988      18.215774578327853      22.205811006014564
  1063   3      22.402998084518092      18.270178142791792      20.300561089989479
  1064   3      20.300929046744429      18.235044766568077      22.312815866089117
  1065   3      22.363120840948479      16.213134476003454      22.445456274270612
  1066   4      19.861656495329914      20.197273978612969      12.166912596858195
  1067   2      22.247126037754214      22.289525670818929      14.060618409444047
  1068   3      22.308776064269296      22.347249359342715       12.19601310179007
  1069   3      20.337205250632394      22.382780092392597      14.334507724168562
  1070   3      22.331244960792162      20.326523457499299      14.339332943814796
  1071   4      19.982398850671391      20.211426620974059      15.982506337717442
  1072   2      22.261382414506347      22.179645230971214       18.25810235378874
  1073   3       22.32788656922844      22.395779440913856      16.355112751314195
  1074   3      20.319253752980895      22.396989957322763      18.424762387374265
  1075   3      22.335272284621531      20.305519678399655      18.390675554676005
  1076   4      20.028401893604112      20.007918098853494       20.09728549046541
  1077   1      22.266623278790984      22.196279091586923      22.300489294019531
  1078   3      22.324949134421601      22.528749344121707      20.285194075066894
  1079   3      20.225920585307136      22.529840211147143      22.317325731735838
  1080   3      22.355044793963973      20.176092339749477       22.42234860436055
