(written by ASE)

1080 atoms
4 atom types

0.0      24.299999999999997  xlo xhi
0.0      24.299999999999997  ylo yhi
0.0      24.299999999999997  zlo zhi

Atoms # atomic

     1   4    -0.14210245665100776    -0.31732726343922463    0.077810486437363352
     2   2      2.0488325940332333      1.9224739732664069      2.0591837238458415
     3   3      1.8072977995430655      2.1242261849281334    0.092813593885363407
     4   3   -0.039965985840980579      2.2345408179160948      2.1520534442869494
     5   3      1.9196134315535831       0.056558430078115      2.1494589327467404
     6   4    -0.16181904478029666     -0.3193181406903064      3.9020903083082703
     7   2      2.0690785223331623      1.8988173068590752      6.1100563830734966
     8   3      1.9258161049048947      2.2272829061617756      4.0454683928977149
     9   3   -0.054428069159460898       2.281047210824144      6.0027259464545288
    10   3      1.8765191297913371    0.018345047045074749      6.0037186211897229
    11   4    -0.22962186929645284    -0.20863726307592217      8.0905333161000428
    12   1      2.0525522202515978      1.9998458551155851      10.053094431360995
    13   3      1.8538218628237331      2.0742936471676732      8.0049782317994911
    14   3   -0.018211892203385247      2.2521161574156441      10.099582710550017
    15   3      1.9214479409586747   -0.030664549207691617      10.320184035835789
    16   4    0.011522840053100718      3.8408116749183256   -0.039798520251538273
    17   2       2.047480014599051      6.0061460999405458       2.074874117139867
    18   3      2.0037798966150469      6.3593245802474332     0.11638274808958586
    19   3    0.015068004650068086      6.3361287572085336      2.0867643986928712
    20   3      1.9531368767838169      4.1364033778931857      2.0098423955233593
    21   4  -0.0092635177710683504      3.7818522341237037      4.0587475934892323
    22   2      2.0237981201695638       5.955716768723379      6.0925194693592237
    23   3      1.9532452837019463      6.1810859278230339      4.0781127853417631
    24   3  0.00013549488925274105      6.1769951643889849      6.0506242667552455
    25   3      2.0148435239947409       4.085870346448023      6.0796172156984776
    26   4    0.086414975632513921      3.7307237633048729      8.2429940740015493
    27   2      2.0884730013464483      5.9805732860369298      10.211698655002378
    28   3      1.9927835029452392      6.2280011559764157      8.0564036117789879
    29   3    0.021645332294636783       6.036160380319755      10.094658873101771
    30   3      2.0830868618431002      4.0822206481239851       10.04535723253248
    31   4    0.012374476334088828      7.9182496363311108   -0.039120313703683483
    32   2      2.0004087018813186      10.100392962028769      2.0349047421240734
    33   3      2.0095889943888934      10.203568692668366      0.1170692898664437
    34   3    0.066050228281442872       10.32970407809275      2.2195309875794802
    35   3      2.0313042843632862       8.227103763056796      2.2051706116410426
    36   4    -0.10892814359800394      7.8990709163484487      4.0351461264423527
    37   2      2.0406610387845929      10.006292774084883      6.1032742263782955
    38   3      2.0950351841160901      10.413082191408998      4.1135774170805526
    39   3     0.06885682584117718      10.407087857321244      6.0687776852812023
    40   3      1.9433874460747678       8.146023584990683      6.0343531497257823
    41   4    0.083774207806853629      7.8109594907486306      8.3209262416743002
    42   1      2.0465237205737496      10.038035803172239      10.110669012788417
    43   3      1.9926594839323493      10.255930246249514       8.055901235634499
    44   3     -0.0359667247150149      10.366563779310205      10.154374542296017
    45   3      1.7564718283818916      8.0621392339876614      10.111250533652466
    46   4      4.3585694984088637     -0.2514213448712766     0.11064637167461444
    47   2      6.2236192075731429      2.0450659254537373      2.0771413510729233
    48   3       6.004182132993523      2.0711503471467143    0.037087891371543613
    49   3      3.9458944045918209      2.1067240705290642      1.9695466735302598
    50   3      5.9451275650095337    0.078651633985146963      2.0819908575022588
    51   4      4.4099032104531402   -0.095281805862903926      4.0304616084612217
    52   1        6.13832012767599      1.9949120124995157      6.0428638233503804
    53   3      5.8983002013980137      2.0950060385735019      4.0112696196941515
    54   3      3.9558436516804698       2.012051734051381      6.0737086642003177
    55   3      5.9394649267869575   -0.040178841959997116      6.0242045049435244
    56   4      4.3985892178378014   -0.036710125373298659      7.9370673599458383
    57   2      6.1808341570607288      1.9665262194258675      10.052196087854618
    58   3      5.9848948203840324      1.9773773951265867      8.1000194319343919
    59   3      4.0767299519051923      1.9343420592341476      10.266703682146552
    60   3      6.0339809541703628    0.024830056993040923      10.211792572782569
    61   4      4.3441313289708408      3.9916230713148204        0.13690829453407
    62   1      6.1129830603940496       6.036107272825423      2.0347107951002203
    63   3      5.8972607101454404      6.2050103906706067  -0.0076671034218505031
    64   3      3.9628931215372623      6.2371498781977524      2.0690698366159666
    65   3      5.9189536713225346      4.0129279338596504      1.9989017742746957
    66   4      4.4244635934481993      3.9754649789745979      4.1417202357730591
    67   2      6.2481585159937145      6.1026278121914643       6.089177108800901
    68   3      5.9201540379591489      6.0291214474116366      4.1098764959628191
    69   3      3.9415887308888857      6.2040089221536601      6.0552966755306175
    70   3      5.8694326884704111      4.0954543023108592      6.1059294377167523
    71   4      4.4135577246001247      3.9380692549863054      8.0456794918663679
    72   1      6.1306953682704401      5.9765575828614006      10.094510834146345
    73   3      5.8543214468982168      6.0857489335511907      8.0407954750360293
    74   3      4.0062122754440068      6.2741780706679444      10.090553467698625
    75   3      5.8576847322994112      3.9830761116262496      10.023736874987335
    76   4      4.1574005626418877      7.8027256723603235    0.070476088174009646
    77   2      6.0848652413455113      10.037988574840451      2.0400059781712891
    78   3      6.1117391120903974      10.156263454113551    0.060159184263369692
    79   3       4.049192160214667      10.303711505845188      2.0884680996671916
    80   3      5.9857878982172554      8.1488599310631304      2.1769977364960655
    81   4      4.3185793019274934      7.8519500761504464      4.0956142026129347
    82   1      6.0755899276292276      10.058051430533688      6.0907880229014939
    83   3      5.9873900489849179      10.356505046396636      4.0341074237889352
    84   3      3.9952843140945227      10.260036145474109       6.113886918015905
    85   3       5.988577420853388      8.0362165967473569      6.0230208237445613
    86   4       4.229406920107877      7.7938110946736865      8.1525740105764868
    87   2      6.0792891310915804       9.936344438576473      10.153489427905917
    88   3        6.06335253635394      10.268813151189917      8.1604693567667539
    89   3      4.0942131263271593      10.224537340515045      10.096685838284543
    90   3      6.1001598226393412      8.0674617158917226      10.125210698975147
    91   4      8.0311990556367689    -0.39882415635688917    0.059750673191022084
    92   1       10.14604183414005      1.9729545747253829      1.9928585412030881
    93   3      9.9515352564413924      1.8473394132855252   -0.038018239480710835
    94   3      8.0896125081184564      2.0256798447139572       2.156752385237747
    95   3      10.172729522768559   -0.020575276376145625      2.3751996771126342
    96   4       8.385961336550368    -0.16786124562915386       3.869296121294596
    97   2      10.164839735425934      1.8458772074589191       6.071482997401203
    98   3      10.163232449811316      2.3485192511805191      4.0794243247962596
    99   3      8.1659560232119137      2.2254336103129497      5.9801422245696925
   100   3      10.075388192787662   -0.021803626496829841      5.7725070211627951
   101   4       8.389830982561902    -0.23647781182054373      8.2223911385859338
   102   1      10.180158169083876      1.9710289343601386      10.077325585493336
   103   3      10.022847579297922      1.8006509221486304       8.028547962650487
   104   3      8.1017811430264306      2.0608289245229234      10.201988024162494
   105   3        10.0968673092547   -0.016593169709493125      10.368052352815395
   106   4      8.4125078175956816      3.9418474519994202   -0.081751271304741815
   107   2      10.148022814016851      5.9223873480369909      2.0682193195975436
   108   3      10.123580424020464      6.3473368656329443    0.052822829143401223
   109   3      8.1479524324467434      6.2668044857671275      1.9827444225194244
   110   3       10.06990738910576      4.0462574625944647      1.7605227535464827
   111   4      8.3674044478325467      3.8527248561627085      4.1867742483030721
   112   1      10.149756356875693      6.0271140086053521       6.061921604196213
   113   3      10.040628017915527      5.8557366960312898      4.0147014936415832
   114   3      8.1055393953088615      5.9656542727164235      6.1723951653088189
   115   3      10.157873664382278      4.0143116612141476      6.3666114549971997
   116   4      8.3710566672351376      3.8145097511491994      7.8880272497039305
   117   2      10.137754508906532      5.8498863421468164      10.159187560739259
   118   3      10.169671751272398        6.33224956358164      8.1454218096040059
   119   3      8.1564647574575648      6.1189794728926756      10.016761244547551
   120   3      10.203999545350376      3.9950142503597497      9.8745285265266798
   121   4      8.3257203509405429      7.8466020107675947    0.048506411590884438
   122   1      10.075541388136456       10.11856705384637      2.0007551920681856
   123   3      9.8680573511087424      9.9804582792278236   -0.041843733718727488
   124   3      8.0199579352445625      10.128140874037474      2.2316559025704241
   125   3      10.111148331417205      8.0953339413826111      2.3350387764069644
   126   4      8.2725943528324013      7.9138185224689916      3.7754076231665192
   127   2      10.086049899813307      9.9217399874530763      6.0724502538451768
   128   3      10.108144808771236      10.420116713194155      4.1238707597485584
   129   3      8.1346925338045644      10.353059076352661      6.0498651939769097
   130   3      10.051710318547716      8.0750644942518122      5.8830055420101877
   131   4       8.387387436540676      7.8474562082343331      8.3483915877844854
   132   1      10.094941443260677      10.106224164417192      10.107434943701273
   133   3       10.04921632208616      10.081714949941086       8.041748965897531
   134   3        8.03390915995063      10.302339660801445      10.125562831555287
   135   3       9.999492272401401      8.0874478913269083      10.303974128374158
   136   4   -0.093465436920720693    0.018296027890215241      11.789683289574011
   137   2      2.0072099627052236      2.0548602221698502      14.019616758220161
   138   3      1.9565660837457703      2.0993623087972839      12.167056967796684
   139   3    0.039043075411627215      2.0719589328053947       14.36544346752429
   140   3      1.9548757138965474    0.023286043260663296      14.316136754905619
   141   4     -0.1301039262324164    0.095010264928450036      15.891610741000038
   142   2      2.0428813032005424      1.9841513952725831      18.214056832811185
   143   3      1.9640192168134456      1.9996065733092192      16.345741062045228
   144   3   0.0039693345960872036      2.1282399195148405      18.478189597266439
   145   3      1.9636550868078049    0.074105117311649121      18.491298971138797
   146   4   -0.044259809374849954    -0.18380687297338891      20.206400489125652
   147   2      2.0740085221343967      1.9647067889933585      22.319411401385644
   148   3      1.9797057794829069      2.2354171380784851      20.410052192711504
   149   3   -0.023674686446277897      2.3076853035333142      22.372584238757298
   150   3      1.8884616322325813    0.095371423080931786      22.341955266484415
   151   4    -0.13394658600494483      3.8846536333288522      11.801290128614422
   152   1      1.9972340579558157      5.9961294220860903      14.140590673998471
   153   3      1.9924021358582815      6.1225267208982075      12.121697877474622
   154   3    -0.06940376988082339      6.0384937987650407      14.386418512035345
   155   3      2.0359692834009375      3.9772674249998476      14.412587502866932
   156   4   -0.016401046188002179      3.9553835305593785      15.863602221123342
   157   2      2.0626214338267848      6.0714379313696112      18.127197255234879
   158   3      1.9972594954677929      6.1422049436852877      16.260999133715881
   159   3    0.016765176866664837      6.2012987530660366      18.352657875935719
   160   3      1.9452273404991482      4.0841412104255959      18.369776580317296
   161   4    0.052702890012288749      3.9125931054565553      20.106741245886823
   162   2      2.0549949337726212      6.0338253034612928      22.258932044178913
   163   3       1.944621572026805      6.0512412765900168      20.375489371192632
   164   3    0.016066565442160407      6.1885234415574626      22.533298526453262
   165   3      2.0020325227609974      4.1564810335109863      22.541670341776499
   166   4     0.11653991041795912      7.8774444627202334      11.851175536415466
   167   2       2.052605544921311      9.9493999964613469      14.150992847533187
   168   3      2.0287198186358508      10.263344884801269      12.221883198222972
   169   3    0.025243488174582159      10.309676518046068      14.247735160288359
   170   3      1.8859513275997872      8.0874537721682547      14.203126331372445
   171   4    0.039765631570181086      7.8430369292499771      15.971093079006112
   172   1      2.0648688417480914      10.050245708063208      18.179283302550665
   173   3      1.9683255632286722      10.289497689151739      16.151182770973662
   174   3    0.016433494045070753      10.124810510527508      18.417953681778105
   175   3      2.0466032892606214       8.034697986989487      18.455042185192855
   176   4    0.078536366949029379      8.1309278229939501      19.898002764635002
   177   2      2.0409653604473883      10.105113964329965      22.182397321345292
   178   3      2.1064674339366403      10.259213094605348      20.320808280637177
   179   3    0.050410866231933825       10.31953980350146      22.362513682829618
   180   3       1.926648611106492      8.1843420411919059      22.358765716229172
   181   4      4.1068877832025494    0.048687623149860304      11.738411860331283
   182   1      6.0859052632852499       1.993734351721892      14.132754150443878
   183   3      6.0699367534893494      2.2227445662221075       12.11084060943379
   184   3       3.966184953076501      1.9980202101581068      14.358725717053142
   185   3      5.9900050476969486   -0.046891647536117124      14.262527192381661
   186   4      4.2075560254207245    0.076720808856439907      15.880739591599546
   187   2      6.1207005961574277      2.0723787634021651      18.144209776878853
   188   3      6.0753027119789751      1.9339680279241112      16.277444478271825
   189   3      3.9878265885877169      2.0968403577319301      18.368906052409454
   190   3      5.9238807941848179    0.045455227520666733       18.46034608267281
   191   4      4.2815209849804337    -0.17871409393443685      20.235441772573118
   192   2      6.1194349520156912      1.9503682177710011      22.274228185954243
   193   3      5.8803112320958704       2.131394435743811      20.371943498004253
   194   3      3.9769433602133453      2.1102189233154127      22.474597423332511
   195   3      5.9941881061173561    0.074588628424618247      22.306981657809771
   196   4      4.2975756956706377      3.8007223281361879      11.861995376119362
   197   2      6.1727709053618272      5.9696146581172638      14.119388914469569
   198   3      5.9539339115194627      6.0040429695142912      12.162493742738061
   199   3      4.0389935918350988      6.1207983662952445      14.269251562318868
   200   3        5.93404540559977      4.0527123247638244      14.300087603124682
   201   4      4.0678780539724269      4.0528647044947661      15.802040252958836
   202   1       6.103530570371813      6.0316558831789377      18.200070154961267
   203   3      6.0592211850378845      6.2465713582910674      16.165145279216091
   204   3      3.9937023098740414      6.0597362388616451        18.3862919382032
   205   3      5.9973926862411036      3.9870459505234681      18.334974715482858
   206   4      4.2640618960517482      4.1012119498785609      20.023201536563711
   207   2      6.1729418987251758      5.9980947698750589      22.289491259616856
   208   3      5.9555359975300126      6.0562634837390101      20.373075699417342
   209   3      3.9717205714771726      6.2622781552131519      22.401320179816754
   210   3      5.8964601676492885      4.0847434155652849      22.438989768601701
   211   4      4.2430137551088141      7.7080228119204559      12.244317261947518
   212   1      6.0749749247340699      10.059130494011104      14.083395883721517
   213   3      6.0428059348164442      10.293391271540152      12.068678868657768
   214   3      3.9806451863649297      10.140615389634402      14.281238648630247
   215   3      5.9275956436945991      8.0234837732544673      14.082948244454856
   216   4       4.318030041717936      7.8426175487123437      15.917700543610241
   217   2      6.1141258256577409      10.125991793381335      18.062107221571662
   218   3       6.077028588395617      10.100291888686211      16.185877886580116
   219   3      4.0947079762771699      10.192533855636526      18.301046857510521
   220   3      5.9956857410145599      8.1595545042528261      18.419189628713081
   221   4      4.1706467191180767      8.0069888664059246      19.902338300553886
   222   2      6.0841471185587848      10.029291110234334      22.287029122732974
   223   3      5.8991853863812054      10.237421385718411      20.381531786200721
   224   3       4.035368330671516      10.186741717652644      22.497865352433269
   225   3      6.0542221137310168      8.1350012418768376      22.308549301321889
   226   4      8.3372602615855342    -0.19981355359944342      11.899623332406176
   227   2      10.231266714653716      1.9359816644727541      14.127452510533201
   228   3      10.151366324307507      2.2509797920834203       12.19462845857495
   229   3       8.136546504408706      2.2018322293647352      14.130934429407118
   230   3      9.9756443740256753    0.015380392814662761      14.069704477094289
   231   4      8.3246810981124924   0.0094387876558237865      15.922610822013539
   232   1      10.113271655616396      1.9663660853875675      18.187583388647536
   233   3      9.9023533689089192       1.845392667264026      16.167768095435317
   234   3      8.0109221918826972      1.9405654966658337      18.476109791527655
   235   3      10.104138698514763   -0.051507004583693054      18.607208586884074
   236   4      8.2903958132629132    0.018511989716114494      20.086670836815035
   237   2      10.243810937240394      1.9388562186064653      22.376336087296135
   238   3      10.109316901532535      2.3323828899320471      20.339539786405066
   239   3      8.0303827246646797      2.1780038810207629      22.238523862781037
   240   3       10.13105976178889    0.033546894291530648      22.023150514316988
   241   4      8.1267434538144254      3.6342820306687447      12.188280903667254
   242   1      10.145633937295933      5.9928926559804587      14.129699692747495
   243   3      10.028231006587083      5.9542325639660021      12.091730655884565
   244   3      8.0868941640392684       6.036658597369633      14.225520056462212
   245   3      10.196048396391296      3.9952450530480119      14.489082961928844
   246   4      8.3548599557036418      3.7947416466807775      15.968137005090016
   247   2        10.1275934613427      5.9357340416870112      18.237087658268383
   248   3       10.10095089852484      6.3270837632821904      16.235435800889199
   249   3      8.1271797133808903      6.2713660813820864      18.212327662736751
   250   3      9.9703279673550487      4.0287494602663738      18.048910807064793
   251   4      8.3789149607258384      3.9073324155699831      20.160000182640161
   252   1      10.122129530361802      6.0520355292909969      22.227877430198365
   253   3      10.082201775462062      5.7786011752605901      20.207147604564376
   254   3      8.0469173708338122      6.0420614938939448      22.426303680163812
   255   3      10.106249938461753      4.0085084534524178      22.592708092018164
   256   4      8.3714780213158537      7.8021330095037502      12.032753463772583
   257   2      10.109835945470401      9.9448984856995217      14.195374596528763
   258   3      10.086317131845725      10.360838243342231      12.176188396631506
   259   3      8.1169709903118221      10.329427417591706       14.08522021993023
   260   3      10.034084907056993      8.0696137513700581      13.942479320182262
   261   4      8.1472544189012144      7.7033996777900651      16.171694660436888
   262   1      10.099208045341786      10.058754143368491      18.168089304150733
   263   3      9.9717334842560401      9.9775078705691964      16.141307148518184
   264   3      8.0314853616204349      10.064609754215395       18.48454123467814
   265   3      10.131044084917455      8.0586359284639233      18.542925973970192
   266   4      8.1750548713187818        7.99643757625583      19.905589164454309
   267   2      10.195773926326339      9.9926023344734567      22.294945891051789
   268   3       10.11177800392527      10.420890542018453      20.331826669862121
   269   3      8.0170100551170371      10.312972485352178      22.225549892266883
   270   3      10.016045053713018      8.1180717649744079      22.105745348927883
   271   4     0.11840504174174139      12.161828349958798    -0.30418669918160191
   272   2      1.9582824257871538      14.204654177620824       2.083160193370015
   273   3      2.1141926569792631       14.37104218683646      0.1104277342578811
   274   3    0.049374496461449313      14.234649885576266      2.1127548927433364
   275   3      2.1446247257941708      12.261545954682422      2.0303274365218908
   276   4   -0.080170286207293412      12.001853077463391      4.0511912819923186
   277   2      1.9802428345172565       14.13416637210325       6.127019393560782
   278   3      2.2243304086317197      14.233471251122948      4.1239487354292672
   279   3    0.092626412787852705      14.231518853253474      6.1443552057291519
   280   3      2.1677550221425621      12.257060510784454      6.1788604837400944
   281   4     0.33131998688755887      11.956659233620273      8.3096248588905688
   282   1      2.0410461299417721      14.217743536381647      10.093172900721337
   283   3      2.1755065157340856      14.379700243008887      8.0597645404297094
   284   3   -0.015543215789571858       14.20622619163654      10.286229317457215
   285   3      2.0413109370467675       12.19069564867123      10.205087478428485
   286   4     0.17509519208329799      15.996298110365414    -0.18408696376725719
   287   1      2.0521557971056335      18.197133151352599      2.0088481923925001
   288   3      1.9006615935985043      18.253988502887413   -0.046767234394959882
   289   3   -0.034303809796280671      18.330791290671062      2.0060386632961875
   290   3      2.1070874920004115      16.181968404211858      2.2093056493444791
   291   4    -0.29200202202284165      16.311262202512797      4.0138677941926018
   292   2      2.0496161747818022       18.21614669680709      5.9635477866779185
   293   3      1.9591155285601827      18.377489246946968      4.1062949963702957
   294   3     0.11602495067526876      18.312940464792685      6.2937521867175112
   295   3      2.0892881498883256      16.299129271650191      6.0914291952883781
   296   4    -0.23411197460504402      16.233508031673008      7.9086330700676433
   297   2      2.0581260227591693      18.227859092729201      10.031214508699216
   298   3      2.1436169116255628       18.30776940032975      8.1620929075259632
   299   3    0.098120070079297059      18.420020357042205      10.199727691020788
   300   3      1.9938021300732784      16.332956173268744      10.305590828150308
   301   4     0.12401018128313865      19.857406481568386    0.095441664437934615
   302   2      2.0132623655380653      22.147404133049324      1.9814057240551468
   303   3      1.9211699348896181      22.459985417922223    0.045405234181638485
   304   3    0.011383844678726945      22.405136507357511      2.0660013622292892
   305   3       2.004317919836383      20.281701837262176      1.9869685843739142
   306   4    -0.20117022846246149      19.968187518071691      3.8103103789643242
   307   2      2.0240052623298386      22.192558178967282      5.9748251404140928
   308   3      1.9201756828950485        22.2863658289948      4.0540339096493829
   309   3   -0.011282149124863135      22.331599691868465      6.1346180144741504
   310   3      2.0332860092829579      20.308660960765046      6.2126036143247836
   311   4    -0.21968416754528511      20.030415162264685      7.9545218415710179
   312   2      2.0117480420181559       22.34138741292595      9.9806221567423759
   313   3      1.9957803053486747      22.416569588431948      8.0879297282859355
   314   3      0.0461940280284487      22.252696407772266       10.21588557370211
   315   3      2.1148364991301492      20.331712582278033       10.25668699387734
   316   4      3.8728694145662139      12.069491835671311    -0.16571581707718966
   317   2      6.0986368490972458      14.109530866889251      1.9850316987433774
   318   3      6.0420825431786893      14.421252789281828    0.074206578051149538
   319   3      4.1412023798646533      14.373454458357088      2.0971981319572657
   320   3      6.1063443314142924      12.235327374374773      1.9945377418679155
   321   4      4.0836152098343019      11.858281642991988      4.1362944724872737
   322   2      6.0631782864014037      14.130476196351188      6.0179459319018269
   323   3      6.1406106634647246      14.232323237883266      4.0991628192206502
   324   3      4.1379050886998687      14.438405995006091      6.1524842705310068
   325   3      6.0142553121019509      12.274642418834828      6.2037848337507402
   326   4      4.0764971846807621      11.763569362564038       8.103305433088746
   327   2      6.0858125499758575      14.136723184165351      10.071991587282421
   328   3      6.0405740185798429      14.422883682742079      8.1468763246651807
   329   3      4.1198994019616535      14.456156842716661      10.177245904294205
   330   3       5.983188248378239      12.269054617888221      10.101546935959549
   331   4      3.9749106157723295      15.931730816801114    -0.11534367037332775
   332   2      6.0446619741072531      18.191184393314476      1.9234620001135065
   333   3       6.041287190458787      18.273284930972967   0.0060736515863065365
   334   3      4.1135084465863194      18.206671972508094       2.244116249344442
   335   3      6.1612126040687096      16.280579265745388      2.2324527924280622
   336   4      3.8834723665609894      16.182340422019944      3.8019522100149827
   337   2      6.0970644300481149      18.181167835104343      6.0269139478008782
   338   3      6.1114838629869483      18.489592155921539      4.1045957616122424
   339   3      4.0708321897940287      18.315940752919328      6.0932382855145137
   340   3      6.1962267089552583       16.31517361521653      6.0682633504452044
   341   4      3.9653835922528469      15.945542964755978      8.0888841286522108
   342   2      6.1510313131883825      18.272369859469705      10.062471525869572
   343   3      5.9945977069480456      18.320851432781577      8.1279915564220744
   344   3       4.025148563494982      18.261466285214201      10.348570023842786
   345   3      6.0870798218163253      16.341225354920947       10.28644340591992
   346   4      4.4948152978553795      20.461645778433386   -0.042823732599757809
   347   1      6.1267163540278968      22.264123095538892      2.0511510593869167
   348   3      5.9625542270016822       22.38396691302415    0.022022908482497328
   349   3      3.9406526528453489      22.392240322752482      2.0684349460207252
   350   3      5.9215377340735635      20.240561419212288      2.0128702843319348
   351   4      4.2950824954917248      20.213853909589979      3.7921789295468429
   352   2      6.2451100938691013      22.289478420548438      6.0483794468991086
   353   3      5.9431964692129977      22.270108203025455      4.1011309142743091
   354   3      3.9314645897346248      22.411223829817249      6.0835491143132892
   355   3      5.8992846077397383      20.336366213134355      6.2034214552433777
   356   4      4.3509433144370107      20.375446483972055      8.0475537172526472
   357   1      6.1252326681219316      22.278758021475298      10.087221247060615
   358   3      5.8651412765174094      22.378036470818845      8.0407054383881107
   359   3      3.9747818619265698      22.396798430436331      10.278843853796014
   360   3        5.81858832975254      20.260558327855428      10.080007149594289
   361   4      8.3708371054980883      11.969218932565013    -0.14815662595472051
   362   2      10.187397700346571       14.10284479387567      1.9772179467165436
   363   3      10.074483601546863      14.422563892550086    0.067627477983677867
   364   3      8.0820151305846437      14.362882418227731      2.0688894347484688
   365   3      10.005307002818851      12.213042909286649      1.8885453905228262
   366   4      8.0898597944416952      11.773467658988105      4.0511003161924108
   367   2      10.044448370009061      14.145000030867916      6.0390646167270168
   368   3      10.027624255164067      14.088065843767444      4.1043913476141762
   369   3      8.0966301482525882      14.221583069618147      6.2184526334650689
   370   3      10.199203852242741       12.26924917432696      6.3022098919226162
   371   4      8.0470289948327114      11.738543432033698      8.0698282689156855
   372   2      10.158756813299128       14.06021276208129       10.19559805699221
   373   3      10.132238281045991      14.502337123943292      8.1060469594547637
   374   3      8.0676697353739026      14.294814828630823      10.086150648357718
   375   3      10.154790214879196      12.196702650564516      9.9355326407047961
   376   4      8.2642242148574372      15.960283195539985    -0.16355004573655205
   377   1      10.161537209705417      18.194836394779127      1.9833814229637474
   378   3      9.9257817855941983      18.168681621699921   -0.060974124525510889
   379   3      8.0421228155057225      18.387433683794896      2.1146948440798536
   380   3      10.088947724789703      16.189459894780796      2.3166959937888802
   381   4      8.2604336896387736      16.229423172930463      3.7754305025325494
   382   2      10.260018526270512      18.223829263292306      6.0706765048869773
   383   3      10.002946797059192      18.473773791094555      4.1252333289503662
   384   3      8.0266501256470253      18.517463482008282      6.1096504748573173
   385   3      9.9701684026852728      16.259629558877297      5.9548223715827842
   386   4      8.4045124293465001      16.177521429833419      8.2198742577136645
   387   1       10.14378690796449      18.227380447509802      10.112692431654976
   388   3      9.9248453902327043      18.094162848382286      8.0610956735399917
   389   3      8.0305676083860167      18.420464829754323      10.223826157637296
   390   3      9.9782290816937369      16.215565454921656       10.29440241309066
   391   4       8.324985028706605       19.98439761992346     0.10544108322385494
   392   2      10.185457496343975      22.184100482127722      2.0826683200429139
   393   3      10.166876130265104      22.623875102585707   0.0050823408206433886
   394   3      8.1699563678697942      22.430913324318833      1.9515866289700432
   395   3      10.115232407835267      20.282890113756682      1.7702074728659281
   396   4      8.2540813828198267      20.037795942452412      3.9301730113989821
   397   1      10.185258790171849      22.219097808381449      6.0266819950995156
   398   3      10.040708178140346      22.057101762506214      3.9931626142980936
   399   3      8.1059598315072758      22.264705790453682      6.1583308351855566
   400   3      10.176706137358796      20.215283701888115      6.3893408868791628
   401   4      8.4445639225211462      20.129420991109058      8.0146867219093316
   402   2       10.21359811930092      22.178021619711991      10.144799716335468
   403   3      10.175197837833474      22.557567241817079      8.1268878321007403
   404   3       8.167230145924842      22.428874845700481      10.033880236179844
   405   3      10.136441354294419      20.273279260375396      9.9434094501246069
   406   4     0.29118365937228252      12.028759826047496      11.811502135382096
   407   2      2.0361686338228302      14.130930989122998       14.11198729353811
   408   3      2.0917918988028714      14.315684763149843      12.235150023334109
   409   3    0.067298880764325997      14.274606896117854      14.294255064794738
   410   3       2.118825494675789      12.248451741379617      14.266861520914791
   411   4    0.088936975837364124      11.808077317154083      16.146596499001859
   412   2      2.0540903561086661       14.03850633098866      18.216239484235995
   413   3      2.0814470629484911      14.373420931928395      16.242108847567508
   414   3    0.082785684689076003      14.332541603777699       18.21614974948886
   415   3      2.0141596449246162      12.163870539400508       18.24728350790943
   416   4   -0.051381606926641725      11.943564358360785      19.939225523420745
   417   1      2.0498943984439224      14.139681716507573      22.221826867298763
   418   3       2.028005153932523      14.330051893936643      20.188262895844186
   419   3   -0.019596899931692686      14.200508177117255      22.493382589516756
   420   3      2.0893972016042426       12.13493294285832      22.542907039585945
   421   4   -0.025441871331324629      16.012791367092923      11.879424672424543
   422   2       2.021783680185647      18.202432936699534      14.112441844077166
   423   3      2.0146388548947751      18.405878071501295      12.255949894962898
   424   3    0.050708852167531057      18.454978584119122      14.349077535994038
   425   3      1.9977802729526566      16.323282597599274      14.272633760382554
   426   4    -0.11191072123759208      15.885332009628906      16.215132685377021
   427   2      2.0793605880272712      18.223508990975841      18.194564164433878
   428   3      2.0048730611048109      18.384613262216952      16.308923639974115
   429   3     0.01868547908731151      18.404756521264968      18.358009525082082
   430   3      2.0101351877048876      16.328311303189871      18.344167265480358
   431   4     0.10337891874514266      15.906524646840071      20.078255426372539
   432   2      2.1208335288049263      18.136628444506258       22.30991629212286
   433   3      1.9054187721518068       18.38822500296747      20.335425816635095
   434   3   -0.054033093038151792      18.364334144340187      22.386607134629799
   435   3      1.8829789524370313      16.248223938424921      22.301329849825805
   436   4    -0.11948337660570141      20.297205836224386      11.782175353867878
   437   2      2.0138290837077006       22.29628068023451       14.09269967825214
   438   3      1.9730776337271003      22.280772086606305      12.231363042890059
   439   3    0.022317937012866731      22.288873193515055      14.370375583442286
   440   3      2.0501289008905346      20.360864270637204      14.432870946322611
   441   4   -0.061422866856781923      20.206772699109081      15.983439517507975
   442   2      2.0288710475212275      22.280888492777628      18.181286810093489
   443   3      1.9810105603229511      22.402223042865643      16.317424224366089
   444   3   -0.007423465520352562      22.442977877026284      18.443297826489687
   445   3      1.9302211192956367      20.370888307587911      18.400139132928054
   446   4     0.07416481981006405      20.020014801114961      20.168366448848019
   447   2      2.0400606053882511      22.207387113439715      22.278344345261118
   448   3      1.9173180814940163      22.398131856962529      20.374621951518225
   449   3    -0.03668855278635242      22.429739120433211      22.395966908041288
   450   3      1.9396430966907514      20.316468911851555      22.384894160547944
   451   4      3.8979780269911291      11.883444262669828      11.816066587473887
   452   2      6.1058915998077543      14.061897485154105      14.155133806812378
   453   3       6.031342188583702      14.308907176371344      12.173553370261523
   454   3      4.0254700088035893      14.414666785022945      14.258206233926877
   455   3       5.931283045268894      12.205438477136651      14.252813085720888
   456   4      4.0478828601972623      11.779799790561187      16.030617402733483
   457   1      6.1065689245357424      14.119724392540162      18.170955859625959
   458   3      6.0044071348732118      14.414835670486601      16.134523506217153
   459   3      4.0166014364552804      14.322127531878154      18.252624480430125
   460   3      6.0440330714612802      12.087685481992887      18.327594746543873
   461   4      4.1793486145374654      11.936459755418632      19.934296503759668
   462   2      6.1015722113693096      14.089692654068333      22.188719257693407
   463   3      6.0182485750592285      14.240279181536616       20.30192709920939
   464   3      4.1071126832975509      14.390860082999037      22.387868977438117
   465   3       5.941690204300941       12.20020354626217      22.425522633015053
   466   4      4.0572461284578356       16.02969105691523      11.923412200779804
   467   2      6.0727223163812054      18.224594880230985      14.089939866144874
   468   3      6.0014265329140137      18.477344287252173      12.203148517377866
   469   3      4.0161734064899139      18.396180709368593      14.350096338928221
   470   3      6.0542923563589666      16.347482418448898      14.164695802672499
   471   4      4.1658032198590584      15.884728961549005      16.214149192997425
   472   2      6.1027813386294882      18.172574539389153      18.151990757776993
   473   3      6.0353885320215177      18.331953729236648      16.252465916953263
   474   3      4.0121984200953955      18.404258704091752      18.334202900968474
   475   3      5.9637176076037512      16.309908175831129      18.336582186430046
   476   4      4.0996740897786648      15.851062799758335      20.152238449275792
   477   2      6.1624727613707977      18.202615204871361      22.180895991902968
   478   3      5.9533884800984262      18.386894364829537      20.282246835430325
   479   3      4.0155961839965846      18.190922052403668      22.317183999821193
   480   3      6.1069329872749538      16.279980824371492      22.297325273294931
   481   4      4.1691710721979884      20.364746338025203      11.809107032682647
   482   2      6.1580516780096239      22.322487853698807      14.065273888012316
   483   3      6.0630612055670738      22.218770284988071      12.197197975875097
   484   3      3.9850302683473928       22.35311025812701      14.346955159332104
   485   3      5.9118993263168518      20.346729680218289      14.390090183598275
   486   4      4.1199719989922068      20.269777617686056      15.972936071716877
   487   2      6.1519857550088641      22.289301286894109      18.213959197906217
   488   3      5.9487767327092369      22.399600445219754      16.316501477116798
   489   3      3.9538959408241094      22.387375218307771      18.397591294646773
   490   3      5.9934092506410446      20.348423530872822      18.336187501058937
   491   4      4.3712909725391977      20.354692332830734      20.308017521511822
   492   1       6.135687904453583      22.267079573070209       22.28219033312898
   493   3      5.8566264613745087      22.304544948394554      20.266041018735081
   494   3      3.9330630946656315      22.399276614547912      22.381917595715226
   495   3      5.8504915606578365      20.219956462727684      22.349626712081786
   496   4      8.1424509263563323      11.754925038508089      12.144052743535417
   497   1       10.10345135605364       14.15671684282313      14.130210414189161
   498   3      9.9733721545861194      14.126082211630429      12.097576524580758
   499   3      8.0159498647088707      14.213275811128151       14.27770108141244
   500   3      10.123458503837851      12.143625416130599      14.429006028039248
   501   4      8.3120036950262008      11.946381409379228      15.898518889747619
   502   2      10.117734500515605      14.035678843764291      18.216899204301569
   503   3      10.096757778947305      14.438604595681337      16.228405296714158
   504   3      8.1224111974213322      14.409042427029236      18.157885045488808
   505   3      9.9918893719215873      12.139188307537649      18.076653763956291
   506   4      8.2790625037508043      11.915095149183372      20.084949461503154
   507   1      10.105732752593662      14.122668154592908      22.205869260297781
   508   3      9.9733374578299827      14.051741082565544      20.187512977317262
   509   3      8.0161014727009459      14.213753992665563      22.457233482017784
   510   3      10.106808858696754      12.123742497144734      22.582454744764537
   511   4      8.3808209209304625      16.082009339486806      12.052956487974885
   512   2      10.233208788316798       18.14776672239093       14.22317296903031
   513   3      10.046396339193546      18.500405242219479       12.22754360771691
   514   3      8.0092350635913796      18.490234365760976      14.170654179659563
   515   3      9.9749336966243707      16.265678218823176        14.0017389760642
   516   4      8.1926760340024547       15.87157073636236       16.17533136211738
   517   1      10.118110018117065      18.227316767342476      18.173372870608485
   518   3      9.9428368814741628      18.171034660243098      16.152120605382393
   519   3      7.9959161586355165      18.307750867224613      18.416725650513889
   520   3      10.138314867512689      16.222083646620788      18.501577579172896
   521   4      8.3223867101496616      15.995748810669184      19.973261177523664
   522   2      10.231408900164466      18.092674117400961      22.294656780207436
   523   3      10.089178696439003      18.552558589870127      20.363520139611165
   524   3       8.059766519246649      18.402466095583087      22.262136425593852
   525   3      10.012717234220437      16.227991327881348      22.154214437013096
   526   4      8.3953454496636866      20.137696367362665       12.12547848613303
   527   1       10.16123949563101      22.270105796290462      14.122234064794773
   528   3      9.9937239996343621       22.13155159918783      12.105014592005723
   529   3      8.0401352513169577      22.260554815255933      14.330380020035943
   530   3      10.114131789426414      20.262447269057489      14.426469807362748
   531   4      8.3836457381287381      20.167453679453072      16.001380760757733
   532   2      10.262957313533448      22.280441575136397      18.152134948613501
   533   3      10.066833467672117      22.524274297926077      16.281745802070706
   534   3      8.0465759196405564      22.444917868212144      18.370122033806574
   535   3      9.9359176660731467      20.358137920225928      18.187998925564212
   536   4      8.3368770198391182      20.082632465756003      20.047508851282448
   537   2      10.068212306487009      22.196440986835693       22.25947292223923
   538   3      10.080567181004636      22.118481234927128      20.327649014617993
   539   3      8.1681007324154162      22.398510957570416      22.416949732569442
   540   3      10.108328218209641      20.316125115791035       22.56081376300412
   541   4      12.257133154220849     -0.2968848516364026     0.03024850759941455
   542   2      14.119548245830414       2.071331581447414      1.8821915233079629
   543   3      14.281731238111341      1.7959975125226935    0.016008933762882326
   544   3      12.204353454861705      2.0115084518791981      2.1259789503025646
   545   3      14.220663506582767    0.074917040144318534      2.3269543552592169
   546   4       12.20923041048419    -0.05525978115647262      3.7198163920599692
   547   1       14.19055833712757      1.9507909575605575      6.0029660741782394
   548   3      14.200532794683902      2.3629697623875878      4.0020370171243469
   549   3      12.125909843349108       2.147447079692093      6.0313547452739744
   550   3      14.334423700327344   -0.068904491251827238      5.8295345774649174
   551   4      12.244530537252164    -0.34741256908531615      8.0167848601831988
   552   2      14.214959627383903      2.0339244224787385      9.9131564601873556
   553   3      14.266895781221509      1.8279227867277061      8.0480760868158274
   554   3      12.233374133128162      1.9443470725568059      10.258001861286033
   555   3       14.23758230736477    0.042678530708709701       10.39105216295987
   556   4      12.214390532832796      4.1003547109118132    -0.31238000860275339
   557   1      14.161017400247244      6.0503719302873211      1.9944432587873879
   558   3       14.14284563868441      6.4200142410591736  -0.0077241099731662193
   559   3      12.106656103859081      6.2443005174412844      2.0141484941063177
   560   3      14.309088774501884      4.0195888063741627      1.7838316954294047
   561   4      12.170506394693186      3.6900804103820373      4.0387955988731257
   562   2      14.107523755667847      6.0850869338988369      5.9570539540742908
   563   3      14.296153400170175      5.9291788982591687      4.0527451713380076
   564   3       12.18563775368176      6.0996749777395127      6.1561728798014403
   565   3      14.166809641727589      4.1060891974601912      6.3231802661977836
   566   4      12.129842007201558      3.9350650056818326      7.7426593447990921
   567   1      14.171037589273759      6.0302485752809059      10.096039928769406
   568   3       14.13414478013944       6.395320353238966      8.0789114094780636
   569   3      12.101678183047518      6.2649834445734998      10.132219799568018
   570   3      14.177120127005839      3.9916930032899129      9.9860915433529538
   571   4      12.135933069880107      7.7385988990790251   -0.045845906685419796
   572   2      14.024267031985231      10.154194067202484      1.9142807879204939
   573   3      14.277751859710758      9.9036986734150965    0.044290671965401082
   574   3      12.133024038809909      10.157343721260533      2.1301360083000254
   575   3      14.168482444350285      8.1959263120784982      2.3664011804507954
   576   4      12.064112724953189      7.9912856380686446       3.715359199056476
   577   1      14.110031392877355      10.098689043883249      6.0457646733098223
   578   3      14.165576732361629      10.448231850792153      4.0285563003876153
   579   3      12.055338663929545      10.285486154494722      6.0627104379423198
   580   3      14.358098481832169      8.0739030118514989      5.8837505702893704
   581   4      12.129152121245891        7.72256160996226      8.1072406615684649
   582   2      14.162975863899979      10.125105103308575      10.003697749666419
   583   3      14.179695611840986      9.8952697760889787      8.1027740227566838
   584   3      12.167709674273057       10.08796556071673      10.235682590318188
   585   3      14.186011216148627      8.1365788878132221      10.441312819542782
   586   4      16.153393260760474    -0.35810527537795983   -0.045368033060651125
   587   2      18.198181136932153      1.9808960111213221      2.0101377135245708
   588   3      18.261323241032088      2.1180444050636664    0.051167538218191588
   589   3      16.263416229860066      2.0612198152670436      2.1809747318746258
   590   3      18.265471762629833     0.10513782927242357      2.1450952287057214
   591   4      16.033188081840844    -0.19487308227277925      3.8336003240174978
   592   2      18.141694479896262      1.9286184698101434      6.1015948649146994
   593   3      18.341873915924911      2.2543775323740607      4.0374199875621972
   594   3      16.260041033725209      2.2856589049628746      5.9934932407711887
   595   3      18.171280538743783     0.05320874029162323      5.9613576603108358
   596   4      16.085340800788565    -0.35337096172171079       7.936724661320814
   597   1      18.195467258267367      2.0109274606132428      10.066238478874681
   598   3      18.311277395216695      2.0837056472234132      8.0176498581271094
   599   3      16.172056353072541      2.0271691258161568      10.308204978972931
   600   3      18.159866962947447   -0.017023430494612458      10.358758382519683
   601   4      15.994010320734832      4.1178744111708658    -0.26019263073121712
   602   2      18.110327240144304      6.0559473223722957      2.0319529778617471
   603   3      18.389167388014151      6.2206384328681592    0.086926057827543327
   604   3      16.244316326450392      6.2778982701778512       2.000971679957285
   605   3      18.291573631350168      4.1384345792940342       2.010757300467906
   606   4      15.952572884897338       3.866891132572067      4.0025729695923848
   607   1      18.173391602865461      6.0960859588992644      6.0340939117266643
   608   3      18.379669267194409      6.1325639018383091       3.998302496175008
   609   3      16.161839336779533      6.0100810393625919      6.2962458453552035
   610   3      18.476335019660986      4.0795819951922034      6.1335951111427525
   611   4      16.053091578082206      4.0753084452365274       7.756108798207654
   612   2      18.156850928138592      6.0839827150365382      9.9937435950264444
   613   3       18.40239051127844      6.2121646175846434      8.1063492250898186
   614   3      16.244920205259479      6.1306690498618925      10.117170201754311
   615   3      18.418929734818352      4.1179872515105505       10.08005398144188
   616   4      15.944031670973056      7.9067666595762125     -0.1696609842784394
   617   2      18.151735906099276      10.118014255185471       1.993101347070436
   618   3      18.279222332719712      10.143954975444666    0.065341450357657718
   619   3      16.249831481700713       10.10122112660755      2.1793835098944045
   620   3      18.349375938209153      8.1873879878764306       2.130225255807098
   621   4      15.884554482422251      8.0457136650957839      3.9411277869918457
   622   2      18.065567507520459      10.134093318299435      6.1109382857693344
   623   3      18.360430193798273       10.26333849085195      4.0752517998056099
   624   3      16.197071790727559       10.29454622381337      6.0793479155385803
   625   3      18.296516895171507      8.1933705848169698      6.0406332542119969
   626   4      15.900434779720662      7.8995144349840958      7.8711649624065476
   627   1      18.185385039458172      10.108332957951529       10.09413098422824
   628   3      18.386209960365616      10.135625031086676      8.0473733546892205
   629   3      16.149490568595411       10.10464320866633      10.322382548276131
   630   3      18.238847311136553      8.0645451182522585      10.334413289930252
   631   4      20.178214643969376    -0.38172098657766007   0.0078804861001887348
   632   2      22.202310476702571      1.9779834399142098      2.0170199932354196
   633   3      22.408245994791972      2.1412596369849939    0.087201321582006816
   634   3      20.275725067133799       2.145106875901809      2.0443351735178164
   635   3      22.335756909278086     0.11001594801885811       2.142188028745299
   636   4      20.149826833734878    -0.40010403559211449      3.9969228742086433
   637   2      22.239772226355452      1.9579774742675242      6.0606832070332919
   638   3       22.30242610379392      2.2131340322615474      4.0685930388622431
   639   3      20.296452924155023      2.0640189403666316      6.0409491793850734
   640   3      22.403258120351197    0.077125271808434676      6.0525075839709324
   641   4      20.143261074894635    -0.34584316025461037       8.134586166192916
   642   2      22.157468128702291      2.0157333897749314      10.151302374796867
   643   3      22.370692361420716      2.0987806829551703      8.0577609127410437
   644   3      20.260075221460351      1.9109854730367428      10.123863009781376
   645   3      22.537324773432836    0.067911931869202039      10.077823380131706
   646   4      20.010782884223907      4.0956813869314388    -0.21150630418102456
   647   2      22.225049337018348      6.0519434971083284      2.0447886353236866
   648   3      22.346715002300549      6.3415313687386856      0.1124704388394135
   649   3      20.320460357977318      6.2718248919966344      2.0870752783161084
   650   3      22.321916049176568      4.1769872330771021      2.0644345737663881
   651   4      19.942197078845751      4.0502885838474674      4.2325060923609037
   652   2      22.261194988160771      6.0322397942878849      6.1832911223489786
   653   3      22.372897687436986      6.2785101571016879      4.0653965736346978
   654   3      20.345949705848405      6.3638125697004844      6.0288461075753181
   655   3      22.165087204025795      4.1449762894501614      6.0716719930960856
   656   4      19.924992870686438      3.9343085635594064      8.0004818614378923
   657   1      22.237095440424863      6.0699135261266672      10.082360698306825
   658   3      22.278776442247615       6.278157417254941      8.0554316944069004
   659   3      20.204253343266718      6.1882964693304263      10.347312004017612
   660   3      22.170744749429865      4.0296191211357373      10.192418361327835
   661   4      20.020112882333422      7.9356823357356374    -0.17745465431423355
   662   2      22.198720251081248      10.146569955779913      1.9629477299832887
   663   3      22.440454517926526      10.215593974319177    0.077234091045420603
   664   3       20.31366978776509      10.243532947948845      2.0873707129606922
   665   3      22.394692067581673      8.2656918412145064      2.1838869385774302
   666   4      20.016766781945563      7.9262306476751503      4.1280215211290132
   667   2      22.259862453286487      10.130750195829389      6.0432192578598221
   668   3      22.412717924717292      10.349062224614068      4.1047381210720042
   669   3      20.352601991246299      10.121673365572143      6.0797238363001069
   670   3      22.454281782219223      8.2347370909618451      6.0354597102634839
   671   4      20.010182853035531      8.0230049203196359      7.9026017819460828
   672   2      22.257091984032428      10.049516588192253      10.026397155724007
   673   3      22.356744321583623      10.225025079379069      8.1113420146625703
   674   3      20.341223328757362      10.043841444392566      10.221076064605406
   675   3      22.476654014393013      8.1701966741298531      10.210988449911413
   676   4       12.26427581331529   0.0076252075709910523      11.750207716483063
   677   1      14.229363974149559      2.0019158414369582      14.147035924170817
   678   3       14.16848279539543      2.3154675481889448      12.157768262101657
   679   3      12.158498140390039      2.0410292155366943      14.309178800144679
   680   3      14.235126818333523   -0.046406459538115494       14.11520685617859
   681   4      12.406852422824416    -0.20330922912299917      15.943294956043486
   682   2       14.06687826725442      2.0556026522743434      18.165960389065578
   683   3       14.32416886461904      1.7915949592822409       16.27592196537212
   684   3      12.168316338004367      2.0560125940677176      18.322199328021568
   685   3      14.183256698102346    0.074775750586228915      18.612731826621154
   686   4      12.200472035378752   -0.052437317088373785      20.040916267605439
   687   1       14.19965976150476       1.982594794422436      22.267379218214487
   688   3      14.177062803052904      2.3595286850063428      20.238660871935174
   689   3      12.136819219919811       2.149589101992103      22.290977709752926
   690   3      14.253250215803448    -0.05169323107354884      21.969238144922688
   691   4      12.315039904191249      3.7227640166276634      11.938470320830731
   692   2      14.085752455034866      6.1078195953650987      14.054329487388989
   693   3      14.238025807807793      5.7997182427417666      12.184392812701049
   694   3      12.183067618764186      6.0885539574802872      14.299967532967797
   695   3      14.165247750178878      4.1087008402098748      14.524023230988819
   696   4      12.153822281706287      3.9882242824871175      15.876035529225096
   697   1      14.148205905515265      6.0381840184558868      18.180647708669717
   698   3      14.176483850351822      6.4022859474493385      16.173181815181056
   699   3      12.095630262634382      6.1887116686378647      18.185367782403148
   700   3       14.36638610621379      3.9936627611002478      18.053788926263721
   701   4      12.099214005094503       3.783241108049209      20.234451428696829
   702   2       14.14730343428484      6.1423551941279193      22.132982818312129
   703   3      14.202332798981539      5.8158252818340221      20.255499305445927
   704   3      12.183558569936961      6.0523323005355918      22.446746879476297
   705   3      14.163383708318237      4.1110075394194086       22.59035942619338
   706   4      12.094626786761419      8.0463236181877242       11.74332367781391
   707   1      14.124782681889988      10.073237073156555      14.124336252910464
   708   3      14.122630983602201      10.460576838613083      12.128033301494764
   709   3      12.073532960941106      10.244048777862373      14.143555367587487
   710   3       14.38921687848884      8.0309261594959924      13.993360890120437
   711   4      12.090405017037009      7.7316554279812069      16.192320344308794
   712   2      14.106107748589936      10.139808412868097      18.076211370783216
   713   3      14.214509355786564      9.8388741361155549      16.196606390514532
   714   3      12.158293730633412      10.112046509670821      18.363839896190857
   715   3      14.134419766827939      8.1409312309801027      18.541395666515253
   716   4      12.077066740877806      8.0332208943323522      19.893830778028775
   717   1      14.148041928683107      10.111947738025922      22.256460545051908
   718   3      14.133831281612297      10.451557953060954      20.235156852098079
   719   3      12.098066013047159      10.224239633125471      22.326447564534242
   720   3      14.282186665168949      8.0793153888991451       22.05970450068402
   721   4      16.172078576658748    0.037018227624942765      11.759802496288996
   722   2      18.235058627356477      1.9671805962464894      14.039601861625934
   723   3      18.303610197563611       2.168907576911618       12.18545053436687
   724   3       16.30281757083117      2.2384627890932971      14.234923632624689
   725   3      18.247966034082651    0.058935710451926568      14.237863403472302
   726   4      16.023645771446432    -0.22442326017880784      15.989532204350045
   727   2      18.194396585087965      1.9805709896454209      18.195210833353734
   728   3       18.22414348422457      2.0822805766620096      16.310287953207354
   729   3      16.277372068780483      1.9881240503342648      18.461012243913007
   730   3      18.380308190891554    0.077524053366075596      18.362424387074061
   731   4      15.959984257169369   -0.066232890866174107      20.150577007214288
   732   2      18.140201977835765      1.9998080272967347      22.257378975855676
   733   3      18.405534429928426      2.1811627197624719      20.317135657530606
   734   3      16.265770678998187       2.210758452890889        22.2523582401674
   735   3      18.262912489420394     0.10189892321988341      22.255965884745518
   736   4      15.984696282412674      3.8096669196351653       11.97349460206728
   737   2      18.197660905213525      6.0392481624679188      14.130642378996102
   738   3       18.22641024715676      5.9937016751482703      12.231936354128266
   739   3      16.265296818414779      5.9921948954628341      14.356052854933989
   740   3       18.38184118372601      4.1063260729120925      14.379658861012709
   741   4       15.98264356794609       3.931743583002234      15.990285067613604
   742   2      18.090626653499694      6.0730257704313164      18.229215046385374
   743   3      18.366254378025918      6.1827985699507453      16.265118687085405
   744   3      16.225527092504901      6.2095562954813941      18.261950093689173
   745   3      18.283035142053865      4.0886553832410684      18.320908399251518
   746   4      15.885285351592279       3.956390758367534      20.150408025463172
   747   1       18.16298442045219      6.1161173285764532      22.266145069195382
   748   3      18.400615105263974      6.0969011656319188      20.228806060725166
   749   3      16.137962701647648      6.0309021929101592      22.480861376415199
   750   3      18.440242196022727      4.0727412360029884      22.369383123456046
   751   4      16.090215429636913      8.1193881707906606      11.819742154393994
   752   2      18.093721819796126      10.142880703468773      14.159585285290586
   753   3      18.389845523894294      10.190960603832968      12.228754156997754
   754   3      16.222134157768927      10.252163126353887       14.17134942278218
   755   3      18.267882189480062      8.0926452230147135      14.218805144416356
   756   4      15.867221131379363      7.9940690230430533      16.047530475691037
   757   1       18.16352322088996      10.097290093237547      18.199091787578531
   758   3      18.403759103454082      10.071027010334657      16.159726736870859
   759   3      16.130950294504196      10.045139731657386      18.437431653652077
   760   3      18.408259583399801      8.0605213349690601      18.309119002302634
   761   4      15.943365046298036       8.203276174939381      20.011883364648632
   762   2      18.096213326379836       10.15012866335246      22.211729582417938
   763   3      18.397743772383397      10.201949548353282      20.308533723943224
   764   3      16.226246783842878      10.238654228960963      22.249336526271616
   765   3      18.350861829907036        8.20207142410238      22.325362853685103
   766   4      20.004537382065834    -0.18407646487105311      11.846248150931899
   767   1      22.239740218729469      1.9969888456263227      14.109474829107965
   768   3      22.410739423010458       2.046577187161827      12.087422100735365
   769   3      20.206208977354649      2.0449272873926287      14.428781780166842
   770   3       22.38972442905181   -0.041501478118084946        14.3380523057864
   771   4      20.124894285569169    -0.12524530261275826      15.912306261964662
   772   2      22.224504901648608      1.9932410198933077      18.208743507321746
   773   3      22.363570081401544      2.0867169500327587       16.33382889061248
   774   3      20.300926948594398      2.1843895133325919      18.286831566913872
   775   3      22.337853812904854    0.098877069058805112      18.406685813897273
   776   4      20.073311835669116    -0.30543065687982834      20.356815801347665
   777   2      22.251096369714286      1.9900596349989741      22.256888936554361
   778   3      22.293226590454708      2.2526374146991728        20.3614851482739
   779   3      20.323860316765149      2.1309962657418557      22.464919881124978
   780   3      22.371128276041055     0.12008734766553131       22.32391305542216
   781   4      20.190836360838588      4.1503789091873635      11.737568161393607
   782   2      22.262605813069509      6.0127022166440351      14.044782442010746
   783   3      22.366093469703884      6.0883657125145625      12.188688499757632
   784   3      20.288737969768214      6.1678901524731957      14.236494498795121
   785   3      22.232950164930394      4.1070658086660394      14.352958894298125
   786   4      20.268162922233156      3.8619475505066361      15.944037662010395
   787   2      22.239451454372293      6.0525453585910762      18.165429784296762
   788   3      22.308388519718832      6.2284607487017274      16.281965443042722
   789   3      20.341646038459174       6.100553373148542      18.350843074922064
   790   3       22.41922019524138      4.1338852468322695      18.317079822750252
   791   4      19.912212972482244      4.1395398397122625      20.296003026637358
   792   2      22.294140923198761      6.0592604597919077      22.232990571234204
   793   3      22.369341041916538      6.1298562766026796      20.351229633664158
   794   3       20.37465093888213        6.23831958377286      22.425202087049296
   795   3      22.265400945616694      4.1704364891261525      22.510691795108826
   796   4      20.063664532664145      8.1066722254256245      11.824076045557328
   797   2       22.26407061573002      10.042747888795024      14.044087595255798
   798   3      22.356775975321565      10.186231953427429      12.169577268560156
   799   3      20.375179244191465      10.067875419795131      14.261185145743971
   800   3      22.474096408045011      8.1346243001357639      14.241451003184784
   801   4       19.90684409270413      8.1547035346932208      16.222654431573105
   802   2      22.228335123183186      10.141117728504096      18.126403132445869
   803   3      22.441348348801764      10.142469568128636      16.222205814280933
   804   3      20.331902112148182      10.135332984789329       18.25858193250561
   805   3      22.365093072591407       8.132405012424412      18.411663150831313
   806   4      19.914416032726994      8.0457167447220641      20.146914672996793
   807   2      22.232366331667237      10.079760233237577      22.238089734401832
   808   3      22.350519060487059      10.224525066272907      20.344628310072217
   809   3      20.347736784632239      10.165133916334453      22.432278889750549
   810   3      22.426238771034978      8.1856630783418112      22.385539672319904
   811   4      12.114164527886633      12.176882672264369    -0.37678138191104937
   812   1      14.124411469091843      14.139521217554897      2.0284235580007235
   813   3      14.168812222256671      14.444093696511702     0.01703727978123936
   814   3      12.089147112964666      14.283883630798242      2.0760368020338711
   815   3      14.350560851475159      12.096456656464971      1.8638435865814349
   816   4      12.080666902176777      11.785003995588784       4.076379760942924
   817   2      14.088144962199602      14.166692504577824      6.0075798291748219
   818   3      14.263474748766882      13.942535862761448      4.1028405057814465
   819   3      12.100569488688624      14.349163867995946      6.1380250418293363
   820   3      14.078587400882816      12.214838382467146      6.4193954342798083
   821   4        12.0643466125473       11.82278353070741      7.9628608166827588
   822   1      14.111644119913437      14.138993686118432      10.095453926705027
   823   3      14.088206005287208      14.534978511741803      8.0824899707144553
   824   3      12.070546568979479      14.401173583154275      10.113052228768618
   825   3      14.231668489995879       12.10167581716598      9.8847543640768887
   826   4      12.305746185624699       15.88430568203238    -0.13895948109322775
   827   2      14.263410719272859      18.193496065393237      1.8908826106766772
   828   3      14.081709883586928       17.97577070141374   0.0060012473199433022
   829   3       12.19056646146732      18.182100138650124      2.2356154720709434
   830   3      14.150013034521427      16.229022057734987      2.3644412474512784
   831   4      12.107157922036096      16.262715126032806       3.685482143817683
   832   1      14.185080402343907      18.189412455845485      6.0499000970201013
   833   3      14.266441400952623      18.494792419483982      4.0300294055227681
   834   3      12.140662981778826      18.238748809587914      6.0678899714577419
   835   3      14.395013348537107      16.149807589597398      5.8679370334122174
   836   4      12.177949100356409      15.975462803983655       8.149946034366975
   837   2        14.2075118886046      18.267418333922876      9.9718573711270668
   838   3      14.178618854819986      17.907006452759582      8.1067275310803861
   839   3       12.19223615872558      18.137726134913631       10.32614547827626
   840   3      14.166771586720108      16.236920214763675      10.475380233940985
   841   4      12.412238193769133      20.112179054408358   -0.093222113355761443
   842   1      14.215310541009051      22.213288834864564      1.9749485901292962
   843   3      14.149355165983726      22.596006102446662   -0.027370240613995345
   844   3      12.144771690724868      22.436025214550874      1.9887622590347243
   845   3      14.032124498629731      20.178429437869234      1.8159338305576227
   846   4      12.408769374817329      19.977872754861178      3.8193542630474222
   847   2      14.171268863176488       22.27698136636338      5.9149333837733549
   848   3      14.253429995927466      22.047708680834511      4.0224863297996496
   849   3      12.220850932428489      22.272978997389231      6.1991261955053174
   850   3      14.154779228584696      20.270575242737117      6.3679703568241157
   851   4      12.276511189710977      20.289515093751231      7.8084533157585687
   852   1      14.194596597499803      22.214286936450307      10.075988766700339
   853   3      14.167814012261726      22.565859087916703      8.0637136292059104
   854   3      12.148082980340494      22.460970052294975      10.105950396798548
   855   3       14.06264469075091      20.185615562752194      9.9080132731428385
   856   4      15.895273441262953      12.247829749673894    -0.18837524367843403
   857   2      18.058198896870184      14.197974274017628      2.0672807324289537
   858   3      18.384011993132958      14.204686741748342    0.086159712925956145
   859   3      16.191826813083459      14.232722357244228      2.0223094727999666
   860   3      18.315230145195528      12.157427346410676      2.0345717394566805
   861   4      15.852214932618399      12.054290592797003      3.9305750240937898
   862   1      18.153280234630735      14.146837667918694      6.0883624329418717
   863   3       18.33645756590343      14.085575231103961      4.0303466397378251
   864   3      16.109402299500857      14.064038727081577       6.329390248844061
   865   3      18.442903784837437      12.121464867469724      6.1435078891834731
   866   4      15.926161220646199      12.224259925020151      7.9147373582792344
   867   2      18.049565875344946       14.16566539770681      10.151844547889693
   868   3      18.422858653793213      14.206238560155624      8.1840678440216923
   869   3      16.185914434321315      14.170942677079676      10.098749414047584
   870   3      18.437208457711492      12.196408307121134      10.115790675026854
   871   4      15.958262028793413      15.936461546998286    -0.23989473349299131
   872   1      18.199980527751933      18.138064664525928      1.9833683653892762
   873   3      18.475371104646669      18.123382194190413   -0.042649667636677741
   874   3      16.175182483819349      18.227063337679475      2.0863210670705614
   875   3       18.36922290147039      16.119961499014821      2.1427079491779693
   876   4      15.895667862641558      16.173067925815776      3.9814774274751108
   877   2      18.213147140065068      18.104172010979536         6.1083391615983
   878   3      18.174422344798344      18.398444159721894      4.0924067104893149
   879   3       16.23768111249068      18.380578240930451      6.1007477829694521
   880   3       18.17928339546091      16.191578585078933      5.9995860106921555
   881   4      15.927437175730866      16.027625364559153      7.8685930307314775
   882   1       18.19403836826784      18.175939389021554      10.145333381672696
   883   3       18.41233939955417      18.125917492336448      8.0914878129032299
   884   3       16.15434512512018      18.224799874001157      10.292531828654301
   885   3       18.32593656148455      16.133612529868643      10.219367429359096
   886   4      16.218758543085357      20.246976925661134    -0.35514594178251324
   887   2      18.220353142862475       22.08763472724117      2.0420051835361952
   888   3      18.285149766677275      22.463934640099357    0.060586074018341665
   889   3      16.274798752367335      22.455098557442927      1.9689723117594684
   890   3      18.300439335199783      20.220570833049486      1.9102484085502458
   891   4       16.21278303693871      19.875494874440406      4.0174639008061002
   892   1      18.211338186698399      22.242460271766245      6.0364203928961206
   893   3      18.294068828236515      22.277310889442134      3.9896535550910137
   894   3      16.173039895948165      22.176666072583085      6.2598556367384122
   895   3      18.278432664201446      20.222828213941423      6.3100946528130581
   896   4      16.174595928708385      20.239503169308779      7.7116571562895491
   897   2      18.143591724640014      22.194809008736936      10.113871109951413
   898   3      18.305259878552633      22.441123211293625      8.1390276974738391
   899   3      16.228890143435667      22.331950452671769      10.104815528180813
   900   3      18.400622595132784      20.270570355750504      10.018460823390809
   901   4      19.961923824568597      12.305955241831331    -0.19803394615021452
   902   2      22.206468537861898      14.147387154710398      1.9669731037353277
   903   3      22.326627534649223       14.27541702487072    0.085226483900044642
   904   3      20.322010068025818      14.193510581327107      2.1478720244994491
   905   3      22.404866360373063      12.230315551469749      2.1344325528985308
   906   4      19.888748111920975      12.186932637729688      4.1374317665140978
   907   2      22.166309754534133      14.178231318256469       6.036238190070601
   908   3      22.412831203244924      14.234639118733849      4.1090683003208213
   909   3      20.302989466045091      14.299107783321784      6.0951293756318119
   910   3      22.312883988207801      12.243084139334201      6.1541052583516711
   911   4      19.865738805102161      12.118685717488184      8.0854163222915965
   912   2      22.292129786983271      14.096729465685996      10.080164901953598
   913   3      22.361536132781453      14.330738592158617      8.1543645764645536
   914   3      20.371314153329955      14.379369710239667      10.191409335949443
   915   3      22.223185595318277      12.206277299036662      10.205973320775289
   916   4      19.902261129347902      16.081656175095528    -0.12935279101729491
   917   2      22.193118282920423      18.217930333037508      1.9715535024868467
   918   3      22.205876547941102      18.237926189627739    0.015084040431680976
   919   3      20.279893194793981      18.185499741843657      2.2719981024526263
   920   3      22.365148389844961      16.189602410445321      2.1982573674677677
   921   4      19.944200805498632      16.126194314657734       3.986640007076736
   922   1      22.228355276866065         18.162261910005      6.0700153660080698
   923   3        22.5035730266871      18.213875186707703      4.0531610915773797
   924   3      20.207321152530159      18.263547812148797      5.9239866851336327
   925   3      22.529083531097942      16.157664525277106      6.1114363777752905
   926   4      19.911581995870478      16.084963092271028      8.2175690424138956
   927   2       22.15191247266208      18.253750195528678      10.083801862474063
   928   3      22.401621264376828      18.198830088637703      8.1657060809591648
   929   3      20.299080837307649      18.160358754885163      10.203099440821177
   930   3      22.518530377227705      16.284002033931614      10.217689918929077
   931   4      19.968829668939243      19.997040511968905     -0.1275675484164078
   932   1      22.221971295165314       22.17794596669065      2.0213342759459678
   933   3      22.259009074320655      22.496307461177288   -0.016772961791537189
   934   3      20.202089534256967      22.483747188780622      2.0320626536165478
   935   3      22.270162425669607      20.170114578556841       2.141291585616802
   936   4      20.107716887968209      19.860640955256933      4.0671316321442132
   937   2      22.210523399876333      22.116839457836807      6.0626252299033583
   938   3       22.30963656664909      22.396489117451456      4.1180823534845645
   939   3      20.301863115680312      22.426936486701941      6.0867483249231826
   940   3       22.31709710210858      20.243230598165788       6.160381787631195
   941   4      19.891744446510778      20.088347759918939      8.0261747614843753
   942   1      22.234827162983212      22.243919365276245      10.081824585582945
   943   3      22.312150101979867      22.472684102923633       8.030317438636569
   944   3      20.233032521026136      22.559764487411574      10.072700625101724
   945   3       22.36760856348463      20.206033614323953      10.139632243277427
   946   4      12.082288638087819      11.744577003035829      12.110277288612052
   947   2       14.10536934838081       14.16804182455069      14.025200886394186
   948   3      14.220514701022299      13.916175764745066      12.146700750788771
   949   3      12.165362849373354      14.210936647204937       14.29933040039972
   950   3      14.116554257463264      12.184562322397905      14.497436980560146
   951   4      12.048107465209636      12.070128894672809      15.805436230782623
   952   1      14.123501925317001      14.142089601648028      18.167562796691715
   953   3      14.146462125182449      14.495963603480382       16.16744310814045
   954   3      12.079197766693298      14.318865691886797      18.191485886112215
   955   3      14.281582003056018      12.092735892234204      17.999480772827297
   956   4      12.131428368753939      11.803811858647331      20.146088133800284
   957   2      14.146582511847349      14.185825231495221      22.073997754237439
   958   3      14.180606630822828      13.901431138104819      20.216992218756804
   959   3      12.176284184219226      14.152141633508855      22.446780729774687
   960   3      14.122911653644929      12.197622318115277      22.597329319574076
   961   4      12.159788152966167      16.225362286438685       11.79428055627532
   962   1      14.166044369948423      18.192771501474876      14.159972411750443
   963   3      14.219405251565146      18.516821897749271      12.152779683833112
   964   3      12.124877787968247      18.325161094295112      14.170978366136914
   965   3      14.356866804536164      16.145771852009005      13.942258064814622
   966   4      12.118290982755289      15.823471693567019      16.156239552844415
   967   2      14.146081037324356      18.229894464337999       18.05203957186469
   968   3      14.227025187383921      17.980201264436044        16.1864527644776
   969   3      12.185900648835775      18.259174693708967      18.382120544161332
   970   3      14.150030432551675      16.246917425743003       18.52058437640315
   971   4      12.106910096879588      16.148394485452524      19.842461251896012
   972   1      14.167274546340144      18.180824164765628      22.231084518756827
   973   3      14.171738852418649      18.545495134447837        20.2440911894262
   974   3      12.109890220123644      18.334769359311061      22.305586562475973
   975   3      14.217009775934901      16.135472837869795      22.161909205475727
   976   4      12.286281620031405      19.918661256908742      11.995346182539219
   977   2      14.207033883370078      22.286300057370376       13.98770003327259
   978   3      14.172310198606194      22.049900245784173      12.136309735194386
   979   3      12.213234718149593      22.281793940838728      14.369498634722614
   980   3       14.13850309214247      20.306451875025925      14.508920971719494
   981   4      12.177867558451659      20.324621743197504      15.831519903257506
   982   1      14.191116821411191      22.255084232350104       18.21615876800886
   983   3      14.206306737345956      22.573414568663324      16.229300129714765
   984   3      12.137770470572798      22.336516107874665      18.317119407170299
   985   3      14.319108210370274      20.202604507568605      18.033076563549226
   986   4      12.242815169561929      19.913481801207748      20.146258340347149
   987   2      14.182214499059548      22.281766764211241      22.179198735505057
   988   3      14.258776934993259      22.028394112158058      20.282104982009333
   989   3      12.150982631418833      22.359277073097914      22.378716272794339
   990   3      14.176059769833843      20.293748729660404      22.626725913101836
   991   4      15.895165791771779      11.958904444127347      11.974868613674095
   992   1      18.179333323618707       14.14019311064682      14.159568481199493
   993   3      18.407590500622078      14.101302897349377       12.11125834654457
   994   3       16.13644526142193       14.06144819457138      14.382631045193303
   995   3      18.439370758952126      12.086656105390773      14.272870980905065
   996   4      15.934005819452935      12.242008351755327      15.970442218491609
   997   2      18.105458453434846      14.149305987248074      18.191512536293487
   998   3      18.384337580965404      14.217443537263319      16.231828526929846
   999   3       16.19624184705977      14.242232762052526      18.189206856481839
  1000   3      18.357181851024524       12.16664190024715      18.181024398483238
  1001   4      15.917844404173035      11.953951580226887      19.997692828801778
  1002   1       18.16870820861779      14.132444990293271      22.207368367949517
  1003   3      18.390193765238493      14.060843843862152      20.194423984552628
  1004   3      16.127472657090586      14.111400146201053      22.463432799216058
  1005   3      18.398947727918095      12.104382691746409      22.399791682398412
  1006   4      15.919789687807226      16.256353514696272      11.991680341253929
  1007   2      18.126419548001159       18.14000172341413      14.249942706711197
  1008   3      18.268134337671082      18.431716552273876      12.219021459975403
  1009   3      16.234692901914244      18.414073800595315      14.180495953980635
  1010   3      18.230831821734522      16.239328383056755      14.071455186353493
  1011   4      15.954413260630631      15.951875941700742      15.957780439320254
  1012   1      18.215809428551477      18.181092847410877      18.172010915368535
  1013   3      18.382170668923902      18.261784100769109      16.156406439372752
  1014   3      16.155244484979576      18.158350419385741      18.417314077321045
  1015   3      18.236488993901471      16.158152072556881      18.417898363086781
  1016   4      16.094306567389214      16.262662579897999      19.870826680480874
  1017   2      18.110616423193228      18.127453138759964      22.238064896559468
  1018   3      18.293474374327527      18.357857832228891      20.319512355397826
  1019   3      16.219327610443226      18.295511618908105      22.353637634211459
  1020   3      18.319174554335596      16.200226506252758      22.270915953953573
  1021   4      16.135280740002386      19.913483756949255      12.076991784293842
  1022   1       18.19782007287094      22.261045079832357      14.155970228700095
  1023   3      18.412614966362753      22.185412720619972      12.115803866554055
  1024   3      16.163621770654917      22.194531401388712      14.359344431310619
  1025   3      18.463743922484106      20.237554051929155      14.252096416741148
  1026   4      15.979364764319374      20.314482521827518      15.976964063148625
  1027   2      18.146449581230574      22.214116859291735      18.249095875394211
  1028   3      18.388349251480633      22.377583294092148       16.30987313929133
  1029   3      16.268867539780487      22.423839318245605      18.274501917787902
  1030   3      18.339462005373207      20.305054600483519      18.243317953556495
  1031   4      15.974712138957138      20.012187513148127      20.014423002145335
  1032   1      18.218144118413903      22.250898291998233      22.270868988201894
  1033   3       18.39102013522103      22.313437258570886      20.233740766456922
  1034   3      16.165079595865286      22.226734928721864      22.479094998868817
  1035   3      18.299574091873147      20.195692135452958      22.499832319953949
  1036   4      19.896815351585701      12.077965927573963      12.049242756223574
  1037   2      22.237287309125733      14.057381997155682      14.162528847991636
  1038   3      22.355320845278225      14.337489711978879      12.214337882702949
  1039   3      20.347951400590066      14.346262195128864      14.205681341641885
  1040   3       22.29714210380109      12.169997650607359       14.26035074517192
  1041   4      19.886538270586176      12.055391917783398      16.195572039447622
  1042   1       22.28926746892482      14.120014427842902      18.195666088972892
  1043   3      22.323049558364922      14.384668252674462       16.14219876103234
  1044   3      20.259493856057656      14.327632674882636      18.227194770310604
  1045   3      22.426800729174492      12.083503948792121      18.314629918156903
  1046   4      19.938483031883607      12.156146043704844      20.044477252000831
  1047   2      22.277365148536617      14.097025193719524      22.164458641100872
  1048   3      22.394458561602153      14.212899014646492      20.297382384462626
  1049   3      20.359301729179741      14.192166536265225      22.397405430228361
  1050   3      22.355218996010102      12.175813984454416      22.430811950889723
  1051   4      19.937186997460707       16.01303567172021      12.131381361103939
  1052   2      22.269346709986287      18.183315085289365      14.100422242136686
  1053   3      22.449495371539417       18.32370391795564      12.197631484018576
  1054   3      20.358016142947143      18.264340325857884      14.160672271765305
  1055   3      22.452091176386958      16.308736692288583      14.231767090910729
  1056   4      20.202471081201569      15.807446425864564      16.240699913013867
  1057   2      22.241774773457589      18.147896738596646        18.1660182867491
  1058   3      22.349971185999898      18.344487989498724       16.25725860118806
  1059   3      20.350388086783429      18.295602697744471      18.395668255462816
  1060   3      22.393852274669541      16.281714285111732      18.294140503941854
  1061   4      20.022743851837788      15.943117004312244      19.998343642840066
  1062   2      22.270585243334974      18.096045183203959       22.20591129583989
  1063   3      22.388283087840804      18.313975769422985      20.306185822619003
  1064   3       20.31992648243892      18.281980318243679      22.259088938615726
  1065   3      22.361219843119361      16.201971581249101      22.342540818876067
  1066   4      19.853177894464537      20.184047010302365      12.211601583589269
  1067   2      22.231971871661994      22.308321823182386      14.048835943720769
  1068   3      22.330770691995411      22.326246279037239      12.179242616965407
  1069   3       20.33073149409439      22.383113138530714      14.311769469585316
  1070   3      22.340710083728094      20.322911077484836       14.32525184722695
  1071   4      19.933327648194464      20.218804915380041      16.047126225645421
  1072   2      22.257695041003668      22.213398698116315      18.218685594823814
  1073   3      22.343618051409798      22.359424056335659       16.33319636246522
  1074   3       20.33928128675652       22.40011006931168      18.356110036438658
  1075   3      22.342970104820214      20.325501133335941      18.392871855790499
  1076   4      19.961763790578633      20.044979663216413      20.148436635582236
  1077   2      22.257786100386063      22.130819281089583      22.330081466098402
  1078   3      22.320486715823989      22.454529278064733      20.359502093961655
  1079   3      20.323145117783184      22.463800334477792      22.330932280864619
  1080   3      22.242922388595233      20.262141432905739      22.353921440272373
