(written by ASE)

1080 atoms
4 atom types

0.0      24.299999999999997  xlo xhi
0.0      24.299999999999997  ylo yhi
0.0      24.299999999999997  zlo zhi

Atoms # atomic

     1   4    -0.10447173559400598    -0.31572811537888795    0.036681213437397879
     2   2      2.0407539800758698      1.9779152722482984      1.9476525512602594
     3   3      1.8169456102618604      2.1348563903908029    0.066382294705114961
     4   3   -0.016402761074910979      2.1083776024467413      2.2588728550735495
     5   3      2.0374161796225283    0.092691234558022584      2.1235264461217169
     6   4   -0.013286893554547366    -0.30815377906172764      3.8666097756780027
     7   2      2.0856014128220184      1.9386955000708865      5.9852361719372835
     8   3      2.0033930546700103      2.2097295656378009      4.0935519919462671
     9   3  -0.0053155781267220951      2.2789319488558553      6.1235805989650043
    10   3      1.8492981074113262    0.075535993395795961      6.1111112254927562
    11   4    0.057031064405170022    -0.25419511890009228      7.8717471573478353
    12   2      2.0574106896870239      1.9344098654220969      10.017666435052289
    13   3      1.8455240509674862      2.0450206625209839      8.1335250302262896
    14   3    0.032670020477920364       2.084978570772281      10.350417852264982
    15   3      2.0199052840976641    0.047496688388275247      10.285377761129267
    16   4    -0.03070794849384037      3.9731436020588355    -0.21278702174587813
    17   2      2.0650004306658962      6.0379717473793315      1.9860636416415611
    18   3       2.028017010552694      6.2717510904380838      0.1069844402329253
    19   3    0.025100064930794797      6.3560181913933995      2.1487699801111479
    20   3      1.8471516746865153      4.1418559333401568      2.1096227085573203
    21   4   -0.016447555654017874      3.8849025928247594      3.8995565944493076
    22   2      2.0434934409572811      6.0173703324286469      6.0552166610779192
    23   3      1.8730836751575348      6.1330920684216856      4.1582209846593923
    24   3    0.020550886401005761      6.1282093795707979      6.3486886007075496
    25   3      2.0174399288246292      4.1195622081346182      6.2757023066876023
    26   4  0.00077244342985481715      3.9121193341032514      7.9014352840497084
    27   2      2.1328042438304102      5.9653797753693825       10.15668269884601
    28   3      2.0372427265855459      6.3044521910477416      8.1743522819609389
    29   3  -0.0052991204381047079      6.3234485811896999      10.110113400221197
    30   3      1.8773196417168632      4.0700128248192611       10.10581689482242
    31   4  -0.0038145395818850549       8.037513949556125    -0.24159544584068066
    32   2      2.0392201695209149      10.059486330377981      1.9586608104674237
    33   3      1.9400670900104238      10.049246502619141    0.094296948280155377
    34   3    0.077336850108543506      10.128851471277939      2.3239032766635015
    35   3      2.0977947680726201      8.1758791944973517      2.2992561090426418
    36   4   -0.036296849927787034      8.0081619679120237      3.8926937797421899
    37   2      2.0848370893248083      10.118580994130888      6.0437522231690197
    38   3       2.121920311178235      10.351301478745819      4.1417729591527852
    39   3    0.034482056856384398       10.35961624430804      6.1478682963771458
    40   3      1.8952518055380732      8.1784206895352174      6.1460447896071564
    41   4    0.070047693176176568      7.8926028702984299      8.0197341326250733
    42   2      2.0545379669066781      10.030500676465586      10.122238651198073
    43   3      1.9126142030839706      10.135045757901183      8.2150323608628035
    44   3     0.05884208747416074      10.178719496998795      10.388442444992638
    45   3      2.0721343597419835      8.1564121045522242      10.299517192233964
    46   4      4.2136388179484268    -0.27565922122300673    0.098465895221713534
    47   2      6.1996448875192494      2.0269884347656975      2.0498907668560653
    48   3      6.0282771020421597      2.1614931858295559    0.022187383261379378
    49   3      3.9338463947138598      2.1902907849778228      1.9868327445119431
    50   3      5.8340150648689404    0.086970875473823345      2.0242026024572182
    51   4      4.3769551874599522    -0.11062451016144484      3.9628069579579384
    52   1      6.1096912062236681      1.9888844006216351      6.0338508870865573
    53   3      5.8488526202986275      2.0466217337658086      3.9970210491033713
    54   3      3.9548871563006807      2.0356038588427121      6.2199100871660082
    55   3      5.9681080266470987    -0.03967947402743887      6.0618866154623685
    56   4      4.3579432745485587    -0.17551544066795274      7.8891197393721342
    57   2      6.2274775372252265      2.0038604508913056      10.073581658533898
    58   3      6.0548981238543291      2.0899905067978426      8.1343849683624931
    59   3      3.9564386476241378       2.132955214057934      10.099913502545961
    60   3      5.9017715460498819    0.068046631948731479      10.174008446839618
    61   4       4.394837613241636      4.0972545449887665    0.038240390583959713
    62   1      6.1194751881556027      6.0478245030528166      2.0073633257613905
    63   3      5.8570148476735708      6.0815657477357208   -0.022960348058039547
    64   3      3.9548704011138538      6.1134994747455975      2.2389975441350574
    65   3      5.9417030508189024      4.0213298081559818      2.0671075329338584
    66   4      4.4322668518270243      4.0072301303300462      3.9920834795851317
    67   2      6.2447375030162187         6.0890979985742      6.0759932921801845
    68   3      6.0069076931764593      6.1351748673076161      4.1125694695193546
    69   3      3.9613900123754671      6.2319226168415529      6.0838922118799683
    70   3      5.8957306597123802       4.114626060965584      6.0651931050647425
    71   4      4.4444904798450073      3.9600686737030872      7.9956706339225754
    72   1      6.1109659812716979       6.019004769003601      10.090446413030659
    73   3       5.860775954731559       6.064551195446696      8.0574101625714771
    74   3      4.0048830495381855      6.0836474450627263      10.229060259590522
    75   3      5.9777054109457017       3.989275892636988      10.185352298692683
    76   4      4.3218248851372714      7.9981654727187603    -0.19250215372183954
    77   2      6.1343164757487303      10.058279580748044      1.9878901295670757
    78   3      6.0570254465993107      10.232508135631475    0.080090020374076185
    79   3      4.0035746094568516       10.36605111354768      2.0695416882852018
    80   3      5.9025082522771219      8.1662464884096604      2.0817047632263139
    81   4      4.3583111156976289      7.9136431098265456       3.989306362751285
    82   1      6.0960139570909702      10.085112614051688      6.0774432372872873
    83   3      5.9050879915856029      10.284954819942181      4.0301276361983875
    84   3      4.0038179561087377      10.168333656746984      6.2897213964779262
    85   3      5.9841216152357983      8.0587113880306429      6.1619399354922715
    86   4      4.3226937108955541      7.9101258049208818      7.9787948804205309
    87   2      6.1232199618419241      10.018908525457336      10.139197569298926
    88   3      6.0847006803894583      10.323615701011565      8.1935406796023997
    89   3      3.9937822257761817      10.353476613226336      10.115030062744349
    90   3      5.9349224686734185      8.1403227997414387      10.098857012227143
    91   4      8.2702485274264799    -0.29653000826190135    0.034806176763668713
    92   1        10.1432259227388      1.9609058116043134      1.9828039428313984
    93   3      9.8842340652442697      1.8601076167891883   -0.046969347323428584
    94   3      8.0675055162355136      1.9778676934317125      2.1540622204136692
    95   3      10.189407684039793   -0.048382088446000712      2.3138678484907684
    96   4      8.3533155350115269     -0.2840820826030378      3.8333347372699325
    97   2      10.134305271662848      1.8185982711388995      6.0899766285104944
    98   3      10.164091558678004      2.3029265728743051      4.0807218699866166
    99   3      8.1524056260568454       2.220060248421643      5.9794804531474854
   100   3       10.10731522438455   -0.045499629054754964      5.8478242456577005
   101   4      8.1522787188235029    -0.39708561758328914      8.1020765214883266
   102   1      10.167205457356809      1.9578946865476878      10.065822320846376
   103   3      10.022270502948798      1.8801940374468631      8.0369048408004655
   104   3      8.1054246284621687      1.9847034620987967      10.305723809469765
   105   3      10.180186526912035   -0.022663045707745976      10.438006761857958
   106   4      8.4171360310006413      3.9078668630288154   -0.086499187953531578
   107   2       10.16243023307049      5.9311574447486244      2.0520451930626975
   108   3      10.140755440507316      6.3461544978431332    0.047341029688656257
   109   3      8.1401228627595703      6.3160748494607315      1.9427942491522616
   110   3      10.030429406406043      4.0458600727329728       1.803860509137124
   111   4        8.37990183588124      3.8098924469755264      4.1373428220228448
   112   1      10.150773698791067      6.0443096898636748      6.0384641089159601
   113   3      9.9621277072510317      5.9117380170529685       4.005353590404062
   114   3      8.1071915808215866      6.0333231355065697      6.2318593114393757
   115   3      10.130938979644105      4.0357545581902876      6.3198165220428084
   116   4      8.3527991312032874      3.8045931443437322      7.8381458377878381
   117   2       10.11116559412506      5.9208493082468294      10.107014469622117
   118   3      10.152012044932057      6.3645104934447607      8.1382374440985519
   119   3      8.1336489802407641      6.2616590282219606      10.038110290863809
   120   3      10.104040471115907      4.0260340201930562      9.9422552833819999
   121   4      8.3706606318959693      7.8751069161410046    0.069766873683637334
   122   1      10.115372017355707      10.139114499454889      1.9870174442203095
   123   3      9.9351859098695261       9.978082002920889   -0.045739338363645639
   124   3      8.0315372778531273      10.118520064422359      2.2183685121533778
   125   3      10.117303624352383      8.1104231356631864      2.3003426568800691
   126   4      8.3181223894490728       7.875405008592165      3.7941545014660831
   127   2      10.097473227973017      9.9491496470909944      6.0856890524765079
   128   3      10.118131242954005      10.436458022420874      4.1347982217080395
   129   3       8.124635450920298      10.397822192434624        6.02657139579801
   130   3      10.030205243340239      8.0970877757982027      5.9013873210828045
   131   4      8.3210842277841142      7.8591047643143259      8.1917744226674305
   132   1      10.100439359861456      10.118080657062189      10.099722268963996
   133   3      9.9241717928956348       10.03750297308644      8.0558259577720914
   134   3      8.0209993541019511      10.160982587735967      10.279919801003553
   135   3      10.099906352972402      8.0915210897609562      10.386764768874752
   136   4   -0.089931490683538715    -0.16926394216172214      12.012938331646204
   137   2       2.058914783977305      2.0269299630512907      14.074588199209343
   138   3      2.0535843518574413      2.2051415516937287      12.179501603572563
   139   3    0.014373526061788997      2.2554305380175541      14.208380740093272
   140   3      1.9383952806895208    0.086342298854255664      14.249040949028492
   141   4    -0.13985369705678466    -0.19971347522423633      16.112620420048536
   142   2      2.0520545305901834      2.0288595289938276      18.164031630996245
   143   3      1.8878262760824109      2.0154483020127936      16.287949998108594
   144   3   0.0025677077782452766      2.0662327115247181      18.488144315550407
   145   3      2.0806531325140982     0.11373083585665826      18.469335503290363
   146   4     -0.1641250563032792    -0.16308143127574787       20.05115794752243
   147   2      2.0577165857146413      1.9996323386036869      22.236805733408431
   148   3      2.0153948476616859      2.2670552731428422      20.353912162253344
   149   3   -0.031417785534768337      2.2944547171284801      22.342989075050415
   150   3       1.899268264618823     0.12247689502037304      22.312670345488488
   151   4     0.04650707467577414      3.8768227515440112      11.991001015684034
   152   1      2.0519798223178651       6.035078911024665      14.114416120989842
   153   3       1.841746571901036      6.0960374251309224      12.093132517307517
   154   3    -0.03911067890591808      6.0803703675669389      14.370335945367025
   155   3      2.0707248467987598      4.0150539635756353      14.434122925622953
   156   4     0.17378319551621968      4.0883596548379115      15.897486221840053
   157   2      2.1298632266493183      6.1244103135260826      18.144127785344548
   158   3      1.9713229461087609      6.1759346652997289      16.252363853442038
   159   3   -0.012843675605948082       6.229801167246432      18.307706505653623
   160   3      1.8360035483924657      4.0954867038762792      18.279212619627675
   161   4    0.038081967958679526      3.9767212355268446      20.005055237814258
   162   2      2.0465961153944661      6.0527513173451872      22.195656296726767
   163   3      1.9134649123337024      6.0065311707992262       20.31501196836021
   164   3 -0.00016874550167336982      6.1251220845186545      22.531584318756117
   165   3      1.9721310679858162      4.1514701885902614      22.521265804441381
   166   4     0.10657335092481304      7.7898151838813021      12.050972036734057
   167   2      2.0756274188025503      9.9947229430217543      14.221099449136862
   168   3       2.088392305660089      10.356476486388839      12.209176851945577
   169   3     0.02590566124573038      10.351729014575845      14.142982994571531
   170   3      1.9184152450370793      8.1270910414084199      14.141807567199644
   171   4     0.11470468510321435      7.8267314680510758      15.997666945776787
   172   1      2.0656889751090288      10.056457372443562      18.183629756989124
   173   3      1.8813059987390797      10.206393753498901       16.14574178941966
   174   3  -0.0065024870463286913       10.07845596942111      18.423224155024311
   175   3      2.0347296068920611      8.0371912334466717      18.412303953463475
   176   4    0.075414081983633793      8.1560483561672203      19.876112972763579
   177   2      2.0811239988808761      10.120817860172123      22.135736723857963
   178   3      2.1217351889390432      10.206902940644717      20.276041925841792
   179   3    0.038560493760976769      10.225384921441538      22.355709226091562
   180   3      1.8881431632520767      8.1270993905154842      22.346954034396141
   181   4      4.4260162704833101     0.01836670104533555      12.049245681867523
   182   1      6.1215426009548084      2.0100127492887223      14.158502469888637
   183   3      5.8533847099983047      2.0357697542161231      12.111243835869546
   184   3      3.9768442943048701      2.0244855522462735      14.387537880053033
   185   3      5.9570357247819361   -0.025003961014627197      14.263036209262813
   186   4      4.2544849521914356    0.063048602789988556      15.950369745430304
   187   2      6.1678191806327201      2.0801922261170653      18.136411882614293
   188   3      6.0961775970161893      2.0343742992979057      16.258194819166796
   189   3      3.9775109808472076      2.1896837779180665      18.285946356107686
   190   3      5.8646263232834377    0.066661444694440034       18.31540640873877
   191   4      4.1807721514628131    -0.10469133663272508      20.136891571925005
   192   2      6.1057645614339444      1.9885743651412113      22.260317682189754
   193   3      5.8561309935452392      2.0698239127971423      20.338313126976544
   194   3      3.9649297821664451      2.0941611400945375      22.458459620242643
   195   3      6.0318534395876364    0.095795712066363573      22.355885689691405
   196   4      4.4364536065355509      3.9597571185875582       12.04194100440257
   197   2      6.2160951700155858      6.0171237722350543      14.144208012189868
   198   3      6.0393650404220507      6.1092812667919159      12.173453320530404
   199   3      4.0733962365928775      6.1336653026182306      14.258192211937191
   200   3      5.9220902990359683      4.0717649453053015      14.159907557708379
   201   4      4.1317767939407144      4.1086201110712031      15.807939820926181
   202   1      6.1239890683894371      6.0296556875122853      18.205111702400743
   203   3      6.0571310322494574      6.1691913695026042       16.16667938325439
   204   3      4.0108485613779798      5.9809458080044706      18.313176170021105
   205   3       6.063085415919157      3.9997002625095286      18.395115951658394
   206   4      4.3440683879641151      4.1173893999039635      20.069465526580139
   207   2      6.2254238927064716      6.0951192590208185      22.272765028773438
   208   3      5.9609663336452359       6.106031623199434      20.330390888147374
   209   3      3.9471295926641266       6.197567684170421      22.340696211673421
   210   3      5.8644734152701865      4.0899703263364069      22.325154506142674
   211   4       4.355102675132831      7.8408137464569432      12.264570075855394
   212   1      6.1273886608311203      10.067975250721174      14.140463117438948
   213   3      5.8452845864738041      10.177005737836797      12.107533187663838
   214   3      3.9915651161530228      10.218656655673044      14.275537687295415
   215   3      5.9607593300516735      8.0497313296123316      14.151695961755102
   216   4      4.3776966687358092      7.8576422833496702      16.009139901163056
   217   2      6.1705940980107732      10.091480925820665      18.135340593279516
   218   3      6.0923466632586774      10.183407696461007      16.199534689168939
   219   3      4.0762955982545668      10.304985823908169      18.139535784592447
   220   3      5.9227672439684138        8.12670026742461      18.267127401263185
   221   4      4.4116655592693537       8.096755431680247      20.103842388804999
   222   1      6.1079168085780529      10.077843441370371      22.260507015343038
   223   3      5.8466012466000388      10.100440193990943      20.227170850820123
   224   3      3.9885340500953497      10.083409514533997      22.509497826712376
   225   3      5.9636986450023075      8.0441684533237474      22.347754560531474
   226   4      8.3320457519513802     -0.2012098065843764      11.908801013023432
   227   2      10.074967979630872      1.9090850365953076      14.165025119564167
   228   3      10.208456683113857      2.3491110911487318      12.215053572028657
   229   3      8.1528160782499501      2.2185034841927216      14.059966510038894
   230   3      10.095733712323492    0.018533943744280728      14.006614118526588
   231   4      8.4542213739245469   -0.078581758114285277      16.313575620234811
   232   1      10.172021912447105      1.9756018503442794      18.224416600657939
   233   3      9.9353321752589636      1.8587114652660193       16.17319787481026
   234   3       8.041429249754005      1.9794428991464408      18.418571708217669
   235   3      9.9974933811531432   -0.044721147949338624      18.401245595430044
   236   4      8.4165574356067676    -0.12431714314584927      20.216091144621679
   237   2      10.253665048631134      1.9413490733919141      22.337297433675747
   238   3      10.117534554576327      2.3126782310848042       20.33383760925274
   239   3      8.0196797947563887      2.1943658301839206      22.206316676553531
   240   3      10.046862816106607    0.043975824246883025      22.075704501761212
   241   4      8.2872345866458854      3.8011582421405099      12.137058652977521
   242   1      10.165612622695754      6.0125758116147461      14.126487003417848
   243   3      10.001962710132828       5.874406929409778      12.089575848723342
   244   3      8.1204491174617814        6.02458342658778      14.261356371099835
   245   3      10.197269182836118      4.0069705019243749      14.505921739867183
   246   4      8.3957027766773393      3.8883008235558716      16.053541044452754
   247   2      10.160139036095222      5.9583038170896252       18.27601226196116
   248   3       10.12434390670926      6.3227487733431893      16.245770823193215
   249   3      8.1442986473126826      6.3034746636711692      18.187437541968738
   250   3      9.9756816844221134      4.0442474537569444      18.029958310060202
   251   4      8.3792216736737917      3.8887837451331091      20.171270522691891
   252   1      10.151986447862118      6.0207242811314492      22.239042621571905
   253   3      10.027776866783729      5.8161214296467962      20.217928459602884
   254   3      8.0857622091437964       6.023124231782206      22.407675899450293
   255   3      10.115044590972866      4.0040936003283267      22.597488902458096
   256   4      8.3483132846508585      7.8551680972990763       11.97471999164981
   257   2      10.117155076418216      9.9393362778360075      14.198098356046071
   258   3      10.136394784369552      10.406626536591284      12.181552334858763
   259   3      8.1403812213053026      10.316701518503681       14.05991296204105
   260   3      10.086674078449192      8.0673288354344663      13.924158508191253
   261   4      8.2113399567093861      7.7341498546643113      16.227433910387351
   262   1      10.137422556634959      10.063833559204321       18.17137194065544
   263   3      9.9721084688913155      9.9549946996674983      16.141715211608268
   264   3      8.0837621305960763      10.019149407087378      18.431064325782184
   265   3      10.166469968166535      8.0589942840380679      18.547477025720301
   266   4       8.282191578498411      7.9750425035857724      19.975120384725908
   267   2      10.117233572548578      9.9675439604863048      22.282873774700001
   268   3      10.143860957729586      10.403022800216309        20.2875695361551
   269   3      8.1248330476105544      10.356858928815429      22.169229968183842
   270   3      10.045701016231723      8.0877977088994957      22.076649988666219
   271   4    0.093400239663735146      12.188890126114533     -0.3541699887773172
   272   2      2.0838629598181844      14.133839316678237      2.0273046127406724
   273   3      2.1490616755243885      14.315233836973389    0.074579659052687541
   274   3    0.034315829729612432      14.387289531585328      1.9888793305430268
   275   3      1.8912381960806626      12.174919023475043      2.0413529284030631
   276   4      0.1476458738230024      12.119384727541638       3.921253642332533
   277   1      2.0535117329434356      14.169325917065217      6.0266658365141792
   278   3      1.8572876923974586      14.147736493937403      4.0200845909071496
   279   3   -0.011871259289863011      14.159429024875759      6.3811190836028713
   280   3      2.0826608222855993      12.136856127546082      6.3704745922863841
   281   4     0.15085984641403011      12.147830433586559      7.8076159608433011
   282   2      2.0580887070337539      14.107251720330622      10.136968962418294
   283   3      2.1071997089887469      14.404545110847867      8.2556383554829065
   284   3    0.052098185026046691      14.415058423597674      10.200092548939072
   285   3      1.9306201694198715       12.23254823678869      10.186717969806519
   286   4  -0.0077831245419960121      15.925361886142129     -0.2686106103425584
   287   1       2.017985921279315      18.196849342591015      1.9653821894516279
   288   3      2.0397363613787483      18.370421617930319   -0.077521638474414956
   289   3   -0.017905257278316593      18.136657781539764        2.25193446049951
   290   3      2.1405128829526681       16.18278851111608      2.2027431051062734
   291   4      0.1811360492323501      16.132398436181038      3.7261896704957942
   292   2      2.0582706379863711      18.258950976622575      5.9589822390353655
   293   3      2.1185122455242791      18.317958425318594      4.0992362508246334
   294   3    0.031970456680014789      18.421213813573985      6.1494873322283796
   295   3      1.9431962166401835      16.316337100286894      6.2152911683496272
   296   4     0.13356532289603837      15.976142215449114      7.8620831358162295
   297   2      2.0405030465773355       18.18720752682438      10.106901311980403
   298   3      1.9087853468357694      18.259471339066305         8.2312016436455
   299   3    0.023716605510677131      18.303549041494161      10.410656824911152
   300   3      2.0579927684974932      16.300925322841405      10.369364055527706
   301   4    -0.19561851388440935      20.004696427619493   -0.073266928333969583
   302   2      2.0290452301370077      22.164902833105536      2.0737005265439046
   303   3       2.070827551370352      22.481622041869191    0.027881128226492052
   304   3    0.027512098841976248      22.500600173101542      1.9771937980951202
   305   3      1.9011948817406672      20.277769463442066      1.9926988585229366
   306   4   -0.080296297438353578      20.043818343277149      3.7047672767039028
   307   1      2.0363664559426908      22.284426540403818      6.0085061381728693
   308   3      1.9020000034309219      22.342903234551034      3.9918070889271489
   309   3   -0.057424161454467534      22.271935239571963      6.2881416291515135
   310   3      2.0718163658759852      20.232964329525419      6.3446317046032394
   311   4     0.14978893209649788      20.254612940255249      7.8047370326290277
   312   2      2.0820145792829887      22.240356216909717      10.072854776642343
   313   3      1.9652192400413273      22.410060230113203      8.1930954607873083
   314   3  -0.0026033449502988644      22.491440934616506      10.222941720261888
   315   3      1.8710981123105279      20.330707245133127       10.21807409538331
   316   4      4.1202624919659465      11.976516375199763      -0.297115702054913
   317   2      6.1383554438120855      14.169351402655256       1.923839232379819
   318   3      5.9206738602426459      14.262462319976645     0.05088102763880549
   319   3      4.0631292519042441      14.191071278353483      2.2274790520418337
   320   3      6.0690805302079811      12.254931780807377      2.1215229904041157
   321   4      4.2302256916464058      11.936888040583195      3.9959982006280019
   322   2      6.0560495898618534      14.175017409132437       5.985746966661857
   323   3      6.1127433299247933       14.28262010715788      4.1017972599816535
   324   3      4.1108219431972124      14.410398030493875      6.1597738102760973
   325   3      5.9272896102268318      12.272155805907634      6.1634944676351537
   326   4      4.1557969166950093      11.984499863814802      7.8711676300933524
   327   2      6.1107033165456084      14.156975846141227      10.109314684399587
   328   3      5.9176989062209957      14.272500083484905      8.2109588508807381
   329   3      4.0051728009094658      14.282367412491551      10.363699220869865
   330   3       6.041349537474205      12.268412522697233      10.267815307236786
   331   4       3.875138367103399       15.99044638049441    -0.25199114511741871
   332   2      6.0912681374496156      18.256559882435511      1.8707005674418711
   333   3      6.1336431987895423      18.339878351172608   -0.020442712682508413
   334   3      4.0861197170850696      18.386807874650913      2.0319238028737634
   335   3      5.9112346746836586      16.243510166365031      2.1386619276132848
   336   4      3.9824478026421413      16.219594808314444      3.7345532359407354
   337   2      6.1086750368755869      18.202474973751393      6.0027465603697365
   338   3      5.8708434471459077      18.220947345703284      4.1212621869230706
   339   3      4.0201300587657967      18.221199712164047      6.3155058092678633
   340   3      6.1082725521129939      16.283112969505336      6.2561973391975334
   341   4      3.9874775160566305      16.054929395765797      7.8480341148396811
   342   2       6.121315168049188      18.279467637502034       10.04531541534692
   343   3      6.0944182437575858      18.332436817357145      8.1561399453791577
   344   3      3.9729937288997439      18.411142685555699      10.240327060044477
   345   3      5.8744950146088044      16.299203681640403      10.245622926488187
   346   4      3.8567032388625062      19.938841091152678   -0.049142067643140712
   347   1      6.1203219849921355       22.24080059940054      1.9687813618935566
   348   3      5.9446990091757668      22.418107277633947   -0.056857255655302294
   349   3      3.9915409469505172      22.273209044162137      2.0684146377190173
   350   3      6.1143512846441528      20.195451881825861      2.2140405023503424
   351   4      4.2521441983809938      20.262896015566636      3.7314956275225848
   352   2      6.1504355509613378      22.278410626643613      6.0059540941137568
   353   3      5.9924651769100352      22.335275580810549      4.0650882800904249
   354   3      4.0611483613014903         22.300929482369      6.2319182484437885
   355   3      5.8802649509302949      20.255610783093221      6.1135964702499441
   356   4      4.0651451545657178      20.431483043595382      7.7653345715977018
   357   1      6.0923940596554127      22.254514180698795       10.10186054399721
   358   3      6.0493708656676377      22.398692288466812      8.0769343673586267
   359   3      3.9735496841639018      22.260650385223894      10.237192712771053
   360   3      6.0386870237816481      20.219453659911672      10.331074162492355
   361   4      8.3061897551623254      11.967790692172624    -0.29719992048080202
   362   2      10.198730550337421      14.115482385297627      1.9550844908957574
   363   3       10.10495608443372      14.458997718049668    0.065593746077324697
   364   3      8.0473173531288911      14.386300848496697      2.0453521895478501
   365   3      9.9672904711015704      12.232775670940903       1.918559982312559
   366   4      8.1568405382114353      11.801441128141526      4.0164293191614044
   367   2      10.086199014030017      14.160901064991151      6.0325609797104409
   368   3      9.9892646445910671       14.07174862464524      4.1255338912043333
   369   3      8.0630459035906394      14.192616352362389      6.2933134991384563
   370   3      10.139081143954016      12.276339027238649      6.3736948173811783
   371   4      8.1315430815665302      11.828004703818195      7.9770431159857216
   372   2      10.183172981039656      14.074244304815702       10.17968475445786
   373   3      10.101397359870697      14.522604510055238      8.1431195724116741
   374   3      8.0287556909307582      14.389000521447343      10.096293827485612
   375   3      10.005128815563069      12.208422631683055      9.9262769985096533
   376   4      8.3705163514494352      16.115775605600415    -0.24194322284596467
   377   1      10.150019069738009      18.189763688917772      1.9472785406279434
   378   3      9.8733316868325662      18.122405260732567   -0.075427908671691413
   379   3        8.01379387271332      18.141036846552247      2.2267628219361306
   380   3      10.108371794984278      16.177935034970947      2.3381039472813421
   381   4      8.3016863989243781      16.313880758991036      3.7856588104519466
   382   2      10.247545080193287      18.232843717643885      6.0824189040254844
   383   3      10.055045773013497      18.428464556500785      4.1396359094583604
   384   3       8.005279805096567      18.414031281578595      6.0597404760473541
   385   3      9.9244155846083455       16.24434150020312      5.9909749221294675
   386   4      8.3556095761360361      16.179932178540987      8.1103981917534078
   387   1      10.116192289938168      18.210817581708429      10.107620385199025
   388   3        9.85880140593531      18.089685369415555      8.0717212919579069
   389   3      8.0020656051154262      18.207109431593938      10.345523882243976
   390   3      10.080006714486286      16.203451511278953      10.400844897551309
   391   4      8.4447727349058788      20.130552453786883    -0.13316186380457848
   392   2      10.235081611716373      22.201841213671123      1.9917323128551776
   393   3      10.091379716916087      22.469237790879209     0.03475729280190628
   394   3      8.1360589068034681      22.495864253130332      1.9781647977164172
   395   3      9.9508921139411868      20.252443132077111      1.8914497168897895
   396   4      8.3420946464137256      20.180374039952934      3.7869120116561121
   397   1      10.146388910266657      22.204311360499851       6.008855943101862
   398   3      9.9624939230513352      22.079745282444971      3.9858576610330583
   399   3      8.0681709269642727       22.22497748340701      6.1807908628672381
   400   3      10.125458005801722      20.199302499698618      6.3821866642046823
   401   4      8.3766032485568012      20.148502672178999      7.9876815491966227
   402   2      10.172994924985106      22.179480998415958      10.141995124987623
   403   3      10.109428694924162      22.506120587292024      8.1418645443404909
   404   3      8.1325034352166501      22.517186112846915      10.093184325821671
   405   3      9.9698313434725865       20.26495256269223      9.9679365354852774
   406   4    0.022988831684066905       11.88341668294831      12.107581298622291
   407   2      2.0285378621025316      14.120021698393311      14.199385329971683
   408   3      1.9034582472521728      14.304526518193377      12.245245982647571
   409   3    0.036583313318412587      14.292689389588064       14.35217558172889
   410   3      2.0467182519960678      12.246041467318374      14.283581911953041
   411   4    0.051732759154768555      11.834151434361207      16.195159792051232
   412   2      2.0299108651471482      14.030264286293782      18.267554909393716
   413   3       2.086457478971016      14.383978608061716      16.225993655958998
   414   3    0.068261413847097316      14.383073846579427      18.178328066299169
   415   3       1.897731868486926      12.164876172762156      18.185036668023127
   416   4   -0.096863839101640523       11.95246836507591      19.935686088310611
   417   1      2.0395090791799135      14.096731952973244      22.216829801568416
   418   3      2.0241044855237571      14.301127317702495      20.189595535254099
   419   3   0.0066463496645942184      14.106064913570261      22.515298870717967
   420   3      2.0849955215416767      12.075571128944638      22.510445130289405
   421   4   -0.051627585339877533       16.00259243313257      12.066733696192028
   422   2      2.0161330582950914      18.200274290369105      14.169814158723476
   423   3      2.0442798063823013      18.477012721583879      12.273038850396196
   424   3     0.02477415183054717      18.494073344087496      14.221860464184532
   425   3      1.9507952558861832      16.328889945869236       14.22151544100798
   426   4    -0.17191833886513516      15.914429545119869      16.289365682990606
   427   2      2.0067661427337167      18.180603402994478      18.184321166086878
   428   3      1.9517034237397035      18.403941009734027      16.280028622454651
   429   3    0.086999102051303082      18.284617190420636      18.423860547261327
   430   3      2.1385440021795783      16.305369638455218      18.277564313154748
   431   4    -0.19875272734067634      15.965897255003881      20.060416768740438
   432   2      1.9285297864479367      18.148706467384823      22.235146694247295
   433   3       2.219760215922574      18.377217701852782      20.287043510200462
   434   3    0.051018426342907153      18.385516115670232      22.233367413922569
   435   3      2.0109814543124949      16.254005644465998      22.325357033441684
   436   4   -0.047946656554728448      20.084665919571496      12.055700741975132
   437   2      2.0360614043343706      22.271315593190916      14.114101850576491
   438   3      1.9394784023230536      22.357722787397098      12.217797577589824
   439   3    0.053665692787578129      22.385551011851074      14.342396098986352
   440   3      2.0835378961576398      20.380762559737967      14.373252739813518
   441   4     -0.2679146689228396      20.197689764319009      16.205108892114094
   442   2      1.9968352024007965      22.282920082754472      18.176905163593467
   443   3      2.0585940404998846      22.488828234850605      16.293823757233458
   444   3    0.063580507203228054       22.53320584883992      18.277027040735405
   445   3      1.9818170057886202      20.380874579888744      18.353568553332945
   446   4    -0.31184890552600014       20.16493369461158       20.09543437860798
   447   2      2.0200905281262949      22.256403963430984      22.258101327594392
   448   3      1.9339258565844561      22.401865572816057      20.343248242439959
   449   3     0.03341656999386107      22.358847212146195      22.468757317771214
   450   3      2.1475956547730468      20.350508921778555      22.351149077320795
   451   4      4.2159359854500513      11.857810332307047       12.22484205084235
   452   2      6.1498450698328977      14.095489468802137       14.22195718451799
   453   3      6.0347829640737691      14.403799526236009      12.211224749283065
   454   3      3.9895324125427902      14.416007524889169      14.142838814289153
   455   3      5.9476552316400024      12.218949449381547      14.119513004406764
   456   4      4.2153731198775253      11.809081589449809      16.239431274347332
   457   1      6.1293918969190395      14.127088333916017      18.188312091048438
   458   3      5.8838498858712356      14.260849957045428      16.144592868879659
   459   3      4.0015014271128857      14.261787666473262      18.253274736588601
   460   3      6.0829203089977968      12.095827674681411      18.322083023153223
   461   4      4.2959532422604703      11.861682197703724       19.97037864347962
   462   2      6.1090732192237107      14.089305967976625      22.134143185698594
   463   3      6.0729734166501457      14.303483223180095       20.26291337358613
   464   3      4.1038901095225881      14.406555789966013      22.289497328877335
   465   3      5.8989015471338089      12.203883125789847        22.3183696750183
   466   4      4.2137572567716211      16.069169692486021      12.090983225100725
   467   2      6.1156361780028581      18.211667100183497       14.15757497728219
   468   3      5.8490787247545217      18.303839518328868      12.257382349024828
   469   3      3.9922605009392029       18.35962224936706      14.404999363680163
   470   3      6.0310611770187261      16.325072242406762      14.277392494673624
   471   4      4.1503841971528468      15.872224001831722      16.289574208154985
   472   2      6.1159166776840275      18.173199425600476      18.167393487475117
   473   3      6.0471407978269474      18.461080783918689      16.243741783712686
   474   3       4.021857086247163      18.526007796750164      18.221147301367385
   475   3      5.9268755095191015       16.31237565220443      18.179450516553473
   476   4      3.9902537389497903      15.819629458790297      20.177783046442553
   477   2       6.086114790957307      18.151092621324388      22.154318745059989
   478   3      5.8642623542287549      18.304150880149876      20.253535624148206
   479   3      4.0772917139294798      18.279509893555375      22.439726613040794
   480   3      6.1220564368461154      16.266745165591058       22.34805700925061
   481   4      4.3018662894835664      20.284593328784023      11.958643318071292
   482   2      6.1982110549348572      22.325292806620592      14.137829889405369
   483   3      5.9904780511644571      22.367612191502442      12.227990964322979
   484   3      3.9798564811154851       22.44381393178271      14.298094619947888
   485   3      5.8509629657331619      20.346740919963437      14.242020555526365
   486   4      4.1184915866297187      20.184505203583146      16.026756242125622
   487   2      6.1017465339370869      22.273158608372725      18.219006292079854
   488   3      5.8985862324807945      22.340500688768422       16.28663134103024
   489   3      3.9960570410887555      22.367761660757452      18.471841410235715
   490   3      6.0182379506309509      20.368312741032959      18.388906484292246
   491   4      4.0161551423405166      20.125025662517366      20.091357980134386
   492   2      6.1278781366245694      22.188680749956706      22.308173511706794
   493   3      6.0228527514239634      22.485625638132227      20.309175833017644
   494   3      3.9958630387764416      22.532262868602505      22.275176028729781
   495   3      5.9314060957924655      20.306337340942161      22.252857085015517
   496   4      8.2968763305851141      11.871591339403087      12.211417516077999
   497   1       10.10423715847771      14.176051048677826      14.136176477548425
   498   3      9.9198331154341197      14.059701528012139      12.096482274754539
   499   3      8.0302436436443738      14.213859800759993      14.313487624865965
   500   3      10.105000966900629      12.152069129579042      14.437194654205756
   501   4       8.338420384866307      11.929169552121746      15.973624219664666
   502   2      10.119456117884752      14.014496873006893      18.239394199923375
   503   3      10.146861259542042      14.471604242138394      16.224421539257012
   504   3      8.1466697487388746      14.410512345463905       18.11240381875588
   505   3      10.024592412256972      12.136050323251936      18.010444771442653
   506   4      8.2431897195665638      11.821647173854224      20.202421224558183
   507   1      10.111711878588377      14.151133270881814       22.20679466709759
   508   3      9.9645628601524763      14.068164023692924      20.186864906226067
   509   3      8.0080064284733528      14.163104444699952      22.475939627822687
   510   3      10.133402812092745       12.15602217301697      22.553975546987537
   511   4       8.372384677833514      16.118719669787524      12.035718577866033
   512   2      10.233299819465985      18.167492373947912      14.216800492588451
   513   3      10.090494997870319       18.55120079886477      12.233503096008249
   514   3      8.0158706905008579      18.449926458935771      14.117987325857046
   515   3      9.9863399400615869      16.280982068228695      13.974072520084448
   516   4      8.3532130394102317       15.97376827141958      16.269916013803304
   517   1      10.137213596128028      18.233488577808224      18.192938770062796
   518   3      9.9044034239563956      18.131857326181898      16.157094319984935
   519   3      7.9926940481831821      18.292226353770818      18.392185608646329
   520   3      10.125130700860806      16.224182814260281       18.45656541362791
   521   4      8.3907344828451542      16.029682444603338      20.012580912796519
   522   2      10.266444229224707      18.189890461421566      22.242358568073772
   523   3      10.090431384706266      18.480602568124613      20.303832592176555
   524   3      8.0042963152666999      18.418753105873641      22.191719396688427
   525   3      9.9286056059228205      16.263932951125511      22.157923790319462
   526   4      8.3558598642249784      20.138384732575553      12.045934489906521
   527   1      10.158627520659289      22.261361537373947      14.151329631392521
   528   3       9.993168522374777      22.099312242819742      12.115218007615363
   529   3      8.0570795940742705      22.260676469075669      14.300369861496858
   530   3      10.143680617356255      20.249852936356607      14.483705780863572
   531   4      8.4710158399188291      20.210513967372204      16.133074555532836
   532   2      10.301656661664168      22.262572814557434      18.284111152560978
   533   3       10.07488309942836       22.50475298865798      16.284391371335794
   534   3      8.0050838990224449      22.426317631535667      18.217357198411335
   535   3      9.9628135262358217      20.329650975424574      18.104991217401718
   536   4      8.4286684252649167      20.147610945635073      20.163162644481186
   537   1       10.17286600708926      22.261250091279784      22.246195635762305
   538   3      9.9410399107499376       22.17113435673178      20.211578451164264
   539   3      8.0263293845844075      22.338514809701948      22.367714616349748
   540   3      10.092666026124903       20.22641969211843      22.503289783722337
   541   4      12.400223151198215    -0.27441267554932952    -0.20485029130358301
   542   2      14.109399367025357      2.0582309788910207      1.8867822286261819
   543   3      14.246416962369283      1.7336687083349711    0.028649256599625302
   544   3      12.196352571234947      2.0203565431880901       2.126139071277203
   545   3      14.181336163669354    0.053490356736397709      2.3781803899699119
   546   4      12.181922218388028   -0.037455015795761444      3.7106625819083607
   547   1      14.162651372187897      1.9754948362971476      6.0090761005017699
   548   3      14.172107441941632      2.3500359379741975      4.0168727846299568
   549   3      12.105041107274308      2.1582176688562851      6.0428852276189184
   550   3      14.315670044004003   -0.067457449809634057      5.8696948887248555
   551   4      12.151990376908174     -0.3648335818142231      8.0062389520128612
   552   2      14.167657074156027      2.0194830499151446      9.9116158065496709
   553   3      14.229891344911595      1.7881792797894134      8.0674652093342178
   554   3      12.233676776605391      2.0439999002468885       10.29417672354529
   555   3      14.167256399533107      0.0705287939632952      10.460413978972532
   556   4      12.238186432696541      4.0926315009059673    -0.32736595601212309
   557   1      14.148118461764627      6.0384302267446506      1.9882466942340959
   558   3      14.128331104535802      6.4180906701363742  -0.0074493311667626107
   559   3      12.099070196155816      6.2023902106057243      2.0306581722755896
   560   3      14.349952226641879      3.9892157047020946      1.8342262273424574
   561   4      12.143965455837888      3.6778992158185955      4.0455044435808052
   562   2       14.12161607495611      6.1083916426954321      5.9251462671746591
   563   3      14.249338823519349      5.8413418684946041      4.0488803039456895
   564   3      12.186728581796016      6.0886322790260952      6.2014775927457899
   565   3        14.1526578344653      4.1038486211391456      6.3623337655744638
   566   4      12.092936284898293      3.9636817470899013        7.69147752977719
   567   1      14.135241694608624      6.0420806017734998      10.096296978416737
   568   3      14.150054622571984      6.3872856713678656      8.0952139560384868
   569   3      12.091030126177378      6.1904045573010107      10.143650531431101
   570   3      14.327790501252867      3.9819234131161991      9.9993988762266444
   571   4      12.169282486564649      7.7487961242932339   -0.086818604915196801
   572   2      14.125621857072291       10.14080185804867      1.8680314108246445
   573   3      14.218069936465021      9.8843228887353245   -0.000753608779426398
   574   3       12.17220952222131      10.159138990972245      2.1783474648536569
   575   3      14.116508353397831      8.1584951169893856      2.3606832994366989
   576   4      12.094515826379153      8.0792718119933706      3.6658813700061792
   577   1      14.101561900742269      10.109395244928448      6.0582294475140142
   578   3      14.125201861641136      10.448397782674286      4.0646506308527224
   579   3      12.041395863666084      10.308405158382911      6.1413268157270426
   580   3      14.314112451205919      8.0698027487303161      5.8909432951739138
   581   4      12.169774548189332      7.7255200186490063      8.0711838179010904
   582   2      14.134607227117709      10.126738378730524      10.002186314149599
   583   3      14.201181475165205      9.8956478916582071       8.106703587500137
   584   3      12.165856326191522      10.156745058759522       10.20708064613391
   585   3      14.128816755710179      8.1428093760029245      10.459697528341996
   586   4      16.201142588958053    -0.36105186674195805   -0.058228375724398374
   587   2      18.210143862121186      2.0180638260846129      1.9927771543893156
   588   3      18.245291243117379        2.05534935792139     0.08579401284743253
   589   3      16.264549976758428      1.9810899386986318      2.2237063071593259
   590   3       18.34541046021322     0.11025471536332145      2.1782712318848056
   591   4      16.049931007674957    -0.12894411261639938      3.8090930090097963
   592   2      18.100430189695537      2.0015415561571528      6.0967016894116499
   593   3      18.401066726671903      2.1534568823738294      4.0973977011929339
   594   3       16.22725622889806      2.1892159070935882      6.0530333008264359
   595   3      18.276278314699685    0.062955730266183244      6.1213508502820506
   596   4      16.010107294044875    -0.24914289459381192      7.8680027870136495
   597   1      18.208619034715888      2.0154272809814424      10.089152558073918
   598   3      18.331452321998785      2.0965664764441518      8.0534616393240999
   599   3      16.144515766221279       1.957270664749901      10.364890544730102
   600   3      18.332304417331088   -0.029453511704244231      10.240711379929468
   601   4      16.157397467285108      4.0871697822218493    -0.35114343129901499
   602   2      18.084027729228055      6.1303615981657931      2.0531496056943652
   603   3      18.398049776938727          6.152664682817     0.10733579284097754
   604   3       16.21361546743065       6.245479090175861       2.020879714830341
   605   3      18.267290709270299      4.0988334092482308      2.1061461896380385
   606   4      15.888422797323834      3.9224922296887366      3.9241968541788586
   607   1      18.174147755883507      6.0927357819702337      6.0722970573212756
   608   3      18.362435818622707       6.088342297903802      4.0389439100218487
   609   3      16.143441227583541      6.0065351040787194      6.3002631891242791
   610   3      18.448761691089615      4.0414326418665896      6.1222587365565522
   611   4       15.98743902796901      4.1432774889688746      7.8113946458885577
   612   2       18.08696589949195      6.0973693798853228       10.12024690546639
   613   3      18.404060725600591      6.1020681398772361      8.1708679485003302
   614   3      16.201519872350076      6.1965248667131432      10.128388462352966
   615   3      18.258423740289793      4.1130535768561849      10.181474895240187
   616   4      15.927928578018072       7.882169923311328    -0.18789779577521412
   617   1      18.166398734085682      10.124466792202707      2.0127830773239364
   618   3      18.349759094128981      10.132333178919025   -0.026969732513794996
   619   3       16.12651653534224      10.043519420763687      2.2664839378472355
   620   3      18.415945242110777      8.0833410444753646      2.1211473522781454
   621   4      15.929383107936282      8.1999089126899616      3.8380608485042704
   622   2      18.053562772023188       10.14179136014274      6.1019327206854808
   623   3      18.403800732018023      10.151964528476366        4.14236246221515
   624   3      16.180666815295012      10.289679519992928      6.0761498846221143
   625   3      18.288949851384302      8.1739702366679143      6.1346705358328233
   626   4      15.919973303353906      7.9025668435468317      7.8693630539447339
   627   1       18.18048306701451      10.121081310801674      10.113712975649198
   628   3      18.353803907357204      10.153587045971003      8.0768297471298496
   629   3      16.139953920867569      10.046063932919667      10.342335488539216
   630   3      18.407999117607321      8.0752145433631615      10.175672090943504
   631   4      20.185993224307598    -0.38321714525554806     0.01978328514223008
   632   2      22.219598486393959      1.9766981784472764      1.9716319135506408
   633   3      22.418983784021332      2.0939662072370062    0.080646749057266709
   634   3      20.301760158066255      2.1933499837027348      2.0642138166963955
   635   3      22.274914598304878     0.11804673131995673      2.1942207661663113
   636   4       20.06005158047601    -0.31607392671971019      3.9870721940439577
   637   2      22.244107015844246      1.9542100255380339      6.0015733491631886
   638   3      22.304670761674977      2.2372691796809887      4.1187753733202381
   639   3      20.353233549499858      2.0224712044541677       6.183234032766932
   640   3      22.458940658554656    0.064405737676292082      6.1056229572544067
   641   4       19.93021777345885    -0.15819066309650862      7.9655189911656166
   642   2      22.206973396807182      1.9685671199036214      10.050604044688168
   643   3      22.443642412165339      2.0797023391847471      8.1548673438322421
   644   3      20.348034482280998      2.1552470999038174      10.159078761998313
   645   3      22.326692853969526    0.080275969901867764      10.317472889229538
   646   4       20.01364399565696      4.1830450190329698    -0.24119310260760646
   647   2      22.244695216511019       6.067590302009517      1.9758153409163763
   648   3      22.326778982167173      6.2871731658646262     0.10413444484287071
   649   3      20.356945586175279      6.0890591059344086      2.1751361062459611
   650   3      22.475386455923765      4.1644097973255088      2.1083639939335579
   651   4      19.875854194879718      4.1296839536326937      4.1153641683587052
   652   2      22.201491573594318      6.0431206884045485        6.03992882968494
   653   3      22.462898840577871      6.1417706894515254      4.1476554012342266
   654   3      20.339773673178399      6.2264733923620961      6.1059432346444131
   655   3      22.296562393528298      4.1341478411546602      6.2674123167815123
   656   4      19.850617541677138      4.0033295955212322      8.0446942797906686
   657   2      22.234009676459223      6.0125135358777637       10.05458012729542
   658   3      22.301358811707431      6.2573950619733081      8.1594796595418835
   659   3      20.344105619886445      6.0602717876981123       10.22286185427579
   660   3      22.475525967200102      4.1115736095730213      10.155903874379078
   661   4      19.876138290415991      8.0920962800881142     -0.0879585282351035
   662   2      22.221626715949075      10.125564506760064      1.9748214910822879
   663   3      22.431762045961875      10.089332432338777    0.089429476935333208
   664   3      20.362275113229142      10.270274221705741      2.0969614997415187
   665   3      22.324691336942273       8.194742942595667      2.2776883761246252
   666   4      19.865049074214532      8.1084119687531135      4.0229018377962591
   667   2       22.25758117765616      10.076319143241765      6.0296452375224732
   668   3      22.335170467126567      10.287270477868459      4.1469419607723133
   669   3      20.363476949064747      10.090419415366554      6.2067812770576802
   670   3      22.485138392960106      8.1629513575938493      6.1336589430002695
   671   4      19.850739114059206      8.1014484276581378       8.046494982880219
   672   2      22.229126410229643      10.043041528226157      10.060873971300726
   673   3      22.443549703235327      10.132620531865173      8.1788991584976767
   674   3      20.366621659843208      10.261833909986436      10.163640591666594
   675   3      22.288680009806168      8.1517619884847168      10.303766238004714
   676   4      12.151588944276478   -0.065530693110329094       11.79973898124951
   677   2      14.122420782236608      1.9778451024245429      14.122196677504743
   678   3      14.154038896000502      2.3386857774304519      12.244197027478398
   679   3      12.174305308883854      2.0978774461570286      14.264747108014468
   680   3      14.188265453776662    0.049589322009204961      13.960424217984972
   681   4      12.279909874334939    -0.33732785661072989      16.119427381618308
   682   2      14.185194164374044      2.0393697656408856      18.104687933080875
   683   3      14.244951764403547      1.7626497627588797      16.190432506734997
   684   3      12.219951051436501      2.0396916891337855      18.360864709826949
   685   3      14.202752120570015    0.054358961916418362      18.556985813943331
   686   4      12.473346053848038    0.053837491544299461      20.111207005734137
   687   1      14.236466961731223      1.9859286469758097      22.278377209409971
   688   3      14.118958786969802      2.3272722757367275      20.244719313219896
   689   3      12.149793092760952      2.1033500692991169      22.331589939520516
   690   3       14.07005588784545   -0.056978905125873433      22.043987766155396
   691   4      12.071476317370708      3.8583003128711288      11.896716715227509
   692   2      14.169556900604942      6.1262345407907262      14.009387584659379
   693   3      14.211616452038999      5.7833396659347249      12.156086613457058
   694   3      12.216523252781624      6.0128799654636556      14.347552357328702
   695   3       14.15724988602199      4.0180731101429279      14.541915807814442
   696   4      12.084183788090595      4.1060777513911999      15.926269469276136
   697   1      14.146154943421733      6.0401221650340284      18.213287773414066
   698   3      14.187411646747053      6.3471394408671022      16.188108076103159
   699   3      12.109222391901197      6.1545541017594028      18.200309892346333
   700   3      14.305933767057356      3.9932947927504485      18.002089927530285
   701   4      12.224421471357049        3.74414784668914       20.14203686664241
   702   2       14.16934580867891      6.0822996382040939      22.114832884986061
   703   3      14.216845812487183      5.7973177398891975      20.248717734550112
   704   3      12.203504416060712      6.0328379714987559      22.436609451192776
   705   3      14.181022811481283       4.090210639343983      22.601697901554484
   706   4      12.064743259940057      8.0422315345976632      11.773081766532441
   707   1       14.10912161669161      10.096466002366311      14.135108722465045
   708   3      14.122010590097211      10.451330412954661      12.124865760745694
   709   3      12.073916008232633      10.272263270255772      14.154452456734232
   710   3      14.275781758366671       8.042128203533327      13.949987644512875
   711   4      12.145884644768842      7.7163578773972086      16.150389110976263
   712   2      14.122062908805338      10.136002872892218      18.045476498084767
   713   3      14.222841568854777      9.8172131195249097      16.179808576160816
   714   3      12.181207213099597      10.104943325823855      18.354627746195902
   715   3      14.129785771196522      8.1312474983639031      18.543246189555859
   716   4       12.13021868826025      8.0828346422150776      19.914366322309789
   717   1      14.115620891667188      10.097484477809044      22.246090636683505
   718   3      14.146931918529765      10.411563707205042       20.22783335154363
   719   3      12.076527762509818      10.264148420936055      22.270245433848306
   720   3      14.289051248928262      8.0514958039808455      22.055510985388491
   721   4       16.14182372845665    0.015581917219554989      11.788728571370561
   722   2      18.098044529012739      2.0011484926231331      14.223114894034314
   723   3      18.369564478521966       2.101267490872734      12.221129239766483
   724   3      16.177678495304423      2.1438369592786817       14.17290125245138
   725   3      18.291746364062202    0.072809941207578902      14.123435499765865
   726   4      16.215119144170934    -0.39324414523093115      16.186720683811426
   727   1      18.224735520718006      2.0550305036064302      18.188937835666245
   728   3      18.357277697017608      2.0671709764540553      16.156660692896779
   729   3      16.176877203635531      1.9895548755324641      18.470544980060151
   730   3       18.32206033633361    0.032212393818630933      18.376351955543566
   731   4      16.306151010815309   -0.029607734941303154       19.84409733409829
   732   2      18.191765888707202      1.9716025546809746      22.211864956957374
   733   3      18.376455709776142      2.2052469889750141      20.321267121996254
   734   3      16.280638602645041      2.1949885885618245      22.253575128852336
   735   3      18.288603766071624    0.082223376341660617      22.284013248382259
   736   4      16.072593644064334      3.9260820531159122      11.804320361164162
   737   1      18.170386891135564       6.068636616068936       14.14727678082679
   738   3       18.35061455647039      6.1039624546561662      12.111359464681847
   739   3      16.136008056571871       5.984543166481366      14.378686876371626
   740   3      18.411532754713953      4.0227845219440539      14.212002086237721
   741   4      15.992039933330618      4.2662817802973008      16.073236259140888
   742   2      18.067728693145426      6.0975070535807445      18.276902550164785
   743   3      18.377782311133824      6.1122619920747177      16.267623268527046
   744   3      16.197415942713999      6.1843649783487251      18.179167348641759
   745   3      18.326745307904947      4.1295293626897447      18.228283686975733
   746   4      16.020354257108625       3.768837400668501      20.116771630358265
   747   1      18.188568146653161      6.0909690175458611      22.248713339771875
   748   3      18.360968159588747      6.0921181757919474      20.221889590626965
   749   3      16.154954131507623      6.0265770289836516      22.499304559580963
   750   3      18.332083194858626      4.0500131027789799      22.483281363725187
   751   4      15.989987832817965      8.1979409705275916      11.894735383217212
   752   2      18.045454419514073      10.120354731119681      14.179442571031725
   753   3      18.408774915455108      10.136098333365695      12.219114304982382
   754   3      16.177702128223491      10.229173160371992      14.118968043160915
   755   3      18.298700668789451      8.1533642481540785      14.189906799163257
   756   4      15.931202791602029      7.9147444010607346      16.043351954684784
   757   1      18.155938417582881      10.091021196539202      18.197879639984809
   758   3       18.34713325827153       10.10737162122091      16.154389325953957
   759   3      16.129284273408217      10.032615418964639      18.433476164034861
   760   3      18.407529618328319      8.0655334098920939      18.271318996642243
   761   4      15.906965352869895      8.2456811694399015       20.06027458810561
   762   2      18.043845867156968      10.122628635562446      22.311717963290004
   763   3      18.411657969588646      10.148321283057072      20.325130044720726
   764   3      16.181165617069915      10.226419513296422      22.231154563457292
   765   3      18.335113251412405      8.1598117653139948      22.308505072463301
   766   4      19.848334402463973   -0.026380823142139694      12.098544806759728
   767   2      22.216923613407722      1.9956360912464854      14.101176858908774
   768   3       22.34911310868657      2.2296916581246982      12.199328302484364
   769   3      20.332490417784765      2.0183823918131365      14.218180014064561
   770   3      22.473113476578625    0.090419281727451492      14.142884649159029
   771   4      19.922816241903934    -0.19400828229220987      16.271566286095915
   772   2      22.223223492308612      2.0373698149167301      18.125309457534666
   773   3      22.397699188495018      2.0227245463291035      16.230885067064687
   774   3      20.344538849251332      2.1953058102009169      18.301073231247674
   775   3      22.283948304693446     0.13977248006455989      18.437680029641463
   776   4      20.067717376791858    -0.17586965638811508      19.973455258006549
   777   2      22.245498350278226      2.0028690298379752      22.203133302856209
   778   3      22.260093273461688      2.2688390960956664      20.331380104645582
   779   3      20.319071656574746      2.1476589964219617      22.465575183832307
   780   3      22.374935229732127     0.11211824076421661      22.249938158007883
   781   4      19.816795884134613      4.0027028894427827      12.125429729699976
   782   2      22.219806950496821      5.9935056533683291      14.090093131729656
   783   3      22.443374240147616        6.09752827834975      12.181939377450698
   784   3      20.343285404012761      6.2216941954939706      14.206304663501719
   785   3      22.272878245036651      4.0940924250867026      14.335759445310339
   786   4      19.830221674408044      4.0832239147864415      16.137475301658785
   787   2       22.24239672306442      6.0827635891383167      18.125250398470566
   788   3      22.308548009684511      6.2573567446514735      16.232402834940345
   789   3      20.341605424194867      6.0458530113360824      18.304130401093076
   790   3      22.447988842867822      4.1313829056291516      18.263406497607292
   791   4      19.945742931275774      4.0416078688243973      20.078594459222959
   792   2      22.231202016930581      6.0982629487822422      22.175997040599558
   793   3      22.353131582258957      6.0709851031142259      20.307774347242095
   794   3       20.34416506184246      6.1524967488373434      22.414165373094292
   795   3      22.296684771590499      4.1676015735357481      22.524725692906063
   796   4        19.8490489203637      8.0465171449643016      12.126888810737761
   797   2      22.236383885248834      10.016077101738871      14.094540325442086
   798   3      22.335826346856322      10.297256413904849      12.205710694102429
   799   3      20.359228157538759       10.09868958040088      14.272269226645182
   800   3      22.469852176470983      8.1306914028996804      14.168006560412378
   801   4      19.831791140262968      8.0295198439349349      16.127537070861216
   802   2      22.202253186350614      10.123814331357487      18.111644648555469
   803   3      22.468772655502399      10.101321138747045      16.198971240556507
   804   3      20.319807059449154      10.169982708550506      18.230839929725345
   805   3      22.306940976743839      8.1215744672255532      18.420109379364803
   806   4       19.85936719012598      8.1436851589446455      20.177596684094251
   807   2      22.233023791884627      10.137825753352327      22.213280124970133
   808   3      22.322052832550334      10.229774911561607      20.311156055739151
   809   3      20.354985772299958      10.086704318589408      22.380543639702989
   810   3      22.440919505211486      8.1513053136807763      22.352891595981355
   811   4      12.079404699201186      12.114235962769458     -0.4004092294312992
   812   1      14.124160304153948      14.150695034085768      2.0299336743501257
   813   3       14.17025257042523      14.449887263519559    0.015962011459325375
   814   3      12.085020671246282      14.263883342354037      2.1052232535569542
   815   3      14.319654989429935      12.107309018372897      1.8497674652767389
   816   4      12.152046405959837      11.790949915873448      3.9901840326554536
   817   2      14.179978715676031      14.182594095279892      5.9682483477282515
   818   3       14.20268171107508      13.909314055498113      4.0954495511927425
   819   3      12.081265402152935      14.311706619228715      6.1825762527024146
   820   3      14.060575018039925      12.231770872978807      6.4831727629970306
   821   4      12.141313082876401      11.936215686093986      7.9168986032734212
   822   1      14.122645980735708      14.145464651221333       10.09668081266986
   823   3      14.088690583498208      14.554363762008077      8.0926932676459913
   824   3      12.083169976024626      14.307436579040655      10.138533747471698
   825   3       14.30680904309537      12.107026681988319      9.8803577500210071
   826   4      12.309174355791392      15.898475174302122    -0.18981331743460639
   827   2      14.198263672543385      18.227417318634842      1.8397087759123039
   828   3      14.205779104318138      17.946615902695335    -0.01393109011233622
   829   3      12.202175126964395      18.218010878814582      2.1849587069950864
   830   3      14.115455600782198      16.244638850036203       2.376313187275771
   831   4      12.144802513215676      16.269809244419967      3.6982677689426575
   832   1      14.158206964462662      18.195413350963832      6.0785995975217624
   833   3       14.19042238954148      18.511207995511096      4.0725381823327051
   834   3      12.122814478438038      18.232317397477896      6.1675567412735797
   835   3      14.318218062701144      16.153810173871552      5.8684674694254104
   836   4       12.23138745371083       15.98187676261214      8.1103855378229479
   837   2      14.191723120020304      18.267738888494193      10.008823168530197
   838   3      14.214999463448223      17.884942698937092      8.1326483807096626
   839   3      12.185878901689836       18.21730124848288      10.292737924388589
   840   3      14.128006416889248      16.243200323418787      10.481482708847343
   841   4      12.281401445949314      20.337018917299286     -0.3619032981613246
   842   1      14.221408250815717      22.238348406210989      1.9760596380252089
   843   3      14.207803032391586      22.583006741779741   -0.016158945834676312
   844   3        12.1607427925717       22.28052830023681      2.0717149429216222
   845   3      14.229661849906998      20.183612635321634      1.9283443454058926
   846   4      12.344596206475304      20.003683753903825      3.8018635600764754
   847   2      14.160555920993849      22.286962992834074      5.9447183271945683
   848   3      14.266527509547945      21.993910318356097      4.0655161806188387
   849   3      12.204758254495774      22.239466130878327      6.2341141102583615
   850   3      14.146307047606536      20.274693698975664      6.4507716008722182
   851   4      12.237526815482749      20.287494188375216       7.843198308935829
   852   1      14.167445682717871      22.243806815088092      10.109615979691018
   853   3      14.162582200099047      22.595596280557682       8.092778060412769
   854   3      12.118220201246789      22.370025223058601      10.104464990531278
   855   3      14.207902621214023       20.20459460503087      9.8078585596808594
   856   4       15.87782195470424      12.271050521982437    -0.18117889114583627
   857   2      18.050404182896543      14.146648354951136       2.073125547916447
   858   3      18.403620476280363      14.173397531070455    0.082127154628606647
   859   3      16.188522995344112      14.298524281260409      2.0257840554731046
   860   3      18.285057997735265      12.191505431700509      2.0862565042421255
   861   4      15.918955631927425      11.928022862339077      3.8307244825483222
   862   1      18.182098349527188      14.146544536200111      6.0749912396868924
   863   3      18.354607737019045      14.184527605789002      4.0347244337806618
   864   3      16.123812880568487      14.083326420713325       6.320132070962897
   865   3       18.44596249857527      12.112145345474191      6.1312956777297805
   866   4       15.94223376604713      12.184775797685271       7.935118518908685
   867   2      18.064717203255547         14.161237377887      10.139412996417366
   868   3      18.439846734318383      14.178436999666589      8.1795873148492859
   869   3      16.192407415294795      14.282954542236205      10.060275319548095
   870   3      18.320381572819993      12.197398711565958      10.148271410464867
   871   4      15.965157448318015      15.942455755646089    -0.24627676725321321
   872   1      18.198817749601208      18.128574807930036      1.9965229778494646
   873   3      18.391312498293718      18.127552476516062   -0.031403931128417738
   874   3      16.155309451354334      18.123586781563713      2.2330744196407983
   875   3       18.48272144481739      16.112118760920144      2.0636199779478686
   876   4      15.905036010081991      16.295308389630417      3.8901630409133903
   877   2      18.088736421102855        18.1947555906033      6.1237849598252563
   878   3      18.411178739132971      18.213658908299529      4.1370326278093366
   879   3      16.214663141976235      18.340122106036517      6.0886835175496099
   880   3      18.302465002449207      16.233402404131589      6.1325904306418932
   881   4      15.933865423398448      16.016923632861353      7.9396268641280576
   882   1      18.222850098916314      18.170770043825431      10.115197708662908
   883   3      18.394560371844598      18.226978368095224      8.0824849224158388
   884   3      16.163516057391323      18.169713565397647      10.335929820664463
   885   3      18.426117391584196      16.134489000483786       10.19422953089801
   886   4      16.248070652359289      20.209894244984877    -0.40550286171507677
   887   2      18.225160277735572      22.099535233773292      2.0546884693589464
   888   3      18.268250396808543      22.468363629599491    0.092554888328581233
   889   3      16.282440820268931      22.495578595825059      2.0367579580360169
   890   3      18.230970649334882       20.21847356446743      2.0559357408222372
   891   4      15.994737880052583      19.995254665501772      3.8584162754124236
   892   1      18.216458504883441      22.216891860426419       6.046164179766623
   893   3      18.305479710153719      22.340807539398646      4.0216508757645739
   894   3      16.166884877635631      22.174061872521783      6.3132795541111228
   895   3      18.452349383709016      20.180601831458166      6.1434553990985821
   896   4      16.004371134612406      20.331705777378723      7.8864879797283347
   897   2      18.110065805485906      22.240549639755411      10.138285727686752
   898   3      18.410259371709859      22.328863178535077      8.1661474271145149
   899   3      16.220062066416308      22.397657957540421      10.083176833696479
   900   3      18.346172436350447      20.296283592693825      10.111608982179469
   901   4      19.858793350601875      12.146806631769996   -0.064801151358269235
   902   2      22.241960924624959      14.122526200806234      1.9683325100720397
   903   3      22.295333674483118      14.275983224443149    0.069866371762702648
   904   3      20.357252719417104      14.080440953781554      2.1349499225990254
   905   3      22.532361828096878      12.189905370834117      2.0966389742816975
   906   4      19.857972442312455       12.09564855682409      4.0137990098620433
   907   2      22.268716872770032      14.094241693042669      6.0082890150791428
   908   3      22.462117010856684      14.139171049533434      4.1156230727264029
   909   3      20.380764414971907      14.343053477714459      6.1305267184952035
   910   3       22.28697467622014       12.18881661665257      6.2902951578889725
   911   4      19.880923499263236      12.097549079619393      8.0601562318041626
   912   2      22.267648815290659      14.077837505355729      10.093146942328669
   913   3      22.285415422074124      14.334553673465061      8.2116990491481534
   914   3      20.377900829102455      14.180433046940536      10.305811140593608
   915   3      22.470236411435415      12.196294725315497      10.196794999103869
   916   4       19.88278316038889      16.061247717922942   -0.017643368180241717
   917   2       22.24045654367092      18.156151892124306      1.9132433915952645
   918   3      22.389268330871339       18.17517948823933    0.026637511715519376
   919   3      20.337017361904717      18.336991810945644      2.1281430213825296
   920   3      22.259556720957665      16.184157802597728      2.2266048267126677
   921   4      19.884376091348514      16.109099291302599      4.0227220702092907
   922   2      22.269797229906104      18.116933147490165      6.0397948758188491
   923   3      22.311729822840292      18.381190520285948      4.1493437777394835
   924   3      20.368087711215185      18.178662065017772      6.1534858481074384
   925   3      22.494837858897991      16.229490637060891      6.1310180662637244
   926   4      19.907548391002567      16.056901288210291      8.0109151907674274
   927   2      22.236580641085865      18.144474929482829      10.065709859059242
   928   3       22.40270890929051      18.241160047743271      8.1762465389158798
   929   3       20.37231013790932      18.359876933445012      10.222061237461428
   930   3       22.32645945141488      16.261172488000383      10.353495126415519
   931   4      20.011666894341428      19.956534840103455    -0.21562429822840815
   932   1      22.246414369920341       22.20244808191681       2.004272082471799
   933   3      22.292662434712948      22.536842945051603   -0.022244271491745949
   934   3      20.213534719153621      22.407217133014822      2.0561387616956055
   935   3      22.526856651692437      20.165137805273961      2.0077719274539785
   936   4       20.00469871301231      19.957230374725619      3.9760558502861278
   937   2      22.249145334328833      22.151002802877628      5.9978452906731752
   938   3      22.389272300303311      22.298958073709152      4.1134545611707685
   939   3      20.348926097339472      22.488916056939402        6.11464386386593
   940   3      22.254157810197192      20.265301836490028       6.259448456069312
   941   4      19.889954603135958      20.145336973587572      8.0653506197886067
   942   2      22.240387046067266      22.200578077445307      10.090465120678433
   943   3      22.288770162220672      22.459615386435395      8.1868736301937624
   944   3        20.3434589149015      22.322563418944064      10.220856673173632
   945   3      22.434586285323327       20.31275598747645      10.190777915421533
   946   4      12.106273825101338      11.771500479468054      12.134598695865508
   947   2      14.104818070020482      14.183084549038885      14.015290959178001
   948   3      14.273644666120628      13.909280482389025      12.136310533348841
   949   3        12.1671143696152      14.205842899148955      14.259258517995878
   950   3      14.116480851904807      12.189939264417394      14.489439582287934
   951   4      12.051239986859455      12.098411773201985      15.809301326935676
   952   1      14.119853328650569      14.126416157699126      18.164933927045819
   953   3      14.139287140908039      14.476274422016129      16.156931272348704
   954   3      12.083411118497295      14.328975718951831      18.190833874965875
   955   3      14.296143000781429      12.084423439292355      17.992118655189891
   956   4      12.126527182112733      11.769503699237376      20.196666979466968
   957   2       14.14583838905406      14.173006587377388       22.07283542312997
   958   3      14.209568980938075      13.903523634866557      20.214169191192674
   959   3      12.181362739578276      14.185164962972378      22.425894099590341
   960   3      14.114625479408279      12.193377488010432      22.591926909781751
   961   4      12.127166748325678      16.238780230524593      11.807544593029759
   962   1      14.175642436680553      18.178353966916085      14.135031374422816
   963   3      14.174410017689208      18.576410874157201      12.133057438986091
   964   3      12.130655308062883      18.335311881684959      14.179857176193348
   965   3      14.343530293136924      16.143792372547562      13.911190257760492
   966   4      12.141323350409273      15.826391903685213      16.181790543274364
   967   2      14.176749778014733      18.247117601033008      18.021995095208908
   968   3      14.275165362398507      17.968406243462592      16.160954391955475
   969   3      12.203454432997988      18.217835658103819      18.353217819174784
   970   3      14.164788438744093      16.234567504311766       18.50015648925681
   971   4      12.142479951310591       16.18594332237387      19.810386831598382
   972   1      14.201750864181943      18.178249079620542      22.222645778721521
   973   3      14.196488703354083       18.53100963951594      20.230590657771081
   974   3      12.146707120595194      18.285096088544293       22.31361439468456
   975   3      14.249467600156867      16.126071849256356      22.149991952005283
   976   4      12.214540074247495      19.934391811183804       12.04137718856207
   977   2       14.21479937005852      22.207894729244469      14.051572598061778
   978   3      14.190541888792939      22.086191851862782      12.173993006196685
   979   3      12.224597708899253      22.289867636308916      14.378559200203666
   980   3       14.16557182295324      20.298540535905083      14.487598306258104
   981   4      12.186812077279955       20.28481923938276      15.882221326538296
   982   1      14.247270906514908      22.230992767232021      18.183010368978259
   983   3      14.199809275801016      22.639449659983349      16.177471759473899
   984   3      12.174808998331184       22.34330745811587      18.223726611912213
   985   3      14.201953540912211      20.191050733688655      18.010221722864852
   986   4      12.400917528210632      19.979364301008911      20.073589411212534
   987   2      14.252249723779391      22.276151709432821      22.107961335962266
   988   3      14.166872741577654      22.024811725165701       20.23621838860462
   989   3      12.223732395253517      22.218922934517696      22.458830124405932
   990   3      14.198324295866657      20.285505778491821      22.573410757936756
   991   4      15.906742558975463      11.965501746645941      11.957939679416491
   992   1      18.178548541308313      14.129346489459465      14.149012689851801
   993   3      18.338056201472448       14.14049895377093      12.109908864101781
   994   3      16.136403054317469      14.072074219483452      14.393380002746287
   995   3      18.423746730614113      12.087775390872023       14.23507502155865
   996   4      15.929924570550011      12.255145189946765      15.962296327397247
   997   2      18.105119311780427      14.110665271683864      18.199424723477748
   998   3      18.385013329445254      14.198361865206811      16.230279938156659
   999   3      16.193249383133491      14.244569774629907      18.160673147813355
  1000   3      18.306163085423162      12.150915200711601      18.198399769059762
  1001   4      15.921589437519184      11.931013634448281      20.009844833279182
  1002   1      18.175461031503165      14.106323217573639      22.235446161981749
  1003   3      18.357564057335029      14.061671600890604      20.204833077135294
  1004   3      16.131820003232892      14.077225799320608      22.476172232608786
  1005   3      18.430526637174427      12.082168190825101      22.321319787948902
  1006   4      15.943816684388786      16.191421481167868      11.965072372834859
  1007   2       18.14664718231926      18.099030306300932      14.210986800050401
  1008   3      18.341493141879628      18.380478253562824      12.215966096564742
  1009   3      16.239046356177674      18.411493382405492      14.101183772709598
  1010   3      18.222048251727678       16.21069210040794      14.070283587830186
  1011   4      15.972230354587492      15.926083794387646      15.989506446936888
  1012   1      18.190876615016712      18.152938530995264      18.170477723567789
  1013   3      18.279965814970144      18.226090859975052      16.143055781035745
  1014   3      16.156036411643193      18.153544540621294      18.419391873809303
  1015   3      18.234154070009772      16.138374237794537      18.416240061044583
  1016   4       16.07911974224325       16.20735309410383      19.870295246706142
  1017   2      18.185596558807926      18.076957775511769      22.250543309825261
  1018   3      18.285247637045295      18.381718694929059      20.291801367874719
  1019   3      16.249694328076966      18.341168657186945      22.272732281485734
  1020   3      18.273812792077717      16.165776889071587      22.263930238884779
  1021   4      16.150651467136562      19.899086499192688       12.05600038178242
  1022   1      18.208259148233719      22.276664071172945      14.139091214702674
  1023   3      18.357267508145615      22.257992476926809      12.108695865344332
  1024   3      16.164218512412774      22.251058832630953      14.348858045019654
  1025   3      18.353820068190299      20.240163800725117      14.317687779002599
  1026   4      16.211201950044977      20.199744025518868      15.884733511493272
  1027   2      18.242602805707126      22.114643889523975      18.298705841531959
  1028   3      18.268886215001299      22.446965694992453      16.246200951185291
  1029   3      16.277115491964945      22.473608758504518       18.18356093099462
  1030   3      18.219781545445514       20.23501990158157      18.092706267112188
  1031   4      16.143727696111203      19.881570271528219      20.108084988466519
  1032   1      18.239197987111115      22.271093196058214      22.246667422990875
  1033   3      18.297899780345052      22.250120546659883      20.226584871110141
  1034   3      16.187007687592871      22.260644022131224       22.44994908099925
  1035   3      18.254799727778718      20.226962907135775      22.503448379439384
  1036   4      19.856296853351907      12.069093081275549      12.081546075345146
  1037   2      22.216050906524337      14.051109194580842      14.187429998586845
  1038   3      22.494314970217754      14.232403559738717      12.227215085702372
  1039   3      20.339358969723957      14.329801396056514      14.159404910834674
  1040   3      22.305057968112742      12.170353381787899      14.324941236819647
  1041   4      19.855686396920426      12.025057084231252      16.185546443420233
  1042   1      22.253577347701839      14.090504685077986      18.186691929897531
  1043   3      22.277813050609623      14.431677858237123      16.153404002610081
  1044   3      20.243799830191954       14.32799106117155       18.23317077671517
  1045   3      22.488628233067615      12.066930754610549      18.230666539520474
  1046   4      19.853439790568199      12.094394371009711      20.192567171810961
  1047   2      22.221209677895871       14.19297124907264      22.156929289432284
  1048   3      22.450145666640807      14.117823211101159      20.265490816492804
  1049   3      20.329554483084404      14.184752344176996      22.291075559794404
  1050   3       22.35141586979039      12.132742133476631      22.460171807603516
  1051   4      19.926115238702167      16.020226250294979      12.081620242674164
  1052   2      22.243233086330424      18.149916946403046      14.150753552378415
  1053   3       22.33573243079411      18.454417042804092      12.245194067111026
  1054   3      20.325533303982539      18.289311381906202      14.260018195377523
  1055   3      22.419458122492486      16.281592838186782      14.131125242509899
  1056   4       20.16716927161109      15.803166159140725      16.289610439130779
  1057   2      22.133549171698373      18.233563560005138      18.239421890304509
  1058   3       22.45607849713662      18.266360734884785      16.221586554462192
  1059   3       20.26298582563664      18.286082732194753      18.218206988555689
  1060   3      22.400636371244413      16.306863895219241      18.351218087521822
  1061   4      19.991852343127661      15.896780413842723       20.03355039534236
  1062   1      22.259044046898591      18.137633169216848      22.229229400330315
  1063   3      22.258172676658166      18.475906891729363      20.206966468674128
  1064   3      20.229502856641624      18.393505319453002      22.248960688839613
  1065   3      22.480404297755339       16.11509842408946      22.241803664502829
  1066   4       19.88636760722985      20.139877429133456      12.112086487471933
  1067   2        22.1649004545345       22.24606243893658      14.202786610641613
  1068   3      22.432285159156841      22.347521126277297      12.221565626371286
  1069   3      20.305380921923057      22.430647443686709      14.225465432414916
  1070   3      22.308044663624003       20.33457621901902      14.355099667215086
  1071   4      19.888730131022452      20.138581717224014      16.095114545174241
  1072   1      22.238126989048947      22.281451496747266      18.203415130759613
  1073   3      22.376922487520442      22.507320157005413      16.159453088010657
  1074   3      20.222401020715921      22.423459825472278      18.219385362025779
  1075   3      22.518942570924718      20.245697262962615      18.150823242833646
  1076   4      20.111609359459571      19.911262216271311      20.371167047563695
  1077   2      22.199506228630035      22.183849864120607      22.280331968043402
  1078   3       22.44303603588093      22.294301086456148      20.343229135396601
  1079   3      20.307594228672944      22.360432146584721      22.349375895632868
  1080   3      22.342649824625862      20.301887758690288      22.439997276786894
