(written by ASE)

1080 atoms
4 atom types

0.0      24.299999999999997  xlo xhi
0.0      24.299999999999997  ylo yhi
0.0      24.299999999999997  zlo zhi

Atoms # atomic

     1   4   -0.016890092360958144    -0.17292793180597019     -0.1545578886346706
     2   2      2.0368566753817623      1.9565593290949508      1.9792548026772938
     3   3      1.8781587684239895      2.0806701557162062    0.099540815209842703
     4   3    0.025268941239588741      2.1039080890966342       2.283129876770106
     5   3      2.0106214355514611    0.071918861350689464      2.2245867913339787
     6   4    0.021871711526675934    -0.23595353934489025      3.9545504901461785
     7   2      2.1064992389723733      1.9405974318620267      6.0216398225405481
     8   3      2.0160541695604173      2.2605245507842828      4.1353513541146834
     9   3    0.025905182264541339      2.2971245452900537      6.1085528316963682
    10   3      1.8801500078737501    0.082980005409613422      6.0317775038366115
    11   4    0.093836928034596048    -0.35485258323907881      8.1085856110964212
    12   2      2.0608758096786945      1.9284836214205703      10.030123667872406
    13   3      1.8485721291567463      2.0765284597546083      8.1233728746329366
    14   3    0.044098104961553267      2.1277197463107487      10.322890635829177
    15   3      2.0398404959005716    0.069746028134698185      10.248339578647151
    16   4   -0.037469411045307627      3.9451232537525116    -0.20772940278152749
    17   2      2.0315672768332647      6.0211798874881524      1.9814647707615125
    18   3      2.0723348193958611      6.2527340371902138     0.10677168519459794
    19   3    0.029736533669547278      6.3230931489777342      2.1273115770083009
    20   3      1.8952298980346061      4.1292537831274938      2.1205879398399192
    21   4   -0.021645765018896576      3.8376626624671397       3.964674482027899
    22   2      2.0628554409816866      6.0028722285772949      6.0691876644495402
    23   3      1.8713654646076037      6.1560556604585335      4.1595393372976135
    24   3    0.037092286668286324       6.148757081672759      6.3200783354540571
    25   3      2.0445353601805483      4.1247378554671652      6.2678987992049437
    26   4  0.00063028696068729748      3.8859581241587917      7.9254653508876327
    27   2      2.0725298986438188      5.9859483876006978      10.184695221706438
    28   3      2.0377428068462677      6.3408392986414981      8.1521416056448999
    29   3    0.023825324902966582      6.3232252553462978      10.105295313656121
    30   3      1.9468632686547829       4.106262746132888      10.087712702233787
    31   4   -0.039895213059856001      8.0007810948868752    -0.21993752982445181
    32   2      2.0611965283583631      10.076224343291782      1.9785698962121543
    33   3      1.9390770104351269      10.149077666605216     0.10279241601893196
    34   3    0.049090290105502386      10.162814356445033      2.3006438475727311
    35   3      2.0578077985407175      8.1776005076492915      2.2675235920547512
    36   4   -0.015777773185241182      7.9564474016918716        3.90835501717208
    37   2      2.0724008585727973      10.066436406873507      6.0565881086312316
    38   3      2.0389706605239271      10.336413743388881      4.1676791943652329
    39   3    0.035174880832848199      10.370494867986421        6.14457465349121
    40   3      1.9020643478805912      8.1927656108040665      6.1308246476419104
    41   4    0.054064654372671835      7.8579001663448258      8.0650782967740859
    42   2      2.0685348137106936      10.092404779109081      10.144155292449547
    43   3      1.8802679426758655      10.256299492689919      8.1707631871730566
    44   3    0.023493069953715091      10.271436386869969      10.265989283061385
    45   3      2.0269994961298718      8.2132284353839839      10.217547167988993
    46   4      4.2794138223194729    -0.22416898661926865    0.017502805110113422
    47   2      6.1797617822420472      2.0336428678273362      2.0093978413812703
    48   3      6.0169356168719874      2.1441596717313653     0.06984541899719833
    49   3      3.9498644899468305      2.1874212661001433         2.1155713080098
    50   3      5.8561965808474916     0.10001735438343977      2.0456792026534441
    51   4       4.275588688286291    -0.24963741519049423      3.8779881211260374
    52   2      6.1148988680135536      1.9160589360267428      6.0893611802798988
    53   3      5.8714322987750913      2.0736942156284641      4.1122660398550988
    54   3      4.0054486321794975      2.0587414347491322      6.2067691873322568
    55   3      6.0739003084645207    0.034191260816336465      6.1375182454550199
    56   4      4.1414632866166565    -0.42600987271071344      8.3121373277187853
    57   2      6.1999058429653848      2.0030980100842664      10.186499371628218
    58   3      6.0591586888609017      2.1936431982208004      8.0753140867156628
    59   3      3.9746399761738003      2.1282663743805137       10.02980290547568
    60   3      5.9468534444183598    0.081683928247551899      10.072671670215771
    61   4      4.3936395007389741      4.1510202383535866  -0.0085585898107246386
    62   1      6.1300528921510624      6.0835395434347763      2.0387581310463991
    63   3      5.8289179422833399      6.0735780480648769   0.0093228366183600413
    64   3      3.9442453677257938      6.1148220518535865      2.2735278563992174
    65   3      5.9401178663827228      4.0300005776161809       2.141498512762809
    66   4      4.3074576935951807       4.033655981469745       3.861934365355185
    67   2      6.1865002149703088      6.0102501695601926      6.0835098448445883
    68   3      6.0144596392443459       6.242569195275526      4.1473966646397615
    69   3      3.9791895677234987      6.2937953006386946      6.0850610396806948
    70   3      5.8968392703659216      4.1029900914376221      6.0550176681427041
    71   4      4.3931329481688195      4.0289178399609016      8.2504961649309596
    72   1      6.1424039937449884      6.0636067596208694      10.115907053102177
    73   3      5.8473772564690121      6.1056381516606031      8.0568783226773029
    74   3      3.9810363642993791      6.1901364280515843      10.141390187003379
    75   3       5.899003162198067      4.0315417152453126      10.112996030992964
    76   4      4.4001211270751668      7.9910605170478055   -0.068976609140172535
    77   2      6.1897339843740307      10.156952778356841      1.9665636319000792
    78   3      6.0286500965878798      10.224678360992696    0.069440756234635082
    79   3       3.974507809035372      10.301885794444999       2.136581517666599
    80   3      5.8291772776178172       8.207591602702859      2.0592195057744997
    81   4      4.2803898016685968      7.9239830274069289      3.8729468257010931
    82   2      6.1325373565398795      10.082903307470582      6.0731607739980733
    83   3      5.8830548139861492      10.158296327107465      4.1460273134601593
    84   3      3.9978673336099475      10.204461117622218      6.2906785471818809
    85   3      6.0401491582521771      8.1803694350607703      6.2096586927069239
    86   4      4.2185567520611498      7.8213206120666383      8.2010514444509592
    87   2      6.1622406392407063      10.053811900784417      10.171700005706828
    88   3      6.0373557698666955       10.33404140407889      8.1267593870047499
    89   3      3.9930853325310927       10.34978135285931      10.047999965450519
    90   3      5.9475650381290537      8.1784576767738404      10.069023625499643
    91   4      8.3764450707179545    -0.19371525400688644    0.079789438082721736
    92   1      10.137769814570305      2.0028244885885109      1.9977426418818722
    93   3      9.8946016977302556      1.8541924511646428   -0.040584764494310858
    94   3      8.0388000622011919      2.0043334221959777      2.2049545591372524
    95   3      10.127413903642937 -0.00048508113405587366      2.3160369686722686
    96   4       8.360271943682152    -0.22366558185036223      3.8362093064454719
    97   2      10.235766115875856      1.9110209082596668      6.0844837098492963
    98   3       10.11844649462458      2.3538894671113599      4.1215005081744307
    99   3      8.0096219017445947       2.205163712206037      5.9831688499487008
   100   3      9.9892100204413392    0.035484228904284869      5.8491198337361512
   101   4      8.3886716259046086    -0.21142879723326999      8.2205582187578035
   102   1      10.159881694115041      1.9968879836267279      10.082169317876968
   103   3      9.8749129084224769      1.8618147003466463      8.0305607863804891
   104   3      8.0752749129796868       2.048095238975896      10.218009915425368
   105   3      10.108519946009373   -0.005844822228116003      10.377086580187655
   106   4      8.3968509603863737      3.9798894831757128    -0.11994460241323589
   107   2      10.170359532523921      5.9749477878176647      2.0521339129013971
   108   3      10.136927317689171      6.3490254449706303    0.053869767658350165
   109   3      8.1386236416493656      6.3290185504399803      1.9581547796538248
   110   3      9.9905904712209299      4.0683912376338602      1.8464153371424803
   111   4      8.4079801297802756      3.9358677997678799       4.041160173099267
   112   1      10.134512615528944      6.0608917573354155       6.051592240411809
   113   3      9.9509883926792995      5.8909657393535797      4.0232814472457443
   114   3      8.0484329025607995      6.0813466436300017      6.2127281780649879
   115   3      10.082927606241622      4.0181428774885735       6.361255327249542
   116   4       8.418221524013644      3.8881454910702793      8.0236624137714649
   117   2      10.148637898922715      5.9294986049870442      10.155414952348846
   118   3      10.148489232002118      6.3680081078631501      8.1393806779533655
   119   3      8.1530873893653819      6.2687578903803391      10.045804350160283
   120   3      10.078292868940183       4.046741590795417      9.8592724222555361
   121   4      8.3270061390981205      7.8618192915248652    0.046174123780678804
   122   1       10.13627257020606      10.092284318902864      1.9925360388016551
   123   3      9.9509847169566612      9.9399182532836168    -0.03868649814001441
   124   3      8.0507495477355562      10.061804636681366      2.2151161955411811
   125   3       10.15686520859127       8.091174697082657      2.3453213387961367
   126   4      8.3410299691777468      7.9125841208133334      3.8486992081841853
   127   2      10.236377716692694      10.023467152040826      6.0978338683308166
   128   3      10.120228389199266      10.458696105088743      4.1347092238341716
   129   3      8.0246580648675465      10.309902259976932      6.0169273743476586
   130   3      10.000527730262856      8.1462984526836983      5.8680999705203654
   131   4      8.3820554136631067        7.89833475705806      8.2018690546434598
   132   1      10.130820188892278      10.122489008859871      10.095623026556662
   133   3      9.8895610050445644      9.9789761790986677      8.0487385345395257
   134   3      8.0397482896330423      10.161122350168982      10.236569549580203
   135   3      10.107441612562255      8.1018067075284623      10.400514631054287
   136   4  -0.0078487293419368803    -0.28963389999442096      11.959451552993009
   137   2      2.1008002879068779      1.9995315691772586      14.051954118228846
   138   3      2.0652515287249984      2.2251619492609866      12.153979972719679
   139   3     0.03815598293257489      2.3018814829286516      14.160910912606711
   140   3      1.9308705962058699    0.078256040054074619      14.223847128486071
   141   4    -0.10306117458363774    -0.26619537934487175      16.148132725123329
   142   2      2.0634961679902335      1.9978922188246149      18.135572778602249
   143   3      1.9056480127759363      2.0321840820067507      16.261416638171731
   144   3    0.047567091181387661       2.055174486488657      18.467474315693881
   145   3      2.1081725377012521    0.099200387910074364      18.449163419477408
   146   4    -0.11223432998454484    -0.16811418632087838      19.972211270042443
   147   2      2.0776576912714586      1.9853894511038281       22.22237264367029
   148   3      2.0338182045515016      2.2203472962627093       20.34993991692561
   149   3    0.022739205397301752      2.2360034856847113      22.386221190944131
   150   3      1.8782432813847993    0.092272197224332095      22.369665505818219
   151   4    0.018338436789197284      3.8306370477857934      12.057042604890578
   152   1        2.04790792581132      6.0608371879088194      14.132690992527102
   153   3       1.907682170132772      6.1774014138656019      12.099084035261411
   154   3   -0.017541848216008536      6.1141009880227415       14.34675755358451
   155   3      2.1087064374836939      4.0236384484265999      14.409952129165299
   156   4     0.17378645522534852      4.0569467205527934       15.84862228014126
   157   2      2.0996392854344097      6.1111869891306636      18.121396061034044
   158   3      2.0285646794328365      6.2250629504113126      16.246447247160273
   159   3     0.02155158865762177      6.2734518491234539      18.304142682782611
   160   3      1.8728159469128103      4.1093480647975849      18.295997954630831
   161   4    0.052645549607289552      3.9592801111261293      20.003839544145553
   162   2      2.0610541409352003      6.0212294420049881      22.213761080497264
   163   3      1.9033886523075731      6.0173795487095063      20.341916210049966
   164   3    0.035566233011892157      6.1219184696062632         22.554350987966
   165   3      1.9937561754931932      4.1148608828255835      22.528114160428053
   166   4     0.11408649643264104      7.8464589699018026      12.136872892357767
   167   2      2.0976296835689849      10.054847332268093      14.271266319624377
   168   3      2.0148364453366701      10.383857793646438      12.145834754514127
   169   3    0.023284602651864262      10.393033614306889      14.140033682024706
   170   3      1.8482892737872221      8.1774031432024614      14.096637922438774
   171   4    0.087951635576609025      7.8887319346399272      15.941700614939139
   172   1       2.055376723216285       10.12882614814991      18.171827622838354
   173   3      1.9325008398281351      10.157316528631263       16.15021751339836
   174   3   -0.029887973721491334      10.087109931415876      18.457204858008815
   175   3      2.0913910557840243      8.0593846580252233      18.496314091396876
   176   4     0.13015204663347116      8.1438610801828819      19.916609322655702
   177   2      2.1196573541738206      10.068891893651548      22.216589778003051
   178   3      1.9941299225502733      10.246531986831966      20.350721869474889
   179   3    0.025307331142844093      10.252628789896846      22.419800943681576
   180   3      1.9087347529756975      8.1372206716907467      22.356817659556651
   181   4      4.1892256058539372    -0.29473589210359968      11.864608877165447
   182   1      6.1141938949525807      1.9801716911076928      14.133589779085732
   183   3      5.9165099177140119      2.1194741334660998      12.093870524497948
   184   3      3.9974899655583269      1.9995618200396026      14.358634523752954
   185   3      6.0589738702235945   -0.058316664109355258      14.344489061932707
   186   4      4.2504249796706501  -0.0097295712701692908      15.897811181883229
   187   2      6.1546697772395698      2.0691782217388148      18.110986438236807
   188   3      6.0792968614076051       2.069333187891687       16.24212720240806
   189   3       3.988585374142815       2.186515743453215      18.293701892160293
   190   3      5.8313614050154614    0.043296228891783417      18.292606248889093
   191   4      4.1732703958304667    -0.11959200606614304      20.076425377632653
   192   2      6.1048163154869881      2.0174953184700999      22.223052807429916
   193   3      5.8741212426830378       2.013542883976807      20.336325929627627
   194   3      3.9811523100663755      2.0489035980113166      22.482458306941794
   195   3      6.0033348755413858     0.08161490131538561      22.436801257692942
   196   4      4.4398615460298476      4.0547958607413523      12.098605477531835
   197   2      6.2252889648079126      6.0650191585394975      14.167565026833127
   198   3      5.9856130462426096       6.095980577585232      12.174568013339037
   199   3      4.0528873165196133      6.2258427993358731      14.192711049134942
   200   3      5.8633733746652101      4.0998602660396521      14.147031790017087
   201   4      4.1444361274157107      4.1119374207248578      15.804721135174461
   202   1      6.1236424374227854       6.042312878224875      18.189328531791297
   203   3      5.9555441334224035      6.1404797459098646      16.154146188601956
   204   3      3.9982397566574961      6.0103192126602867      18.399310084698289
   205   3      6.0578855883484248       3.989124752421823      18.394772393707292
   206   4      4.3186865803484986      4.1660343598325129      20.017394998049586
   207   2      6.1917979543019284      6.1468808980078924      22.230296121643683
   208   3      6.0501157608594918      6.0448984197572111      20.328157669378694
   209   3      3.9714552190273062      6.1470370276451449      22.326537925056012
   210   3      5.8697233576855439      4.0588775846486138      22.370969922629715
   211   4      4.2844702286043086      7.8278122704185114      12.321556554562569
   212   1      6.1349687519494989       10.09724628485983      14.133906079088625
   213   3      5.8944205714921649      10.233896978830755      12.080110450018777
   214   3      3.9968585822643936      10.155627335669744      14.123849137356567
   215   3      6.0038929820693019      8.0688885921490723      14.148117082267975
   216   4      4.3690941892962316      7.9236148032553899      15.990266531091104
   217   2      6.1512164919099677      10.086438260470318      18.131076052438321
   218   3      6.0141557823808558      10.187842050545781      16.187211474040161
   219   3      4.0728185710165654      10.172464825466635      18.359254455635806
   220   3      5.9158934121558948       8.127488526040338      18.246789458681004
   221   4      4.1930751323248234      8.2263827514144268      19.890580651880907
   222   1      6.0983131909942276      10.095369413728909      22.243247879132511
   223   3      6.0411005902254864      10.242817322908659      20.212286823048576
   224   3      3.9905443872136397      10.146840811603667      22.423251994261328
   225   3      6.0174281595556218      8.0552716959320332      22.414822113900861
   226   4      8.3863877033657808     -0.2217465736840748      11.943525676911845
   227   2      10.183011083212458      1.9075474343585688      14.166667384232678
   228   3      10.140932816866041      2.3134561888430629      12.188086078739506
   229   3      8.1366767301736065      2.2759356015303114      14.092751427149802
   230   3      9.9461108562938172   0.0072632459899584839      14.002276016864345
   231   4      8.3631465844806048   -0.090665528797970282      16.071964376572492
   232   1      10.129739411008519      1.9737443891086721      18.190095626071859
   233   3      9.9348742719720633      1.8360843534116698       16.15517433017591
   234   3      8.0242629553924587      1.9335702278506639      18.407434106172474
   235   3      10.137634443202797   -0.030498625385941606      18.556446167292922
   236   4      8.4212808994824542   -0.085409835664078337      20.127819064423335
   237   2      10.241468628280682      1.9423143965951257      22.319566034182568
   238   3       10.07694299515005      2.3139746547817719      20.338908520841862
   239   3      8.0047825125659262      2.1899375142648227      22.255313674677364
   240   3      9.9869119567869369    0.050299255588329789      22.064084310087772
   241   4      8.3255704765219871      3.8173527922542565      12.251499388730771
   242   1       10.17200095326311      6.0281940685032867      14.136956753764487
   243   3      9.9922025872630797      5.8817076620447954      12.101576279009731
   244   3      8.1145951326420196      5.9957101012410252      14.261563497035953
   245   3      10.164614005928605      4.0204108860297394      14.464875021060706
   246   4      8.3508012477437941       3.838775123672908      15.966869612883796
   247   2      10.169378961146462      5.9408856161860939      18.224016559870012
   248   3      10.140911263279033      6.3578201114355393      16.242054174233324
   249   3      8.1388171351543992      6.3119156284557185      18.152382740420347
   250   3      9.9567818061344333      4.0357679536919111      18.065019924387173
   251   4      8.3711606493620287      3.9351806273880574      20.123181180454896
   252   1      10.135976157773413      6.0278457803674508      22.223650139506212
   253   3      9.9480323620369457      5.8628608818582562      20.201059885276177
   254   3      8.0592031128068733      6.0017418508795526      22.469306779707686
   255   3      10.105633793676041      4.0108450358580727      22.598016759674962
   256   4      8.3647437824201294      7.8736850791222786      11.969490233797929
   257   2      10.129428872954804      9.9529995154830999      14.186742148667079
   258   3      10.142279866349744      10.432962428516538      12.185381941942532
   259   3      8.1428119782541337      10.345468625192488       14.07729484205683
   260   3      10.046256305403293      8.0794068607749985      13.912733555912137
   261   4      8.2938704361173095      7.8247234925233746      16.267343330935937
   262   1      10.136566724757866      10.071518777429764      18.175919983518888
   263   3      9.9646816100060054      9.9226516611306295      16.139026074067321
   264   3      8.0759353983875002      10.059749293810579      18.328783563657492
   265   3      10.148411435170852      8.0640173009416412      18.517115092200374
   266   4        8.30228482757032      7.9225439893502978      19.973319849423564
   267   2      10.124330984796311      9.9577689680415968      22.290008688033502
   268   3      10.114039504153366       10.39025206170216      20.291374823954385
   269   3      8.1290790956108374      10.351033891484676      22.215378068524338
   270   3      10.029333801189283       8.077929427354686      22.074316257580907
   271   4   -0.046575640125602384      12.065365569904879     -0.2541523543695417
   272   2      2.0670507685983344      14.114400586255751      1.9328652150117132
   273   3      2.0853774275937473      14.285520344400895    0.069112247033280144
   274   3      0.0255402997296083      14.372174794329402      2.1187480280296227
   275   3      1.8873055608265492       12.20664058508237       2.136141447589353
   276   4 -0.00095126250165967704      11.948955198069868      3.9382538654040959
   277   2      2.0623163400929996         14.120382571751      6.0289719959387851
   278   3      1.8612346055562066      14.224938697335178      4.1435538875742948
   279   3    0.012679001101417354      14.254335080832847      6.3110451868227795
   280   3      2.0266426880472168      12.233723908795133        6.29222704108399
   281   4    0.046464002383205527      11.942793186819371      8.0216121805695568
   282   2      2.1049919878760983      14.208681478123138      10.086278733146704
   283   3      1.9949602562551485      14.408240045890482      8.1742943024952357
   284   3   -0.034285647669362269       14.42110761410323      10.146054516311944
   285   3      1.8823247782394688      12.296084363346031      10.124958498067988
   286   4    -0.15230328892919989      16.100449336102685    -0.28634708436075496
   287   2      2.0292613124383667      18.122826327935986      1.9382139253963993
   288   3      1.8851693770107931      18.259377480318626    0.061083876097545495
   289   3    0.026930737482011954      18.261349607110876      2.2839874680204795
   290   3      2.0299539383694696      16.232985044763744        2.22549673721922
   291   4   -0.026502465368952975      16.003702554817547      3.8895319655910821
   292   2      2.0847893129364774      18.142111175272749       5.996505410926396
   293   3      2.0361187066180739      18.389748812253654      4.1111771321706332
   294   3    0.014584397495227908      18.491342642886593      6.1038681090308771
   295   3      1.8584660852535162      16.256505400450902      6.1191912832467326
   296   4    0.014358464030581752      15.989366131833625       8.008625926795073
   297   2      2.0547604388088723      18.286688073812375      10.034987345402754
   298   3      1.8095675357846639      18.231384350016757      8.1329427001858541
   299   3  -0.0099129182755909803      18.245699145443393      10.377173668716798
   300   3      1.9321736266624909      16.260936993626725      10.338208619569187
   301   4    -0.13195967344389861      20.038276672457283    -0.27614405078356102
   302   2      2.0323143017879892      22.155129588790821      1.9858781047722744
   303   3      2.0366938748630972      22.470758365917696    0.089690681114747831
   304   3    0.015405486570355433      22.495513577333771      2.0905412274223631
   305   3      1.8957635822981633      20.279829015380532      2.0856970321545281
   306   4   -0.040658697027761162      20.019291580966755      3.9664981628604066
   307   2      2.0819165750436528      22.166879977770567      6.0879808244809652
   308   3      1.8532886048803285      22.347499889434353      4.1090891848004443
   309   3    0.018032253967020146      22.340858277153245       6.267541591825057
   310   3      2.0439954790699111      20.283324667220352      6.2179288162048287
   311   4   -0.041399941750500859      20.071688515393106      7.9716690348529449
   312   1      1.9980618329898179      22.204881770652861      10.109768721740034
   313   3      2.0564346625108882      22.505575356146412      8.0539021484768067
   314   3   -0.043567491905352043       22.51716362353859      10.107745963422436
   315   3      2.0031157124109762      20.191391800277188      10.194113548385774
   316   4      4.4053096503580553      12.152077839866459    -0.16975715141791478
   317   1      6.1229357572724146      14.165597718423893      1.9924239319980845
   318   3      5.8574229579011403      14.197464440607339   -0.036275419048584175
   319   3      3.9539008888464009       14.15616185360112       2.262493048311204
   320   3      6.0008223215413299      12.120500207880076      2.1847415031227526
   321   4      4.3183518276824069      12.187916562500376       3.852088321352936
   322   2      6.1930813287685407      14.208598577160823      6.0469522849585422
   323   3      6.0354876793532517       14.27108012817593      4.1297456862827389
   324   3      3.9641007166828497      14.309019290980006      6.1185058276645377
   325   3      5.8671284346786408      12.213387223733449       6.123162674936145
   326   4      4.2531661592113057      12.037372910666086       8.037948277372255
   327   2      6.1483999473512316      14.148182750982905      10.127111307167523
   328   3      5.8640125633535112      14.210612776947436      8.1657340713818645
   329   3      3.9901573492813367      14.242008699626643      10.269080625398093
   330   3      6.0161989456751117      12.245479872676011      10.167514623638533
   331   4      4.4428775437890868      16.136374153486429   -0.097438487441408733
   332   2      6.2472002033520369      18.237937021460063      2.0168419273768938
   333   3      5.9970127736270848      18.300459323416234    0.054509742994557873
   334   3      3.9330952170369353      18.359428079274608      2.0375340608046448
   335   3      5.8495765445972561      16.272924373295499      2.0110774873911685
   336   4      4.4011548559322611      16.147806313882196       3.893113529628323
   337   1      6.1360129399663812      18.197256951673168      6.0478703263508491
   338   3      5.8530435446657876      18.206320863260075      4.0064686991224434
   339   3      3.9559396117770564       18.20916322028118      6.2584574175582874
   340   3      5.9996885412687373      16.158214809960047      6.2102750880548099
   341   4      4.3982043297897864      16.317668630218108      7.9862667516468031
   342   2      6.2482282882462359      18.245615832958126      10.160482271487449
   343   3      5.9892811373386818      18.268374108445695      8.1705337174598611
   344   3      3.9733868125107703       18.23818983855924      10.096412804156035
   345   3      5.8939635044191219      16.234857525792613      10.124019596618753
   346   4      4.3572902862821037      20.050146657348957   -0.094502553319333812
   347   1      6.1361681334552625      22.231426526948866      2.0055963974311664
   348   3      5.8453628606726475       22.32186217514009   -0.037734426234979371
   349   3      3.9387348601647933      22.350412961132594      2.1931040807384301
   350   3      5.9619449901510793      20.202701378521088      2.1082204641408033
   351   4       4.392308695534032       20.10687564707548      3.9261946181112188
   352   2      6.2039270416810792      22.184229373061839      6.0538744861758378
   353   3       6.015913357491959      22.397975051270699      4.1094624215085362
   354   3      3.9854053436210521       22.45797736638389      6.0081368740982732
   355   3      5.8746270956444357      20.287943134506449      6.0505185331507745
   356   4       4.421109909544449      20.156397174575154       8.090784155280895
   357   1      6.1591396354429531       22.23990535703831      10.068502144831921
   358   3      5.8542523719670889      22.260235725879376      8.0239161808139912
   359   3      4.0388919299454358      22.360938386129771      10.237223333957012
   360   3      5.9199737133847652      20.196740756625509      10.137194530466465
   361   4      8.3522394958543664      11.964086307768323    -0.25538661676044078
   362   2      10.176396888074613      14.059044871020406      2.0151827583834203
   363   3      10.153528842757195      14.481701342258551    0.044824487927294022
   364   3      8.1395564345432483       14.43307129830322      1.9490520967857978
   365   3      9.9783308020263437      12.158459199761499       1.869746101819898
   366   4      8.4063752243452399      12.053084906489177      3.9732766437814462
   367   1      10.141609412347639      14.138565287009696       6.049351248264581
   368   3      9.9344352663511177      14.001479880791702      4.0125779925646174
   369   3      8.0537279753405198      14.136864799545098      6.2465229067346826
   370   3      10.116003965405762      12.127808815717144      6.3917778512934671
   371   4      8.4286284187371319      12.018415498565183      8.0273147642520737
   372   2      10.263397977833376      14.101256857754457      10.170775701400935
   373   3      10.122625424644639      14.489779742847734      8.1876334764389807
   374   3      8.0353238421449351      14.342254589046318      10.051137946743578
   375   3       10.00974056235394      12.209913271352736       9.904216455180519
   376   4       8.305090805486115      15.941626834375953    0.063372752500213028
   377   1      10.173912525689699      18.188655282866097      1.9747818137220383
   378   3      9.9817703212823883      18.043133143388548   -0.057781453180189235
   379   3      8.1075567344231558      18.164376556169717      2.1457543887195021
   380   3      10.170801446957011       16.18488824792599      2.3298969456074339
   381   4       8.381108304220561      15.997930879063645      3.8353039158985496
   382   2      10.182766045184758      18.106090627280913      6.0602676673383078
   383   3      10.167555157979137      18.525557869564405      4.0915741328508872
   384   3      8.1511605422696931      18.468879503050758      6.0042664190999506
   385   3      9.9928587750606646      16.203855897088602      5.9180473959400226
   386   4      8.4325347884406554      16.110909535501044      8.0373259980790639
   387   1      10.177664729243958      18.191161974518888      10.102377671807652
   388   3      9.9637485193904674      18.042191686261997      8.0596626560975047
   389   3        8.10814734171759      18.215520191348716      10.250474295847122
   390   3      10.108446680611218      16.171128924060366      10.438398268788378
   391   4      8.3808620072709648       20.04814443263782    -0.20980619662559083
   392   2      10.140899738102144      22.116031742118565      2.0251563598833733
   393   3       10.15231191028492      22.587544093327029    0.036388131129725401
   394   3      8.1476002532958383      22.485967577696805      1.9375793751527328
   395   3      10.053960426054367      20.239380251152973        1.78418002762385
   396   4      8.3779997496386915      20.048584229658513      4.1424479463142712
   397   1      10.155799223634977      22.263953017164155      6.0399085859736488
   398   3      9.9648372054280223      22.086891985839262      3.9982644150190279
   399   3      8.0686536446308246      22.209111934632684      6.1878564845645752
   400   3       10.15777132861918      20.239948937257115      6.3616054069376498
   401   4      8.4039451719694451       20.02705146167208      7.9114482041547509
   402   2      10.160249959204434       22.11438250470551       10.14294873671134
   403   3      10.166014810748676      22.566311514834204      8.1446722416099053
   404   3      8.1585473971669895      22.456704549348377      10.041129116814984
   405   3      10.085971625564511      20.238623407427259      9.9072459644308299
   406   4    0.076211495368063972      11.939330772238431      12.064393656295287
   407   2      2.0403560718242817      14.147455359837624      14.109669120050226
   408   3       1.800341088108443      14.246330231750115      12.200209979285244
   409   3    0.024695665590371899       14.13453567681827      14.436485160004533
   410   3      2.0622250872953876      12.235417878398247       14.25540887958582
   411   4    -0.00701189604437888      12.037072090765088      15.957054767326968
   412   2      2.0852280899232865      14.113976892520906      18.128451295719607
   413   3      2.0975135123208863      14.311346918221375       16.23714692567809
   414   3    0.018215975649254722       14.41378328753197      18.284358342044285
   415   3       1.850480499181264      12.234185453916071      18.274868021721595
   416   4    0.093594259792916232      11.921329383951752      19.967208007723219
   417   2      2.0533926189780574      14.095024282741946      22.171288882966618
   418   3      1.8646095936022982      14.206990851896908      20.305542969311553
   419   3    0.049269472354250277      14.149444392124558      22.551001075845761
   420   3      2.0031077588043731      12.176452703164024      22.471511156109763
   421   4   0.0096105432351138217      16.125520943576038      11.928737095261376
   422   2      2.0175705069572221      18.178044407220131       14.09765383045986
   423   3      2.0801970260388112      18.305566386424506      12.216282345430873
   424   3    0.047922927722399401      18.461223920166923      14.161763225672658
   425   3      1.8548003446721291      16.258485080616961       14.24965991629284
   426   4    -0.20375823961189879       16.15942874652341      15.947790766215833
   427   2      2.0399538779940598      18.140004638225232      18.146975976534907
   428   3      1.8518067572337467      18.279893768792341      16.268590088786691
   429   3    0.054365711229349391       18.17611690997029      18.501203051739491
   430   3      2.0836810334962754      16.260916248922843      18.393503396525773
   431   4    -0.15191962203786444      16.139613687151535      20.026989120434386
   432   2      2.0426219573527962      18.124920969679284      22.187596371771541
   433   3      2.1207532837255525      18.378131426455067      20.305163860850197
   434   3    0.068085453782664979      18.382905795510133      22.322737084131596
   435   3      1.9286172190534425      16.218320294301119      22.346017808529567
   436   4     -0.1791159287855249      19.979221636797867      12.131257655336631
   437   2      2.0267062193698364       22.20776912212607      14.082767953645732
   438   3      1.9604137208583094      22.344967970217695      12.211557111608071
   439   3    0.063598518637989071      22.347368048793303      14.322803009762076
   440   3      2.1148966369356139      20.316817109206116      14.326529353868013
   441   4    -0.25912721957142776      20.061796787535911      16.075355871206934
   442   2      2.0293252144671565      22.176843710138883      18.136915725228643
   443   3      2.0905295971684348      22.466379019077749      16.264275411720888
   444   3    0.093746317385350969      22.557545736966794      18.224888349753606
   445   3      1.8815523238791856      20.308155874976066      18.292982150579043
   446   4    -0.26514943680808412      20.048711924124092      20.101715055128601
   447   2      2.0266555940002693      22.206454042474522      22.204451646954574
   448   3      1.9032837974710057      22.359137165868042      20.321873773003823
   449   3    0.034563447147837809      22.371771802691288      22.506850030426417
   450   3      2.0248225387725185      20.325799244275363       22.44622979090461
   451   4      4.2509753872544014      11.934703638641466       12.31145743051459
   452   2      6.1981975224914745      14.206735558203388      14.204235370403826
   453   3      6.0340458904082821      14.309828756800494      12.145507201072181
   454   3      3.9471739831130281      14.356930243613821      14.090014897564156
   455   3      5.8509125162251001      12.255710375552573      14.141543318579691
   456   4      4.4270394894733078      12.079587099364815      16.200747844364283
   457   1      6.1057499633159571      14.150031835923873      18.190202888753113
   458   3       5.821457473775248      14.205216056984829      16.136144411998892
   459   3      3.9612373096012874       14.17028951007943       18.40764030258698
   460   3      5.9683334400276475      12.122415698984366       18.18153882120712
   461   4      4.3683812146123016      11.973864098670411      20.012740703776807
   462   2      6.2267947460573545      14.167215613961398      22.234818073666663
   463   3      6.0490335169477181      14.274635923395239      20.290494808495183
   464   3      3.9597118603024013      14.239767652868114      22.256868917575428
   465   3      5.9204281742254574      12.226431775968434      22.318469420839673
   466   4      4.3812384309992902       16.31109625709081      12.178723641922646
   467   1       6.115881134062608      18.263916532947484      14.143585757238306
   468   3      5.8680254871667623       18.21593994783343      12.099291143447683
   469   3      3.9487594091197376      18.221861994665165      14.412482153770647
   470   3      5.9349667536136481      16.197396857300088      14.204889279381444
   471   4      4.3636141340843677      16.182553877133728      16.044967126759108
   472   2      6.1786409163682841      18.172381493298602      18.227904556355298
   473   3      6.0103814212501234      18.369815995015994      16.288736201389273
   474   3      3.9663767720259151      18.455392488848002      18.212603059028829
   475   3      5.8810188375895089      16.272079206045259      18.209539616990075
   476   4      4.4033463776811708      16.053459834079543      20.188321483949409
   477   1      6.1236517946546885      18.184962248562488      22.241970503050702
   478   3      5.8096806617475494      18.254050776156706      20.208199365070708
   479   3      3.9496840029046076      18.329514109983617      22.457463352561945
   480   3      5.9245031165688999      16.160597025010052      22.331797951105187
   481   4      4.2038444345043473      20.356750269381649      11.795365875877314
   482   2      6.1777563392727295      22.280712796898605      14.076547434060956
   483   3      6.0448533427363715      22.332700480681261      12.175491424396936
   484   3       3.990024655208579      22.479765975082888       14.20101126435703
   485   3      5.8525317136263144      20.350959816302353      14.230862922461395
   486   4      4.2590295166514718      20.057312041951992      15.960131716465593
   487   2      6.1108030074015129      22.257821342274585      18.188787763170144
   488   3      5.8711905690181663      22.285512432203724        16.2868685460374
   489   3      3.9882215421045899      22.326307195759291      18.470074149604024
   490   3      6.0293505118207795      20.336840203788043      18.386183568155651
   491   4      4.2460217559244935      20.002368270695921      20.239621665028917
   492   2      6.1638648310597342      22.233349530153134      22.297636530562173
   493   3      6.0140164742947588      22.457168974325281      20.313053648795979
   494   3      3.9534070654208375      22.493872866085439      22.295824443666007
   495   3      5.8877269405519232      20.334711770439789      22.258861821747463
   496   4      8.3601637223908973      11.941080019572301       12.24039559451673
   497   1      10.145280354462992      14.150369797648104      14.152585196456821
   498   3      9.8865388408083401       14.02223405270828      12.103592326261335
   499   3      8.0623463454427053      14.172135840841232      14.287427607238259
   500   3      10.118332325259981      12.142114106662486      14.460900494507616
   501   4      8.3498262135839028      11.908210434802943       15.99386417574455
   502   2      10.101619321420264      13.987177267928679      18.243218333397113
   503   3      10.146825844180578      14.497529725584036      16.237526671157632
   504   3       8.133370327779188      14.402583584053547       18.12671465850643
   505   3      10.056593706456267      12.125307839305684      17.963292298151984
   506   4      8.1478309039620207      11.746136293988471      20.256125555872092
   507   1      10.149092284187216      14.128348460242595      22.221721692326245
   508   3      10.001006847530803      14.043238199083797      20.184708892542456
   509   3      8.0970189898347797       14.17177314173475      22.431303008322388
   510   3      10.153949684488088      12.134043829819566      22.582985237970682
   511   4      8.4447079216180274      16.086217513335367      12.099278575933999
   512   2      10.177185949278067      18.109200505728101      14.224349147759053
   513   3      10.163721411626874      18.521542530495811      12.211523540550322
   514   3      8.1517139699719579      18.469823213636225      14.088507148071983
   515   3       10.04051691110522      16.219465589168124      13.942950766309455
   516   4      8.3903025241365921      16.029060039947275      16.320944630522835
   517   1      10.129885773905158      18.244122947285963      18.204366596541313
   518   3      9.9551552939970822      18.048316954364061      16.169317464211165
   519   3      8.0453229245577695      18.215500110095459      18.370168906375337
   520   3      10.107193425172028      16.222617925219783      18.488273974426107
   521   4       8.359801399920082      15.986469518357426      20.040990229545862
   522   2      10.125364257692183       18.07014188090918      22.289382021617129
   523   3      10.167440289812335      18.561322622443839      20.284217851147741
   524   3      8.1445449965117831      18.439332936859358      22.190228417181604
   525   3      10.081359654482947      16.197906669536899      22.014365569076425
   526   4      8.3907475797774307      20.053319487004647      12.273937460676134
   527   1      10.139871786652396       22.25659766061802      14.171229167833445
   528   3      9.9608954664598386      22.115056223873811      12.119219435452436
   529   3       8.050092989059161      22.194354236898839      14.339451542322973
   530   3      10.146193712845797      20.250442536438779      14.485409507698705
   531   4       8.327392268294707      20.079454135994183      15.987759659040972
   532   2      10.249971351525605      22.188027650151284      18.230623065895028
   533   3      10.096217572978649      22.623456263879113      16.283352704208511
   534   3      8.0047117826609835      22.476339280965483      18.187440700813667
   535   3      9.9621867900411321      20.313608867841587      17.997147886011312
   536   4      8.3986279273523294      20.086038479163687      20.327259165701022
   537   1      10.137599839539122      22.277680639584673      22.235335921098262
   538   3      9.9058867411320257      22.106593139661538      20.188895917127535
   539   3      8.0336915376759652      22.277914443816048      22.414559773044186
   540   3      10.117105585838354      20.262952507225041      22.550314374834027
   541   4      12.199708053948227    -0.37638649634437704   -0.049073709289359363
   542   2      14.155600437711552      2.0261584539237893       1.859092371729467
   543   3      14.253489827545243       1.775103242856392  -0.0091515149972690793
   544   3      12.193279813080373      2.0450230449484494       2.156466844114143
   545   3      14.143074475343067     0.04860878241539416      2.3559228260392158
   546   4       12.11185054188506   -0.053400717047644396      3.6653026017280155
   547   1      14.159500784887891      1.9974376502586169      6.0424003146116876
   548   3      14.146397797511023      2.3651887655082651      4.0412965603467734
   549   3      12.119153861116343      2.1074173555470463      6.1150751921287316
   550   3      14.324902490207442    -0.04665504071165958        5.85967891142485
   551   4      12.204326206789245    -0.37881035352170772      8.0670332909102633
   552   2      14.163738592163673      2.0453928826896091      9.9526368066750752
   553   3      14.250607953266194      1.7461756517999243       8.088795842064183
   554   3      12.202416229251888       2.007869228578814      10.260857141445161
   555   3      14.154126481003367    0.043788769163387961      10.459929741933058
   556   4      12.184607792510128      4.0891821515871039    -0.32517059283687699
   557   1       14.14442941983736      6.0547939283402101      1.9991997000168815
   558   3      14.145600549527515      6.3898651790163772  -0.0084802189879500129
   559   3       12.10701554753644      6.1740986627225736      2.0498472441876507
   560   3      14.304674912493617      4.0031829886770716      1.8081645224593599
   561   4      12.224742576304516      3.7281856197552528      3.9252656186125563
   562   2      14.151489634987426      6.1019330190258128      5.9082862751986873
   563   3      14.230225021754883      5.8038044305300245       4.042471902619706
   564   3      12.191199628818648       6.078380111835795      6.2172325424756218
   565   3       14.13092901299412      4.0991337539590829      6.4144239153079647
   566   4      12.156398518787917      4.0849580586767438      7.7564394278836595
   567   1      14.137283040881464      6.0505739274723824      10.100223848492176
   568   3      14.148916174939464      6.3890547372524891      8.0895394078185223
   569   3      12.098793021454718      6.2242895825904911      10.112657503771233
   570   3      14.271133412803287      4.0042695604197451      9.8872570810704214
   571   4       12.18063034975448      7.7516027962952974    -0.10317066446524134
   572   2      14.150013926056069      10.131432052279164      1.8562461299766744
   573   3      14.224099136029565      9.8364294717138208  -0.0080364810301082786
   574   3      12.191155575166539      10.142011140429505      2.1758426950757546
   575   3      14.130042790636621      8.1475800125640525      2.3669317379912265
   576   4      12.135314433676125      8.0886518591098095      3.7021144892195736
   577   1       14.15303284982558      10.104429792333708      6.0494241732257015
   578   3      14.150002324905037      10.447624540661296      4.0418959627336752
   579   3      12.123453120809502      10.216446230541079      6.1195716819211405
   580   3      14.314756472156303      8.0561760709839056      5.8562964484779743
   581   4       12.17426977631888      7.7363062108970757      8.0591028758137906
   582   2      14.136391800673334      10.148331490625445      9.9625283090047674
   583   3      14.253034269163908      9.8647374210563896       8.095946769755539
   584   3      12.186029323555639      10.140581612359078       10.25071878191954
   585   3      14.137968665636278      8.1508197737162789      10.455095746545441
   586   4      15.959662756093302    -0.24080283234648178    -0.20301462098204437
   587   1      18.188240432474224      2.0179802349415272      2.0141798310966426
   588   3      18.367650353479249       2.056541379633158   -0.029933013570357644
   589   3      16.151214711143858      1.9517188560982695      2.2581824448902355
   590   3      18.430338269494857   -0.030740954405188276      2.0876528428363725
   591   4      15.994669423014562    0.068917545957018808      3.7927608192544442
   592   2      18.068740506265765      2.0315138483810795      6.1002570603993442
   593   3      18.416825757681178      2.0526532458209257      4.1346934443739993
   594   3      16.204896962769769      2.1633764099718271      6.0408244105845732
   595   3      18.320519102705941    0.067970000000661696      6.1246531157902702
   596   4      15.944467437722793    -0.21183587529689615      7.9108211095614305
   597   1      18.168429793513585      2.0290432517784991      10.106470684139055
   598   3      18.369208742966482      2.0554245128621762      8.0730412667486267
   599   3      16.145699571222956      1.9671230970322813      10.351022707361324
   600   3      18.433275932002051   -0.020581054490943614      10.180127212467923
   601   4      15.954813727005901      4.1331061218990834    -0.20654385330788158
   602   2      18.067272772993174      6.0766706147590597      2.0542353138227605
   603   3      18.409848044292787      6.0941345928741981    0.085354926352750521
   604   3      16.198143556040346      6.2103919888271397      1.9912447848816615
   605   3      18.310985861102129      4.1124689562252561      2.0823252680360032
   606   4      15.947857202715024      3.8307508126664676      3.8417074458668385
   607   1      18.172913081000409      6.0663863437772374      6.0641162183984285
   608   3      18.348987722879929      6.1116791262864334      4.0267870602513431
   609   3      16.140190854480405      5.9961136725136486      6.3039858754842149
   610   3      18.423121810374802      4.0183083132036446      6.1239278742453953
   611   4      15.944689459903671      4.1666652469239924      7.8831823449433971
   612   2      18.055616871719728      6.0742289371933831      10.151545554732127
   613   3      18.406828273854323      6.0951307528957539      8.1796197444573249
   614   3      16.191303232952308      6.1925410975206958      10.085729051471311
   615   3      18.322263947757463      4.1127380994477907      10.164351583443832
   616   4      15.945503619900046      7.8777023243252966     -0.2028360222948194
   617   1      18.182722315413738      10.110796950361479      2.0110132074312266
   618   3      18.353089632129841      10.139293685428829   -0.025607603436037171
   619   3      16.143020137688474      10.036061234746583       2.248974145788988
   620   3      18.424020892734664      8.0622666255515032      2.0751249344616309
   621   4      15.957319564064486      8.2046008786463016      3.8340428314563511
   622   2      18.061420090395615      10.122939420703805      6.1030049906216481
   623   3      18.401196572926931      10.136086016690223      4.1341326152835673
   624   3      16.196341201969428      10.252194582013328      6.0443026111795888
   625   3      18.304750113980184      8.1590429082187175      6.1327202506343745
   626   4      15.929882106371728      7.8959843843558186      7.9057871720831008
   627   1      18.168181792150477      10.106220068681198      10.115610515492207
   628   3      18.352025492764028      10.155615711001499      8.0747451877717307
   629   3      16.140445985510933      10.048927722292184      10.354303269407108
   630   3      18.412432633234882      8.0596249345750657      10.161896483285236
   631   4      19.835269667695961   -0.022769371778118795   -0.021661929347052356
   632   2      22.215038270459281      1.9500643303195526      1.9779310307338609
   633   3      22.452874590041237      2.0726353818277041    0.083564611094959967
   634   3      20.359703594653702      2.1626993702879758      2.0705079441880279
   635   3      22.310966801003172    0.052742615673505557      2.1992182096618311
   636   4      19.831170059342686   -0.051439550797770683       4.011058071488419
   637   2      22.251098007414111      1.9324541586809774      6.0290619140648811
   638   3      22.337108913240048      2.2138880510004899      4.1269691122328229
   639   3      20.373513298370035      2.0484345096465586      6.1921249715683757
   640   3      22.436808141943441    0.052840281777197878      6.0902293339622604
   641   4      19.840740565500905   -0.028587297089970549      8.0696529435164166
   642   2      22.229485166506489      1.9732654481395284      10.061290986403638
   643   3      22.466921739673399      2.0941928694737038      8.1539941165310115
   644   3      20.365798577907434      2.1502561866164633      10.165938789373744
   645   3      22.301372030852566    0.090358269130917768      10.304354828359843
   646   4       19.86073037089184       4.029700317934779   -0.051935198752112707
   647   2      22.235304394414811      6.0121729987130204      1.9767857513581295
   648   3      22.343679884520558      6.2395134662278986    0.095788624828786209
   649   3      20.362229536037134      6.0769771452794963      2.1521256337320556
   650   3      22.470732672523205      4.1170706023706778      2.0950794784232678
   651   4      19.847466904404744      3.9893858526817918      4.0120590008654897
   652   2      22.199846200659426      6.0140469492963895       6.036241048775068
   653   3      22.463064061133537      6.1304795192126713      4.1327368947251664
   654   3      20.345627874098476      6.2033802834004623      6.1159882440204072
   655   3      22.331966252562584      4.1230116930191301      6.2530647296132287
   656   4      19.839578578853168      4.0239563376550569      8.0620430228674262
   657   2      22.233628809129176      6.0115269214789846      10.070065361722534
   658   3      22.333351329206774      6.2537544012503838      8.1584176287255143
   659   3      20.359312608143739      6.0854954377353083      10.213151803338052
   660   3      22.465443963023979      4.1222826700126696      10.154082236022592
   661   4      19.848383519141883      8.0536016927126735   -0.055760880440215689
   662   2      22.201680064780799      10.060456044739617      1.9874904102704412
   663   3      22.434677769639382      10.127412347799948     0.10177129501445897
   664   3      20.349681552881041      10.242211976615426       2.091843909859981
   665   3      22.333119061453324      8.1577030813373899      2.2372425045605815
   666   4      19.836350173157022      8.0626787253596497       4.020554943611768
   667   2       22.23970261210312      10.040592108434117      6.0479648606824004
   668   3      22.352893096584694       10.29029469394751      4.1423325894447878
   669   3      20.361064228353804      10.118374157643748      6.1868519381158018
   670   3      22.461508405857501      8.1534613126561677      6.1167149463306156
   671   4      19.829245190369111      8.0437394451061426      8.0767527317199903
   672   2      22.207531458753106      10.033878192950347      10.074159912686808
   673   3      22.452973343753072      10.178546652061737      8.1525108279435852
   674   3      20.347081010797261      10.245796752614185      10.142845740123933
   675   3      22.315438943626457      8.1559198808850919      10.262356777873229
   676   4      12.149467925509484   -0.018596185692500673       11.76334789806543
   677   1      14.170083041729329      1.9685314780133096      14.147938657992322
   678   3      14.158121173174541      2.3567326869788547      12.139046207986286
   679   3      12.114274678446073      2.0949697290217832      14.196834542750706
   680   3      14.251768752126026   -0.056790202446674619      13.871024224368741
   681   4      12.268161544908047    -0.27933261651240154      16.139281061970046
   682   2      14.173276643551484      2.0431039911935689       18.06532849505211
   683   3      14.201545606160025      1.7493984390298449      16.196509483185284
   684   3      12.190996993565895        2.01555407049538      18.381760484818976
   685   3      14.139600014825627    0.043745047664499492      18.532272737662367
   686   4      12.202469394863984    0.030162260689664881      19.919015220388268
   687   1      14.172698681465633      1.9894104649750473      22.235173693555804
   688   3      14.130785897481163      2.3850774476842012      20.235202397214959
   689   3       12.12627789641749      2.1120302711275989      22.301511079867286
   690   3      14.288921054000754   -0.046180160345876541      22.059025125327373
   691   4      12.213544544024186      3.6971899348673478       12.05484186282446
   692   2      14.161345461709269      6.0856645370215992      14.002395907759984
   693   3      14.218378923826307      5.7941165663779177      12.138384082579879
   694   3      12.208337490425516      6.0678225186650696      14.327722465875761
   695   3      14.137403397826848      4.0853035279999785      14.507729038733544
   696   4      12.159437842037219       4.018937360907378      15.838478257174597
   697   1      14.149040287143897      6.0488713362876068      18.201141625145894
   698   3      14.166405087453457      6.3808954739478647      16.193595840829278
   699   3      12.105195213206825      6.1426587245641606      18.243265866059097
   700   3      14.305982272937372      4.0013204095446957      17.993705421136646
   701   4      12.211443565328253      3.7376098693243125       20.11549087226463
   702   2      14.163403382486763      6.0833222919528938      22.104212322637899
   703   3      14.222974386522944       5.766898948338854      20.243671496867329
   704   3        12.1947654519851       6.048183336104981      22.428515294563955
   705   3       14.13881938668114      4.0911200420422302      22.624385121428176
   706   4      12.111998024972591      8.0748330085782936      11.771836767146999
   707   1      14.126401371422624      10.093606041761671      14.153134271744415
   708   3      14.152403362408297      10.426150128200046      12.142166591644594
   709   3      12.085439926039838      10.253751934958547      14.167740709311836
   710   3       14.31224049588806      8.0449424094250244      13.966443147214289
   711   4        12.1921838043625      7.7351970958117064      16.118367323091668
   712   2      14.134741420728172      10.132658988877713      18.066683811219608
   713   3       14.21968458176768      9.8293743936414888      16.197622564811141
   714   3      12.185827926643183      10.110033108712651      18.366475510402424
   715   3      14.125995303010139      8.1320860768485588      18.565048450200369
   716   4      12.110952802301265      8.0759097179991564      19.897159375368719
   717   1      14.127424027501041      10.091588476669989      22.244476213627028
   718   3       14.15517298360318      10.417584845067132      20.236405859516427
   719   3      12.083803567534247      10.239056853123826      22.266889816047652
   720   3      14.289336165655545      8.0397660675726783       22.05482476075041
   721   4      15.967346278840273    0.090680340706700654      11.927305812437123
   722   2      18.094777857155858      2.0234285145172444      14.221732696182015
   723   3      18.428352713395519      2.0695531410738859       12.21834620109437
   724   3      16.228459857866238      2.1770907093274188      14.119957570944649
   725   3      18.295148104151465    0.046761659286853025      14.129920391209714
   726   4      16.091419287309456    -0.26644067565827467      16.280232617701248
   727   1      18.200460976406458       2.049123417961412      18.202816483986911
   728   3      18.367566373863724       2.068028260486698       16.15740774656339
   729   3      16.155070802586895      1.9382272533458649      18.433080426219288
   730   3       18.43217158836514     0.03060299878786717      18.271823641334088
   731   4      16.094075372429348   -0.057502951830896043      19.916714332070008
   732   2      18.083739843336186      2.0320994937914376      22.294648915013376
   733   3      18.448850487530397      2.0716666099629779      20.326177758343121
   734   3      16.218585777738063      2.1779715205623273      22.236744575128977
   735   3      18.354321317584024     0.07744668194852404      22.308030746614662
   736   4       15.95974828188818       3.817259657695415      11.974260822956655
   737   1      18.176222020539392      6.0644577102061801      14.155353737284235
   738   3      18.358382135393136      6.1042111496156801      12.117120985306533
   739   3      16.147089503861505      5.9824404240007318      14.393076988188513
   740   3      18.437459863864404      4.0157095349044907      14.205154097472626
   741   4       15.95128474076156      4.1631830492340907      15.982779091880488
   742   2      18.069498418270697      6.0831421035250077      18.252947779955399
   743   3      18.410248407888794      6.0932340185258598      16.273504046018967
   744   3      16.204821853578594      6.2043165274754468      18.202354278934017
   745   3      18.316527277762404      4.1170615330034446      18.262823224096572
   746   4      15.961794752246385        3.80894536310928      20.063953397389909
   747   1      18.184427843124137      6.0670517407142617      22.262462271489056
   748   3      18.381021804004913      6.1013570139819944      20.219229089029415
   749   3      16.145404238499324      5.9932244612251999       22.49742222531701
   750   3      18.438480516474485      4.0220378048395906      22.320172384470219
   751   4       15.93766871957413      8.2358850015088905      11.936163505848388
   752   2      18.051659206943729      10.120593692764691      14.199279324856898
   753   3      18.406981593679198      10.130461841583678      12.224454666527507
   754   3      16.186835195383953      10.237155129496065      14.141717450525093
   755   3      18.299109216152981      8.1525239298897123      14.214977802075763
   756   4      15.929977946450601      7.8955636897221808      15.994612108874966
   757   1      18.179548333175443      10.101936477580658       18.19962146537458
   758   3      18.362073638010806      10.142764632381665      16.161426206935211
   759   3       16.14313124822322      10.026273003532884      18.444604913051464
   760   3       18.44784864023265      8.0582086606669918      18.263261042155801
   761   4      15.937760736761808      8.2322777995815013       20.03949530424735
   762   2      18.058360837114225      10.120701977346233      22.308497377983926
   763   3      18.418808592034267      10.114725208471018      20.330231449149473
   764   3      16.192258810830264      10.212307148845374      22.236793189925052
   765   3      18.331156581382462      8.1488623930426041      22.326538465707898
   766   4      19.911919390437617    0.079791060968467636      11.994725577795357
   767   2      22.242135602481209      1.9641155849101122      14.108686703197604
   768   3      22.368397960901792       2.260436939462648      12.192243709621765
   769   3       20.36971969775254       2.031401434167702      14.230395171166659
   770   3      22.493909177650423    0.081911656029230229      14.108532993213695
   771   4      19.977883569119946    -0.12541652987001173      16.452308843939317
   772   2      22.238703656685221      2.0060320097031732      18.117736258331437
   773   3      22.461387078116633      2.0646813169716305      16.211411253551866
   774   3      20.373853272422185      2.1923416978682773      18.224131993425388
   775   3      22.308837967876677     0.11658355059606745      18.340253400675767
   776   4      19.857807543446892     0.01489715210439912      20.165332944722447
   777   2      22.255985959752326      1.9957286107674621      22.189751590899395
   778   3      22.332517106207739      2.1879824788914055       20.30572046676193
   779   3      20.381336245935536      2.0525499751796041      22.390487241795892
   780   3      22.446516206350829    0.072072562527534995      22.338563215451618
   781   4      19.837541385851438      3.9997471412040002        12.1196732952391
   782   2       22.22497628584884      6.0213899007558913       14.09569719799253
   783   3      22.456550711232129      6.1377776077906079      12.177575699272563
   784   3      20.352740037933572      6.2446806364180976      14.206765507931824
   785   3      22.298003771076665      4.1269609403823182      14.308776662703499
   786   4      19.851294135925432      4.0522033696694573      16.159466425222913
   787   2      22.252640262766402      6.0316450977729232      18.132456588898332
   788   3      22.338463787124287      6.2625210092789292       16.23906089415966
   789   3      20.370799968035147      6.0327252669394609      18.298695251879113
   790   3      22.512430145212246       4.121124228504609      18.262187058832186
   791   4      19.859206371304747      4.0348822600038394       20.20727435092984
   792   2      22.221103039330295      6.0577650584486928      22.181079675634596
   793   3      22.406084693674579      6.0825200536836288      20.305184356649018
   794   3      20.363268868914805      6.1789636987698762      22.345925596082328
   795   3      22.356584481001477      4.1245922169076108      22.469281309405865
   796   4      19.831806240898977      8.0625921193125212      12.128603610816819
   797   2      22.233350497224031      10.108619646000841      14.079922219469234
   798   3      22.340815015164221      10.306527623518448      12.169412716284262
   799   3      20.355147027403373      10.092068924299937      14.241102736945745
   800   3      22.504700317123611      8.1882119619868003      14.179068710984273
   801   4      19.846883376685916       8.035307006363734      16.128611522508372
   802   2      22.246711498105388      10.040973857847499      18.112174392198295
   803   3       22.44561626988002      10.143075665821859      16.218358268989487
   804   3      20.369918174897293      10.278519770564186      18.271844284482238
   805   3       22.28829693169391      8.1316788937363249      18.393322033230259
   806   4      19.855278035483614      8.0932924842759135      20.205652247887492
   807   2      22.244327548802683      10.110525824318977      22.192770953997066
   808   3      22.307572746758893      10.259309245783568      20.313311890233091
   809   3      20.364805223996061      10.105379252810897      22.399648014749655
   810   3      22.463095415298465      8.1494718618083866      22.364288647654391
   811   4      12.102909868205757      12.099319902108991    -0.38301298891365232
   812   1       14.14683590416521      14.150412352562105      1.9885316982284535
   813   3      14.170414782116143      14.469534034172934   -0.018142789895146155
   814   3      12.109886971367857      14.252814430546506      2.0497462764986305
   815   3       14.32017199928373      12.095315558735946      1.8159135828750623
   816   4      12.212465202056302       11.83295872073438      3.9240662321928879
   817   2      14.166696625682974      14.180054319915174      5.9029612724306793
   818   3      14.229015437433585      13.895760068873741      4.0390062101495721
   819   3      12.195475149498101      14.172401226258213      6.2324442736020051
   820   3      14.128894494175418      12.196166546364015      6.4192113944692526
   821   4      12.151643673151638        12.1903643225744      7.7626570713017014
   822   1      14.163049308221252      14.158127573104075      10.112364009340274
   823   3      14.151888593109856      14.486054577010314        8.10038389446912
   824   3       12.14103776683098       14.26090295311554       10.17762587494906
   825   3      14.322567334568975      12.107440582125387      9.9144747657657444
   826   4      12.199245059552618       15.84462123318982    -0.10728199154467656
   827   2      14.173268352312784      18.253253923795732      1.8302165829658035
   828   3      14.218696630283917      17.942269444872728   -0.028778236675910753
   829   3      12.216170758837542      18.219273906551134      2.1679870712344078
   830   3      14.140140108575132      16.239383368372305      2.3424760554341457
   831   4      12.160520695819304      16.193287995192808      3.6726334305826547
   832   1      14.147514489055796      18.204559922047547      6.0518728322570894
   833   3      14.178672615587651      18.507183926013735      4.0430555816077991
   834   3       12.11583592210199      18.305085631520218      6.1070300143998359
   835   3      14.289305046494615      16.143762722039529      5.8826959048238932
   836   4      12.245244356670486      15.899565170105872      7.9598229687725492
   837   2      14.183602246134793       18.26150685939324      9.9648415749023371
   838   3      14.236531954036767      17.920882753162523      8.1019573531264921
   839   3      12.215983233350331      18.196955752487337        10.3024902689202
   840   3      14.151614069421452      16.240777441585248      10.479018705882252
   841   4      12.147990457616405      20.218991964652943    -0.40554079829892037
   842   1      14.145327105712417      22.237047230941869      1.9777049145489602
   843   3       14.15062453314663      22.596569939092301   -0.018596007027889935
   844   3      12.097603997034188       22.41616704645012      2.0306174149170295
   845   3       14.30514131140691       20.19394998050134      1.8531049590021176
   846   4      12.233811657269772      19.899297529956819      3.9443765914608928
   847   2      14.158545767099996       22.31136368698894      5.9024827595474205
   848   3      14.237013396469891      21.999110755186415      4.0384155765630432
   849   3      12.206985272400857      22.292969911166097      6.2141491599418437
   850   3      14.138694267589196      20.294467188358443      6.4013608573497454
   851   4      12.148418227746959      20.243821593186109      7.7376169885936461
   852   1      14.165418456900621      22.230170671791754      10.128012156349159
   853   3      14.177082588021458      22.570056472847867      8.1015597477541359
   854   3      12.110281987988806       22.41816054597296      10.139113479689582
   855   3      14.266867593694139      20.196048724805284      9.8786745180246047
   856   4      15.930254630586024      12.277836691061102    -0.20378816658186888
   857   2      18.066301843834708      14.169572205907366      2.0515089625792013
   858   3      18.423826520245722      14.180469660805215    0.082033699126763435
   859   3      16.201521170451318      14.286324424059096      1.9905523796189202
   860   3       18.30547336003491      12.201175710649483      2.0872104969578378
   861   4      15.952606200616534      11.929043154782995      3.8259000825743223
   862   1      18.175491264943201      14.151522126567288       6.061381607994611
   863   3      18.359063502810042      14.197618368125314      4.0245581062657969
   864   3       16.14245372353615       14.09267310051824      6.3002570434003999
   865   3      18.426682680695411      12.106564012606526      6.1173537095088468
   866   4      15.940375061140792      12.245763552574594      7.9024450195819558
   867   2      18.068077424574501       14.16369505394011      10.141355300507881
   868   3      18.407936097499221      14.181657735457664      8.1744569774414408
   869   3      16.203631557758808      14.291252416815963      10.087711586435567
   870   3      18.313365862414432      12.201955679210274      10.165359152892657
   871   4      15.934970568484998      15.996797271509895    -0.23321705633699463
   872   1      18.189060497149594      18.204478538289155      2.0098216924343082
   873   3      18.350288985617095      18.169102488972133   -0.024625238305007555
   874   3      16.153585252924636      18.129156628542056      2.2327731519360232
   875   3      18.447705330251839      16.145953476992478      2.0675178409387924
   876   4      15.929895681030315      16.338359068778157      3.8325104409372099
   877   2      18.050602641490954      18.222831474489105      6.1021602874358081
   878   3      18.407971008282562      18.228077292930596      4.1353447074377438
   879   3      16.188633194124797      18.325607663557225      6.0519638416921078
   880   3      18.318765688782747      16.254168177175909      6.1236991910771188
   881   4      15.940211918159267      15.988250017109122      7.8991490424117314
   882   1        18.1708390592547      18.215676896868406      10.111939200899124
   883   3      18.340874432458715      18.249414481623859      8.0701210192032171
   884   3      16.148571004831474      18.148079502803665      10.375567661005457
   885   3      18.427644514571718      16.156626315516274      10.165250618361574
   886   4      16.090253774604324      20.320218678721751    -0.36784031077609369
   887   2      18.079778707196986      22.244255203612596       2.014833788860757
   888   3      18.380737845021034      22.353326749455015     0.07818443631268901
   889   3      16.205480750243176      22.421957285454102       2.010884527965306
   890   3      18.276277834613499      20.298512978681956      2.0956476194343332
   891   4      15.940584432208038      20.052687686418668      3.8188084169045018
   892   1      18.180583389239139      22.265489408871012      6.0539346014151922
   893   3      18.361356451379478      22.308035217889358      4.0176895924649063
   894   3      16.151938848967387      22.195717995976015      6.3014609214848667
   895   3      18.414409209624331      20.206904434674954      6.1188059559975914
   896   4      15.937162734432844      20.386725546307272      7.8829181282696474
   897   2      18.104287531766616      22.234714756607513      10.109391655807157
   898   3      18.395057620895489      22.325267061208418      8.1771980641769346
   899   3      16.234261595523645      22.420910148174652      10.102147561000857
   900   3       18.27687021100347       20.32113822489239      10.152722754923769
   901   4      19.851481769769265       12.12153787328317   -0.060185854263239337
   902   2      22.241459544937925      14.089105274713923      1.9775829565626077
   903   3      22.332004553691359      14.272473088000673    0.085591913812525885
   904   3      20.368225260335443      14.140709867865771      2.1431651359209729
   905   3      22.484716248366443      12.184863170487626      2.1090066894174604
   906   4      19.835416351429213      12.093574489181892       4.020703813006107
   907   2      22.208480315939969      14.081828428650802      6.0393123552012327
   908   3      22.456556092934896      14.219228837774745      4.1273754723466229
   909   3      20.349443031149026      14.307822682668986      6.1022338484770904
   910   3      22.306133708719017      12.200726692470376      6.2383226145043249
   911   4      19.842826924554224      12.084950269472634      8.0770149580772106
   912   2      22.245356550712408      14.069920089756042      10.052091360789385
   913   3      22.298832565379772      14.369550258938373      8.1481472068410419
   914   3      20.347194399436162      14.200697937590812       10.24877920579158
   915   3      22.405038989358122      12.196348801625838      10.110693365642854
   916   4      19.850757631051238      16.153847266244924   -0.040732105859773028
   917   2      22.198351729899006      18.145847978725943      1.9822767125122365
   918   3      22.459332021710303      18.234763345452599     0.10421237080255458
   919   3      20.344089013077909      18.338250073085639      2.0510503760758061
   920   3      22.324004150406232      16.233789815288237      2.2071027425406067
   921   4      19.835997889033994      16.145090027391319      4.0401342751879339
   922   2      22.237542153223121      18.139805899405349       6.059004429821079
   923   3      22.325518317932506       18.40586614562266      4.1407365222962182
   924   3      20.358413104821643       18.24200064837504      6.2136179464720414
   925   3      22.451098796333749      16.258043965354322      6.1074322343441052
   926   4       19.83891666825976      16.118329178567873      8.0511156637593011
   927   2      22.187745940466375      18.127605018615803      10.128440861027823
   928   3      22.483210419477288      18.285414876229062      8.1591848399336193
   929   3      20.312198273479947      18.384712957081771      10.104166485025127
   930   3      22.262468029367593      16.240815164587236      10.296840729930363
   931   4       19.94257415231424      20.055396314112976    -0.18663966365201876
   932   2      22.227702580534331      22.194299268626999      1.9674241889326423
   933   3      22.340136374137511       22.43771707599069    0.078988368616247528
   934   3      20.356639127316058      22.255326191876243      2.1364957949076606
   935   3      22.466819735214006      20.294317691052257      2.0808033973767412
   936   4      19.818854072312149      20.207576935344598      4.0230012879068049
   937   2       22.18667693272667      22.213145934423039      6.0416912655031734
   938   3       22.45333073880289      22.303224929027571      4.1208382507199754
   939   3      20.331913947414304      22.386351183975908      6.0981292200149246
   940   3      22.323971061792612      20.319016890555304      6.2710988225175583
   941   4      19.864723364824716      20.143866145816109      8.0625150636204719
   942   2      22.227776233589655      22.186362922651046      10.089375248815925
   943   3      22.290430192648294      22.477153621187551      8.1592357010943246
   944   3      20.331464207370349      22.305049304538446      10.277829056339256
   945   3      22.437845420949987      20.308080262428977      10.077685051946593
   946   4      12.166525669932099      11.770293089590494        12.1296302143373
   947   2      14.139585137694226      14.183614557539956      14.029003876812261
   948   3      14.265860267307996      13.914133867068598      12.158626170608262
   949   3      12.191594455115037       14.18019848395946      14.301121159085053
   950   3      14.131387314536273      12.188352234262545      14.508379905034857
   951   4      12.089464692486828       12.09351240045349      15.827756433745364
   952   1      14.117724300489215      14.131023986376393      18.200051789783032
   953   3       14.15207473010201      14.468671714978155      16.197534740929861
   954   3      12.070840769748122      14.318010341766044      18.209282766415221
   955   3      14.321610274365357      12.088568945706418      18.009337072637322
   956   4      12.114933214013183      11.759936685833777      20.205274460648798
   957   2      14.151122373825665       14.17162192464205      22.097555850124003
   958   3      14.225012172820939      13.890779249103412      20.230716150279353
   959   3      12.197564207058905      14.169367782451117      22.404986252436284
   960   3       14.13930986160789      12.182198620056802      22.601810815100713
   961   4      12.208196979318712      16.267998336238129      11.834401185814196
   962   1      14.172466619653029      18.200087712435163      14.164750085007945
   963   3      14.156853443323087      18.527681732920069      12.156987855264957
   964   3      12.123234871808167      18.368133414679001      14.216087414659667
   965   3      14.334441483568222      16.153959109537954      13.975516232797924
   966   4       12.15228687213297      15.807753452127949      16.191746719865279
   967   2      14.105204888040916       18.21981644488633      18.111308051076396
   968   3       14.35399045522961       18.03135826821595      16.210601733081631
   969   3      12.180219731139481      18.299733165006771      18.289538218303502
   970   3      14.123181022829307       16.24343858197031      18.536613337275337
   971   4      12.041263711033208      16.093187384758728      19.883900386960498
   972   1      14.141142371835702      18.189634969193115      22.227988803358304
   973   3      14.153330280225273      18.525926530751995      20.219899884677872
   974   3      12.094859304576115      18.389582913428892      22.258993974190638
   975   3      14.294112634668849       16.13580491568495      22.058929417342263
   976   4      12.219787515149608      19.905583013160438      12.083148175495328
   977   2      14.097407933798964      22.318380292466454      14.040747817267823
   978   3      14.250079615446507      21.970776972392784      12.178473150545251
   979   3        12.1824185205472      22.293210071995645      14.332726989883344
   980   3      14.187268475866645      20.326625675547113      14.528994054719428
   981   4      12.144192333516415      20.207758869046469      15.854576749649198
   982   1      14.211424725051302      22.219624755158499      18.179649656252657
   983   3      14.220428426655786      22.634395406898207      16.162531110113509
   984   3       12.14536567954276      22.351154970916799      18.226260390563937
   985   3      14.403527762663273      20.194806148146991      18.011700550040093
   986   4      12.171083568647251      19.897848032931204      20.259035506256311
   987   2        14.1584972122275      22.310676546422108      22.094475206478112
   988   3      14.290587320666125      22.032969264582501      20.225750270867444
   989   3       12.19852021714056      22.269916060633381      22.381705139107979
   990   3      14.181018109703739      20.296998613449528      22.564479557904114
   991   4       15.92019390610484      11.943318130744796      11.954129449538179
   992   1      18.165573871269139      14.115201391341872      14.161902026886763
   993   3      18.354265408636476      14.193866404835019      12.118446880554115
   994   3      16.145168330291813      14.077097460491503      14.419383166990146
   995   3      18.430208499951643       12.09145095121387       14.20367986432346
   996   4      15.927361048503007       12.26282841615752      16.000688233111909
   997   2      18.061970984910733      14.153698624554682      18.258799555959925
   998   3      18.443745640365236      14.146033978464315      16.282756635589763
   999   3      16.197638672397343        14.2874955426159      18.181201857978586
  1000   3      18.298212692707267      12.189387784019328      18.287675955944675
  1001   4      15.921026357229549      11.929967775162007      20.037284539395149
  1002   1      18.178367996321942      14.128592766107289       22.25482982857125
  1003   3      18.362221613610306      14.201187930088942      20.215250094234079
  1004   3      16.147930502901023      14.087894091676935      22.481808653978465
  1005   3      18.410101211039422      12.089404645563244      22.319991766000012
  1006   4      15.950900751921834      16.278139704910487        11.9572013076021
  1007   2      18.182702111894365      18.080254230732393      14.202533484173333
  1008   3      18.398452503911269      18.255136449815595      12.210379027487887
  1009   3      16.268710613609862      18.411301338314846      14.086924040104066
  1010   3      18.257663267648105      16.187350495356963      14.233939722933441
  1011   4      15.918128080626698       15.98168393790629      16.020601553155242
  1012   1      18.167691571230169      18.175100946490947       18.21137286341877
  1013   3      18.250789657206941      18.298585381121647       16.15920199805743
  1014   3      16.154327320710948      18.106502779599108      18.475610630632744
  1015   3      18.477477809647898      16.126984735713595       18.23500797380083
  1016   4      15.937951093141484       16.31296608876994      20.046178415623508
  1017   2      18.115638154232315      18.168954975935321      22.282183055976304
  1018   3      18.427858923237832      18.204694305599798      20.294864840829359
  1019   3      16.210164465675124      18.278517923972355      22.215390460158627
  1020   3       18.33699147552165      16.207439685901349      22.304540983251183
  1021   4      16.020965421082078      19.949726613099678      12.078473249225786
  1022   2      18.150360067979513      22.254347589341663      14.152303335301967
  1023   3      18.272641543825763      22.375132964076325      12.186596578611264
  1024   3      16.235092506870537      22.283567324635605      14.282425269448764
  1025   3      18.326785337292204      20.350671221911075      14.218016954505222
  1026   4      15.971130251054539      20.081400855980217       16.08522125673856
  1027   2      18.274167017161922      22.135895565232989      18.329973305822669
  1028   3      18.276156936217209      22.466764247110451      16.157731481465667
  1029   3      16.287386754411639      22.551128122992974      18.153600844412498
  1030   3      18.121962860282093      20.263219132990869      18.176970091375942
  1031   4      15.991920613764355      20.016821810355264      20.017893013877949
  1032   1      18.210009005807692      22.264182781798482      22.260827765115938
  1033   3      18.272613477293056       22.36729351545668      20.227005077812358
  1034   3      16.162706596062758       22.23170397191425      22.501549286329077
  1035   3      18.256218385396668      20.213467693735279      22.404543069778128
  1036   4      19.840203895793174      12.077798723403731      12.103274345529744
  1037   2      22.196813060419991      14.195663179388463      14.067723979773195
  1038   3       22.41984671782598        14.1604964754818      12.168629349116852
  1039   3       20.32130282587466      14.267086757673471      14.201993739032028
  1040   3      22.308990502203255      12.192535561699012      14.366103836285674
  1041   4       19.86801953406513      12.098242541375996      16.150390379382202
  1042   2      22.265912874735768      14.099332896150612      18.155309250911376
  1043   3      22.300189359020059      14.300189519305128      16.260825953117017
  1044   3      20.372915769830843       14.12809313200424      18.318571656499607
  1045   3      22.508347063882031      12.182664322281115       18.23963969079492
  1046   4      19.869115304559564      12.042875568451963      20.158192204721274
  1047   2       22.19239819017422      14.175465368300268      22.186167328648562
  1048   3      22.441634647935864      14.146505317576139      20.291616296487337
  1049   3      20.333282516521194      14.196415970655444      22.304417286120255
  1050   3      22.365028156543758       12.16410821182671      22.490502324612677
  1051   4      19.900918203866951      16.064383268614669      12.047342021272019
  1052   1       22.23567850014155      18.177089053289762      14.153567983171827
  1053   3      22.223954250591181      18.497316301826718      12.107162839567716
  1054   3      20.212011929738384       18.39125569252208      14.270001269247182
  1055   3      22.473042280176838       16.13792662410447      14.210568886943639
  1056   4      19.931794195467905      16.006311522782436      16.190547740568572
  1057   2      22.163189519967553      18.231660088598872      18.208592189214766
  1058   3      22.493347757112787         18.194979867449      16.266621753188257
  1059   3       20.27859778493055      18.374225595183141      18.133116492747423
  1060   3       22.29819102448425      16.228387455646434      18.401211569067037
  1061   4      19.875279733692377      16.109186113183757       20.23110281428357
  1062   1      22.258657206470982      18.171143790605129      22.275509913074067
  1063   3      22.229263821543803        18.4286261045537      20.234929201500947
  1064   3      20.251529957594812      18.403242866407385      22.317303494550124
  1065   3      22.468759781653873      16.117451661774041      22.325923913960725
  1066   4      20.125947130536261       19.88447914715551      12.182444080401675
  1067   2      22.168814688532066      22.230210165758297      14.201044228715348
  1068   3        22.4843289631076       22.30939975340976      12.193352262223371
  1069   3      20.280713440238241      22.404996336994433      14.154891919133343
  1070   3      22.328180319039586       20.34474558797848      14.299331314037937
  1071   4      20.045678898157416      19.944497786852057      16.156867938092947
  1072   1      22.235089037417797      22.242406858052561      18.190238788007672
  1073   3      22.364370866302739      22.495313007583853       16.13085398185537
  1074   3      20.211711149980008      22.289756482057378      18.115017881477485
  1075   3       22.54494790219464      20.202508217108274      18.166869565521043
  1076   4      20.156419813548069      19.867585821832055      20.427237875548851
  1077   2      22.189909224453761      22.241415111001345      22.183632267831371
  1078   3      22.452928564834018      22.298265260520868      20.306509594519046
  1079   3      20.328319212151555      22.332778299493878      22.309139211185901
  1080   3      22.374296043960154      20.352091604393092      22.429321668693351
