(written by ASE)

1080 atoms
4 atom types

0.0      24.299999999999997  xlo xhi
0.0      24.299999999999997  ylo yhi
0.0      24.299999999999997  zlo zhi

Atoms # atomic

     1   4     0.02696824341217087    -0.25355738194768579   -0.071693285866851766
     2   2      2.0402017066992584      1.9624668146190742      1.9619079947741769
     3   3      1.8654634387777547      2.1371236808979095    0.069409002249840576
     4   3    0.028644463931358936      2.1500847620484107      2.2361923411994478
     5   3      2.0071474871714834    0.091720879006697273      2.1310450206332061
     6   4     0.10766485140338281    -0.34082656620013274      4.0491361414537694
     7   2      2.1079647216592212      1.9500194766016046      6.0010909917922985
     8   3      2.0132563458787422      2.2400852168579264      4.1081713879193629
     9   3    0.031135948194691825      2.3048509852178545      6.0971513504456771
    10   3      1.8684504768962755    0.095030048506139303      6.0470941325838679
    11   4     0.23133982500722716    -0.38436021018920152      7.9708762760016212
    12   2      2.0600780459529218      1.9218159636037631       10.02290427682146
    13   3      1.8556005769795179      2.0684473717478489      8.1179442306428307
    14   3     0.03896262932449767      2.1345310471462247      10.324295573508277
    15   3      1.9907391036277202    0.064947961322034634      10.265331003429536
    16   4   -0.028384956147401295      3.9091976546064457     -0.1847905287212063
    17   2      2.0355307917071017      6.0415984131032197      1.9660869568606634
    18   3      2.0486149627654462      6.2783754789386093    0.089019829343775919
    19   3    0.027924176856274043      6.3355963346547188      2.1180622700659124
    20   3      1.9105140600786179      4.1526182684346615      2.1090511690117903
    21   4   -0.016879805732922852      3.8507033862211539      3.9390239895952242
    22   2      2.0651103300103602      6.0191069371031842      6.0573379618364136
    23   3      1.8729658178362216      6.1703612125396115      4.1485547319022542
    24   3    0.036978605975557841      6.1502663631532615       6.311337890576822
    25   3      2.0509112908177909      4.1359471504437328      6.2551495115785913
    26   4   0.0031359717533707187      3.8961039287791124      7.9074642838347691
    27   2       2.070942672950141      5.9836221835237673      10.178692017653473
    28   3      2.0308570805122064      6.3434250641284216      8.1498053429157284
    29   3    0.022755508982344852      6.3141977460804597      10.107226045468124
    30   3      1.9485437713386193      4.1010478285346714      10.092643883836089
    31   4    -0.04007389761992361      7.9946127316432944    -0.20578348443604264
    32   2      2.0565353220302174      10.088936545359473      1.9568079632991107
    33   3      1.9293001035659711      10.168895514604925    0.082845852536199402
    34   3    0.048891328531325759      10.178355065434873      2.2876127527260937
    35   3      2.0511022586269863      8.1918320027790106      2.2533222337538223
    36   4   -0.017414286397541098      7.9718088331574295      3.8991385961246499
    37   2      2.0715637136517762      10.088138713064241      6.0238770240843253
    38   3      2.0461365829792197      10.351456987138521      4.1438575396262465
    39   3    0.034840413801908138       10.40116636198975      6.1234416424529963
    40   3      1.8877057176359309       8.211086425892665      6.1155159608100487
    41   4    0.038688394102546313      7.8573252702976308      8.0492285554253691
    42   2      2.0549264830406431      10.083468170190033      10.062082063395358
    43   3      1.8600690840461245      10.230406006167764      8.1492202191648708
    44   3    0.024914803497963631      10.238815596361812      10.312514821393602
    45   3      2.0234916302550401      8.2088450238850079      10.230149332991704
    46   4      4.2237200788400866    -0.29514209387745866     0.10702354733171697
    47   2      6.1701703066880427      2.0047707412641165      2.0307928678356433
    48   3      6.0347173379050698      2.1983343942474516     0.05415750892892849
    49   3      3.9544635977538172      2.2041092622529961      2.0646034926600718
    50   3      5.9101960719110895     0.10310490949565528      1.9958420318253489
    51   4      4.1646989977446713    -0.38962610739782799      4.0172392099670686
    52   2      6.1119498938781351      1.9123781085516127      6.0817973695122323
    53   3      5.8821099341493719      2.1077384015135396      4.0933379781336772
    54   3      4.0120195586119989       2.041508863137111      6.1803696930374796
    55   3      6.1467154189010618    0.049931523662100144      6.1087650414054417
    56   4      4.0052658286568219    -0.55955444239635044      8.1778182872681384
    57   2      6.1899986150525566      1.9754910340205276       10.16714649864465
    58   3      6.0634753992534423      2.1992584565254325      8.0665606296098424
    59   3      3.9693161856247365      2.1079759764157702      10.045996073719122
    60   3      5.9763846272866337    0.072532736928483069      10.107576039658934
    61   4      4.4115905282096337      4.1157004859166797    0.042666661258044053
    62   1        6.13378750550718      6.0952058136880698      2.0317962055181962
    63   3      5.8487534957964025      6.1022373453244523   -0.010189637683621676
    64   3       3.945846208920968      6.1420127361493915      2.2488662285415453
    65   3      5.9165843924983195      4.0531911310995792      2.1087132541710996
    66   4      4.3237897697818557      4.0582065564309389      3.8470585130692796
    67   2      6.1873385010542314       6.019539698827181      6.0808283800752987
    68   3      6.0007664834467436      6.2425439551921382      4.1420479014174552
    69   3      3.9757770079705819      6.3123844795902535      6.0831039678999588
    70   3      5.8845493884316387      4.1161990718153403      6.0555296561311325
    71   4      4.3979446820249164      4.0347428030028958      8.2397864181826694
    72   1       6.138312039534199      6.0626065205501858      10.112897002282793
    73   3      5.8437200283764374      6.1163232603470457       8.053615025752368
    74   3      3.9776657029297797      6.1936438290758034      10.134106530693208
    75   3      5.8843505480273812      4.0326176754419523       10.09950306761495
    76   4      4.3915726408458671      8.0236590214627501    -0.10763048124016443
    77   2      6.1947610532614812      10.161061305240199      1.9634461528564735
    78   3      6.0420519615495776      10.232527048083121    0.059104418889807969
    79   3      3.9769926833286688      10.305816976564014      2.1115668565700401
    80   3      5.8476098744853822      8.2137463988450072      2.0541720604134852
    81   4      4.2859697033937296      7.9417691070008116      3.8580305551184448
    82   2      6.1312844980249306      10.087048521152516      6.0762222933593364
    83   3      5.8854222454649632      10.162330470319253      4.1408424472419672
    84   3      3.9921801315891776      10.208669489801483      6.2795921418607916
    85   3      6.0392563640322328      8.1841538087351235      6.2020076473848524
    86   4      4.2241446544258912      7.8315680976444071      8.1991765475857488
    87   2      6.1442039766999335      10.068051667639011      10.189522244299042
    88   3      6.0267369028858395      10.328796613279575      8.1244535026905869
    89   3      3.9677610396535452      10.343342371004864      10.044555278955968
    90   3      5.9351593080263134      8.1876175415881054      10.080942005357198
    91   4      8.3585937773595802    -0.20957162933489179     0.10226713212220118
    92   1      10.130610020303394      1.9898580795901173      2.0124159354995013
    93   3      9.8731731442848876      1.8640008811321775    -0.03661890954151921
    94   3      8.0353043786384344      2.0513663750599047      2.1916508884176795
    95   3      10.108028619479372     -0.0122464632062199       2.318007397982039
    96   4      8.3252844364392633    -0.28580490225847266      3.8700531806830565
    97   2       10.22130579400487      1.9025506769708926      6.0944061998071604
    98   3      10.119837139748265       2.360683035887666      4.1204523273939619
    99   3      8.0121978031195766      2.2378793438167222      5.9693379317339881
   100   3      9.9844748129769041    0.028298360705262583      5.8379168904876053
   101   4      8.2765014494886398    -0.32613150478107938      8.1204094248302336
   102   1      10.148865756073981      1.9778623111042826      10.067565654455766
   103   3      9.8707051616895995      1.8613468795031451      8.0234356128668782
   104   3      8.0698261614903579      2.0632112322847074      10.224329435246064
   105   3      10.134212765396574   -0.016537719272670202      10.414289023278405
   106   4      8.4125715575709172      3.9187301513423578   -0.075451597671683662
   107   2      10.174788012519837       5.970196263932996      2.0573021748667881
   108   3      10.145591435198073      6.3625170273280736    0.055867857143236936
   109   3      8.1442624632368936      6.3264471208956214       1.956230277666877
   110   3       10.01225157118666        4.06722908592082      1.8340562897790877
   111   4      8.3929261253261611      3.9177528339319263      4.0475601326787993
   112   1      10.132842563325546      6.0625020546758996      6.0543961633247383
   113   3      9.9582909658772465      5.8979687901619524      4.0209835598921835
   114   3      8.0479727941934698      6.0853968582577238      6.2009144614669642
   115   3      10.091714203071698      4.0239066079954808      6.3634221418544099
   116   4      8.4120230773347178      3.8775698463860313      8.0200516479877351
   117   2      10.143371305936919      5.9234171887182008      10.156794359632428
   118   3       10.14678199054617      6.3750077565530772      8.1410823299132087
   119   3      8.1495165216108543      6.2670289184081485       10.04917641398135
   120   3      10.083116047167747      4.0431606943829772      9.8576985309679266
   121   4      8.3553082459158325      7.8776843291603464     0.08719326750453095
   122   1      10.145008080550099       10.09863674655341      2.0008151080381826
   123   3      9.9487447996081553      9.9558206149876973   -0.038465139659479931
   124   3      8.0576750903770993      10.073500129040237      2.2071014248552818
   125   3       10.14886914547392      8.0973216520104589      2.3342755480587392
   126   4      8.3483287171142617      7.9115491936131788      3.8573460275831719
   127   2      10.240588403996174       10.02567475685184      6.0994005377661535
   128   3      10.120144974566687       10.46305210914675       4.137007124979343
   129   3      8.0241959402805083      10.315707036000807      6.0165515296779155
   130   3      9.9984307039775171      8.1496457310331039      5.8642227107765708
   131   4      8.3854973365940371      7.9091583271936061      8.2152849572810407
   132   1      10.128126305316416      10.125851600044601      10.102865086087059
   133   3       9.887515196607545      9.9766231530944491      8.0518731090422921
   134   3      8.0251162653088493      10.167617648949889      10.237096311171943
   135   3      10.098988716017949      8.1054872057714551      10.399799285748314
   136   4   -0.014891455263979692    -0.26548928809714012      11.958571003759218
   137   2      2.0958784746944419      2.0020323107715647      14.055183086306458
   138   3      2.0572116451275164      2.2190358243183312      12.158663065780429
   139   3    0.038298603017854906      2.3051235171928872      14.174266914402859
   140   3      1.9230013566358313    0.082681000098362711      14.232228667625995
   141   4    -0.12778775501581208    -0.26931411158019214      16.154460124165059
   142   2      2.0601745680020658       1.966748201095555      18.151501027221453
   143   3      1.9119475695709103      2.0389302973118846      16.277967731763312
   144   3    0.050584886053516666      2.0709899100682145       18.47881309653226
   145   3      2.1135085155284874    0.086421199082118053      18.458793771858229
   146   4    -0.11380368143783477    -0.21235021638058882      20.015837240108819
   147   2       2.087044236502646      1.9732321105094022      22.226369167732866
   148   3      2.0397564756767905      2.2425437626584888      20.345694273022573
   149   3    0.025444814201758228      2.2702462816633178      22.347316867100226
   150   3      1.8978296569217594    0.098069388596316281      22.337555547919557
   151   4    0.011483714432225367      3.8280414590993268      12.052699574436652
   152   1      2.0474028946704972      6.0831131846410127      14.144634135237636
   153   3      1.9159629670185165       6.188667337792519      12.100538758211837
   154   3   -0.027457624179816995      6.0870781395120011      14.353225435862406
   155   3      2.1096733496269082      4.0295559178284623      14.421875643743686
   156   4     0.16437210153620638      4.0589781080351965      15.844786955487528
   157   2      2.0845065271812899      6.0382322855879904      18.146612392282726
   158   3      2.0179159686929418      6.2578965257581993      16.278854033199927
   159   3    0.017214595179301382      6.2992031900298704      18.312556360018394
   160   3      1.8816809712316067       4.123032574505535      18.290267440858273
   161   4     0.00470060229733903       3.878534705079006      20.087848848045855
   162   2      2.0545920685323802      6.0242598650927617      22.207685653838542
   163   3      1.8858332637671715      6.1261421963320073      20.325178223588974
   164   3    0.030875201588170802      6.1651845563265431      22.531642631950838
   165   3      1.9964525745557233      4.1392851745825894      22.476870118709023
   166   4     0.13955363435311791      7.8572833871756265      12.124322991511249
   167   2      2.1203709775962953       10.15676960193513      14.100321645697175
   168   3      2.0143088501059236      10.352450000038464      12.159604824402791
   169   3   -0.035827912675455542       10.35644531498367      14.212452964979921
   170   3      1.7882414884182605      8.2243035171401786       14.14041539839757
   171   4     0.11604676662067749      7.9171388729618482      15.888432222916718
   172   2      2.0614548619074946       10.06360867441648      18.129616233936073
   173   3      1.8802828267205667      10.098229805597366      16.238142110408884
   174   3    0.016644885744308231      10.136221520577793      18.468362079581642
   175   3       2.027605764216931      8.1593422695432718      18.426575776239137
   176   4   -0.034293248691193177      8.0036379959628139      20.022225140183767
   177   2       2.103108548427437      10.075667605410898      22.193549786532113
   178   3      2.0259722802346896      10.287952453780168      20.310141430239238
   179   3    0.034246996945722592      10.305991239730744      22.393266153695581
   180   3      1.8962821395188429      8.1727710593355187      22.353975461462362
   181   4      4.1737980917551196     -0.3244603245612282      11.813641518509622
   182   1      6.1085605828824354       1.984305823723943      14.131879294281736
   183   3      5.9348492507456543       2.147259813801027      12.088210383087738
   184   3      3.9950802394417089      1.9978451232638261      14.367915343264713
   185   3      6.0657691233642552   -0.054319018536375052      14.349852953464167
   186   4      4.2372827792187175  -0.0040896537146485759      15.903106277887263
   187   2      6.1477277199692946      2.0714957559596359      18.118372547440792
   188   3       6.083051003014682      2.0810311100831802      16.250009941098153
   189   3      3.9850578983849458      2.1956414838608858      18.297875525638482
   190   3      5.8414717633282836    0.052023533380020248      18.297822210437701
   191   4      4.1886140568770687    -0.13875905763437488      20.104733560123854
   192   2       6.104817520242551      1.9879035749374487      22.249166979605786
   193   3      5.8611488325782783      2.0423378977962767       20.34884115665157
   194   3      3.9884782382813118      2.0786894463659293      22.474261824078344
   195   3      6.0302374555453797    0.081617039299682642      22.409379675454886
   196   4      4.4465413621082162      4.0438652861681232      12.080706684657551
   197   2      6.2176026950192558      6.0687558466943825      14.168017223593001
   198   3      5.9777739140726274      6.0964290363509237      12.171977393451645
   199   3      4.0535357774421623      6.2317534004045489      14.201776142388912
   200   3      5.8590294633310682      4.1026335504785409      14.159372904158753
   201   4      4.1361517073336627      4.1046813281086427      15.801714488458206
   202   1      6.1114077559316424      6.0536377654868101      18.188572903734659
   203   3      5.9794098300889011      6.1593817710500316      16.159325359849266
   204   3      3.9704630357550523      6.0536038981915992      18.389065595672616
   205   3      6.0555390451027646      4.0019834680449273      18.417467379159962
   206   4      4.3479695527126774      4.1261417844556068      20.056475479048125
   207   2      6.2182507694962901       6.107411944026456      22.275856687424021
   208   3      5.9909560861039717      6.1360552277394591       20.33001762276329
   209   3      3.9553277601650998      6.2071702553191175      22.319704863790594
   210   3      5.8657492831404188      4.0983976264639477      22.328313670660279
   211   4      4.2841691174815981      7.8176661510498695       12.30927228237808
   212   1      6.1366580856699358      10.092636797166815      14.148231265941901
   213   3      5.8621398574516315      10.259913388298186      12.089412544062014
   214   3      3.9970506999462763      10.106349203623266      14.229724990844428
   215   3      6.0194811076500327      8.0704367099628147      14.145624337011869
   216   4      4.3697894739041567      7.9338332309260897      16.008177691836053
   217   2      6.2228097907875917      10.118951912626468      18.176625142720983
   218   3      6.0054406805581726       10.21350719567058      16.230445278471382
   219   3      3.9438355825016833      10.249773306340273      18.209198518083682
   220   3      5.8740707350172148       8.172226997271185      18.247932029327785
   221   4      4.4464268539564671      8.0773760935892476      20.147779996770787
   222   1      6.1244314028543911      10.104741900154734      22.237460904911103
   223   3       5.872554204171438         10.148817725817      20.198615846171482
   224   3      3.9754009358886107      10.167282721844527      22.453612769346819
   225   3      5.9656371699423634       8.065294228809357      22.358749580273589
   226   4      8.3654929927564119    -0.21796732337561578      11.913516102580276
   227   2      10.177949803221724      1.9073377779934391      14.157950803653394
   228   3      10.135166901916829      2.3133981821344425      12.185502166946058
   229   3       8.132223674801546      2.2862694718551437      14.091867515514158
   230   3      9.9305453587259098   0.0067947829897175389      14.002588848096993
   231   4      8.3671098265057218   -0.083906347036558554       16.07883357074774
   232   1      10.124061578816521      1.9779305510221961      18.187524737001841
   233   3      9.9280995089720108      1.8298696425560914      16.154005081944327
   234   3      8.0203076433340303      1.9478417556743568       18.42498756218934
   235   3      10.128314546805939   -0.025707770192369982      18.552412553259611
   236   4      8.4081893626970423    -0.09366969847400633       20.12563023196093
   237   2      10.236218844403576      1.9412217994198318      22.317824270265927
   238   3      10.085742597367851      2.3215005272986069      20.340209476083729
   239   3      8.0048925584752553      2.2080478683510134      22.241124135864865
   240   3      9.9849286568823956    0.051681552361420822      22.062542404875874
   241   4      8.2868299362783144      3.7866804151103111      12.217247093336656
   242   1      10.168044033382467      6.0212739887453672      14.132819163065784
   243   3      9.9973913064878737      5.8856982737924106      12.098980942952183
   244   3      8.1119520442054576      5.9951442383519309      14.265848022570918
   245   3      10.175310659224763      4.0165680989923578      14.477736665652651
   246   4       8.340809648518805      3.8424785342998486      15.953118769773891
   247   2      10.169261571284068      5.9427964049210136      18.219875178479008
   248   3      10.135606128324179      6.3577588756938761      16.243742910423919
   249   3      8.1345616048969127      6.3199180210732733      18.162976916902416
   250   3      9.9618628114337859      4.0384205800718229      18.070742287822679
   251   4      8.3651293197308654      3.9188676360196428      20.118750431834748
   252   1      10.147145044765505       6.021903949544007      22.235765322561953
   253   3      9.9493496562279624      5.8764840150315312      20.204286166880653
   254   3      8.0785454677166086      6.0438361763055903      22.428845176854789
   255   3      10.113195193496102      4.0108289746474588      22.607741914459179
   256   4       8.360630657855042       7.869341359793907      11.972223839966295
   257   2      10.129695665911299      9.9469733234221209      14.195083564745618
   258   3      10.145729190859219      10.435887317325685      12.188414398104001
   259   3      8.1476356195403365      10.345829656804227      14.082965537344426
   260   3      10.050512786158595      8.0765234846308811      13.912875034259113
   261   4      8.2640950852621202      7.8016967409727531      16.262862343975865
   262   1      10.153144908715209      10.073968448576199      18.175588901895686
   263   3      9.9744051304879413      9.9313561360757223      16.141684854718772
   264   3      8.0918314401630074      10.069206979258768      18.346868963852859
   265   3      10.161441200581669       8.068887457382198      18.529472713960921
   266   4      8.3572215965174568      7.8890721789834171        20.0216801979258
   267   2      10.139451772411025      9.9575614469882581      22.290150251505839
   268   3      10.149227732392786      10.416473769200229      20.292031593454329
   269   3      8.1443033525101214      10.351695247810612      22.189120323538958
   270   3      10.054571090201014      8.0815806247747108      22.066937391626045
   271   4   -0.048686799648409072      12.080234352445217    -0.25272202990682135
   272   2      2.0661666858173091      14.119161816275527        1.92953893916694
   273   3      2.0791595688211788      14.297665570497308    0.066192622070716439
   274   3    0.028971761472427891      14.359273720958074      2.1257107729239655
   275   3      1.8968380146274959      12.209772202552863      2.1264601031562957
   276   4  -0.0012740589437492107       11.97972880416296      3.9255882029722007
   277   2      2.0741136330614061      14.173541456457839       6.051221451952066
   278   3      1.8670471637011516      14.214441606636788      4.1535687252800058
   279   3  -0.0055847221707051248      14.217017469271088      6.3228571520711503
   280   3      2.0321391723836215      12.251667634742796      6.3076407621191022
   281   4    0.037113723848920199      12.041757359264766      7.9362056571774211
   282   2      2.1163397107346893      14.157279210488188      10.163677691426214
   283   3       1.978237923819461      14.413010392673506      8.1866648306908143
   284   3   -0.063172009955274472      14.447687513961521      10.113697568912754
   285   3      1.8435929837269145      12.252078343334182      10.108554338288901
   286   4    -0.15859357320406514      16.110378888675296    -0.28398472544244602
   287   2      2.0256465037333116      18.110934475086999      1.9284558679305053
   288   3      1.8846330825135726      18.220930675917472    0.048335806046937657
   289   3    0.032794119241489027      18.265535622396779       2.275013506605831
   290   3      2.0259940350146581      16.219204111397332      2.2320043208733233
   291   4     0.01389995802009792      16.008467252842703      3.9292333832821247
   292   2       2.116945060702522      18.249702456679451      5.9978341341618426
   293   3      2.0390035059942186      18.363186991370466      4.0862540257717184
   294   3    -0.02830089971750047       18.42885308380696       6.044891128784041
   295   3      1.8195774720253608      16.253398184576735      6.1244050204586911
   296   4     0.11173754963605922      16.012737043248162      7.9811907422001918
   297   2      2.0501325089041615      18.228929002461008      10.040127675064443
   298   3      1.8089623000261708      18.173207477752005      8.1427414353269292
   299   3   -0.064069883271263298      18.217779734131032       10.41578793848284
   300   3      1.9456944068891513      16.274863320721582      10.319896755414446
   301   4      -0.136428303094699      20.019360657525343    -0.26137125101011477
   302   2      2.0396271505068078      22.126584598695981      2.0377069047878407
   303   3       2.038990717435321      22.503384633333493    0.061515317368538186
   304   3    0.020480672722707427      22.487834903380932      2.0319994456127208
   305   3      1.9313256386401494      20.250151881318704       2.036568565229063
   306   4    0.011020621870270171      19.985118891872514      4.0284767652808249
   307   1      2.0923762735237168      22.222729660039125      6.0380586540536578
   308   3      1.9370447542763591      22.384130836235894      3.9931515418732428
   309   3   -0.047402676323322679       22.30469293585249      6.1947109912591358
   310   3       2.044480134879358      20.188237642599852      6.2492138665487049
   311   4     0.37374180719337113      20.401200838764776      7.9116519944560295
   312   1      2.0190337036078363      22.202807644576239      10.127221299107763
   313   3      1.9708105079717357      22.382323403762982      8.1036025929134148
   314   3   -0.061697499933015168      22.430811931090755      10.212744211628548
   315   3      1.7829668946496984      20.187256386868764      10.148961384789963
   316   4      4.3885847574118539      12.118616922891526    -0.18736183275114882
   317   1      6.1309945998708235       14.16340344282564      1.9862592838232345
   318   3      5.8689949005655961      14.186044039776377   -0.046950328676975489
   319   3      3.9573105939875268       14.16135086521413      2.2574340165036975
   320   3      6.0089801459902015      12.123104675755606      2.1800959449030297
   321   4      4.3161557595612834      12.191594437919987      3.8387400218461982
   322   2      6.2108535244726433      14.207125250337244      6.0340035993614558
   323   3      6.0425041423465249      14.268090952860977      4.1239765455349806
   324   3       3.981180156588894      14.318312395280298      6.1280447282300692
   325   3       5.863323929065384      12.213321546510542      6.1226976918498526
   326   4      4.2630555402307841      12.067065144799416      8.0171904465969615
   327   2      6.1683559540440269      14.158684329887496      10.107267017230082
   328   3      5.8711406025285653      14.194242750707328      8.1589345766622241
   329   3      3.9990650408414337      14.218643510134527       10.25887415265006
   330   3      5.9962136210623855      12.246820853471441      10.160874837143414
   331   4      4.4417940624404917      16.152040557529297   -0.086105415862011175
   332   2      6.2503668930558778       18.23324006936058      2.0174235578674868
   333   3      5.9981138943406949      18.279393656919382    0.050039660091350593
   334   3      3.9381018728412123      18.321901453013052      2.0320244298310501
   335   3      5.8580478168588535      16.264248413083735      2.0017689224939823
   336   4      4.3861521366391996      16.148624552724826      3.8742914876996384
   337   1      6.1363904494019579      18.175805851549377      6.0593016294772788
   338   3      5.8561554751106373      18.197601204279245       4.002919188514559
   339   3      3.9853259245581101      18.118033892707313      6.2248481022553346
   340   3      6.0317671994832658      16.144603656479724      6.2260441936908038
   341   4      4.3642173809732201      16.293030586458755      7.9525214552944572
   342   2      6.2354333998037434      18.215344487865789      10.157320259441834
   343   3      5.9659909548509589      18.254876983444888      8.1839705472415023
   344   3      3.9372031939606327       18.32507644838849       10.09052348176958
   345   3      5.8868834098282559      16.220606644100645      10.136145825641227
   346   4      4.3583539541310312      20.034029860636519   -0.078636167743114882
   347   1      6.1296884346313965      22.225448184872022      2.0055179085590602
   348   3      5.8548574761454013      22.313061672624322   -0.044726654869460029
   349   3      3.9673976190897382      22.384711166834595      2.0960557465830036
   350   3      5.9408969808786427      20.190256905757085      2.0922619422692255
   351   4      4.3813258668494566      20.077526112649359      3.9441186172037006
   352   2       6.114794700710072      22.135283303797028      6.0427657298923618
   353   3      6.0463816433857946      22.374334328309121      4.0787512769537999
   354   3      4.0961455894761425      22.500806864316935        6.00974964347194
   355   3      5.8909061995101935      20.235739859219038      6.0418919422312918
   356   4      4.3923292733957719      20.187606420612809      8.1396628209647055
   357   1      6.1324772272990744      22.234344286497425      10.069427958406331
   358   3      5.9012850135222514      22.250985340937415      8.0386178461006654
   359   3      4.0358383564513307       22.35571058351281      10.195478534940593
   360   3      5.9331484948625333      20.182937020598914      10.149409104351317
   361   4      8.3780129649678905      11.955746260411702    -0.22837698802702522
   362   2       10.18258446736386      14.057309336486201      2.0204359123229465
   363   3      10.158889696135445      14.480258557055372    0.043689278068554604
   364   3      8.1468460049537939      14.429319072134463      1.9518297146800923
   365   3      9.9813060878791422      12.158513183768628      1.8598356508545022
   366   4      8.4037752162902528      12.051255499718399      3.9788582880264003
   367   1      10.150527961650941      14.134863401009493      6.0510877000294494
   368   3      9.9462926204625894      13.999694499277934      4.0120615828900412
   369   3      8.0689172757407146      14.121847667368904      6.2391116554068269
   370   3      10.125536772949815      12.125155823509047      6.3986321535281938
   371   4      8.4315235744377404      12.009162721951089      8.0327432816605473
   372   2      10.274122713076856      14.105201000029153      10.166843029680022
   373   3      10.131553741286346      14.496419018417761      8.1874720198605004
   374   3      8.0484427183906213       14.33522241983192      10.046572747169138
   375   3      10.014645222808914      12.212278240717874        9.90149770020132
   376   4      8.3522892022184241      15.985053887519507     0.10351375273126009
   377   1      10.177182691171582      18.195456262433201      1.9790027657731368
   378   3      9.9764491363094514      18.024928486105157   -0.057628495746794052
   379   3      8.1100651584675454      18.156456143466027      2.1337438732442662
   380   3       10.16351060846209      16.186680160335346      2.3148940404673852
   381   4      8.3867854084391702      16.000273591391526      3.8395778541007739
   382   2      10.185011742088124      18.106290188183056      6.0625055506199805
   383   3      10.161521791036263      18.523912076017595      4.0934893652906039
   384   3       8.151051784940023      18.454334538692969      6.0147766884648659
   385   3      9.9905153116124801      16.201987214129591      5.9184882173247217
   386   4      8.4377268915890689      16.120192483689873      8.0211818964782484
   387   1      10.169355948616275      18.189235724453624      10.100929978883531
   388   3      9.9706840266564036      18.033430383294576      8.0600371004587164
   389   3      8.0936089795323287      18.189120186633524      10.262534939220917
   390   3      10.114295262144775      16.170034346627222      10.450620854986965
   391   4      8.3843830914319639      20.053808115440674    -0.21205450888845823
   392   2      10.139805839610711      22.113050082096681      2.0218449299335832
   393   3      10.149553025935642      22.583258777975903    0.036941643290361377
   394   3      8.1442527292351432      22.458391672953429      1.9282893114419379
   395   3      10.065456847012873      20.236142667287773      1.7767364039031301
   396   4        8.37319633577712      20.059573139661612      4.1683918223226426
   397   1      10.140035225707217      22.256086105133416      6.0379935171181671
   398   3      9.9483263653243394      22.074186491524941      4.0006431388337065
   399   3      8.0431507350061615      22.221705490106828      6.2088104460685196
   400   3      10.150884685565382      20.235391883784391      6.3585266087194467
   401   4       8.380344824509864      20.045620058828487      7.8972934685098268
   402   2      10.150143462900363      22.116805813141941      10.141547881024414
   403   3      10.153675459688808      22.557691175553462      8.1410991057732485
   404   3      8.1498571295500337      22.462103430041253      10.036209403717351
   405   3      10.069567078435009      20.237501467555987      9.9026091419738833
   406   4     0.12942971914571516      12.045989640975078      12.027147598915583
   407   1      2.0370299182336864      14.168374553059097      14.131125527197051
   408   3      1.7630123133811526      14.201884193655774      12.103333093000195
   409   3   -0.080994079431744873      14.171000369466665      14.420254802999844
   410   3      2.0009131291995517      12.131196061977921      14.352316322868436
   411   4     0.13888917399756021      12.161699273538007      15.847249663287112
   412   2      2.1016836720532721      14.110100843382195      18.153209398966258
   413   3      2.0171325666647806      14.341510124197999      16.278611731223069
   414   3  -0.0037776681596823803      14.396568757477194      18.276455227637395
   415   3      1.8428035106530829       12.18704702083758       18.25489063885589
   416   4   -0.028261623625450975      11.982758989281908      20.050364175773581
   417   2      2.0523015845501518      14.103362492410486      22.177618300464367
   418   3      1.8557629757863903      14.181546502621794      20.300767934509881
   419   3    0.046040167238464748       14.15381323568902      22.543371313841796
   420   3      2.0131145534181423      12.190574045175863      22.473448885251607
   421   4     0.11885199624166919      15.990307921272112      11.997780134075555
   422   2      1.9963444544437932      18.175310436347395      14.110099736281844
   423   3      2.0299197067650829      18.382054056162694      12.220215900635964
   424   3  -0.0097531006367228973      18.480131361325885      14.221850631759835
   425   3      1.8169921657944981       16.28816268652276      14.213229184790986
   426   4    0.042282123349201027      15.949524733016904      15.984135874346656
   427   2      2.0415653973312682      18.126799997140374      18.152265805057851
   428   3      1.8579435218795464      18.260705465047433      16.273869626652886
   429   3    0.057356524982033641      18.177861974880425      18.496724765953637
   430   3      2.0713231626927291      16.238151649856935      18.397143846481576
   431   4    -0.15865078202113689       16.11690769961141      20.052032606334542
   432   2      2.0455425629071491      18.123818349966545      22.180366856061717
   433   3      2.1360736641418083      18.369308526238942      20.296350787339094
   434   3    0.072061518815819195      18.379998316797227      22.312171108743353
   435   3      1.9239659872510912      16.215323604665251      22.325003142961094
   436   4    0.038941150162561701      20.154787651301231       11.87962312240268
   437   2      2.0280518432734502      22.211479310361376      14.102814073503838
   438   3      1.9526946781092298      22.323130694484352      12.225808774878839
   439   3    0.067782580432648246      22.339146268234494      14.352528616546973
   440   3      2.1127682256542406      20.325558965485669      14.352456350047706
   441   4    -0.25203847149207276      20.176715330012438      16.181973629994229
   442   2      2.0386995500223097      22.171365084268572       18.16052264653695
   443   3      2.1016162918342509      22.468159626819816      16.286903428865894
   444   3     0.10155343823505289       22.53057611676628      18.249501848587045
   445   3      1.8995397310757194      20.296724677169671      18.285042509188855
   446   4     -0.2724219036886828      20.054260174912912      20.116874234445955
   447   2      2.0372970075101602      22.189337604083825      22.234066550034456
   448   3      1.9155908701477198      22.351118550720859      20.335258155902199
   449   3     0.04187990889051578      22.367561290879213      22.490134817403987
   450   3      2.0420853538420021      20.307779234648425      22.447799319911425
   451   4      4.3147266103900268      12.098627249889832      12.321310175528039
   452   2      6.1747863214842749      14.205190432120745      14.223306149815253
   453   3      6.0371328909165918      14.251653685155059      12.133014096115152
   454   3      4.0496075761029084      14.403293806240454      14.093549905101327
   455   3      5.8735765555872108      12.226294141977929      14.143230714740191
   456   4      4.4207543204611666      12.098414614054287      16.133825038306611
   457   1      6.1113471593356463      14.145201666779677      18.202372725368523
   458   3      5.8788922738122658      14.181145398215499      16.160881406880335
   459   3       3.965682400444543      14.154169088333678       18.36429237155696
   460   3      5.9514744630423007      12.107762818648006      18.258143142455058
   461   4      4.4647593945763147      12.093890126628324      20.159552661749156
   462   2      6.2430754542629314      14.182949678557002       22.26841112347693
   463   3      6.0083920730071698      14.239704188744064      20.302518731693475
   464   3      3.9578677526470161      14.245479248098437      22.260254367902945
   465   3      5.8954254359528058      12.220262008932584      22.268018825920759
   466   4      4.3329247549039831      16.149201801454506      12.305278540764775
   467   1       6.115244188993012      18.244472145297134      14.153213497143321
   468   3       5.813650479063881      18.253964347109473      12.102555199833539
   469   3      3.9227353263076226      18.194446533176936       14.39243503086499
   470   3      6.0126863297477593      16.205023625119921      14.177423631266329
   471   4      4.2126283509291715      16.011948048596789      15.924661472299803
   472   2       6.158433210956944      18.136055340202287      18.194188468024407
   473   3      6.0438710199065877      18.416963919984731      16.278090888357713
   474   3      3.9742346028518938      18.437336445254477      18.200346727879872
   475   3      5.9014395566092741         16.253723492913      18.230760837937069
   476   4      4.4316383466860882      16.091653668262701      20.232287519666087
   477   1      6.1278027819805532      18.189348546335818      22.241123138677487
   478   3      5.8061445718201474      18.246929152707992      20.205188496585365
   479   3       3.955036726513256      18.302700709309342      22.460267624892648
   480   3      5.9240905736199583      16.159928574627823       22.31016479049897
   481   4      4.3394768197412406      20.227529452031479       11.94547859941761
   482   2      6.1683848563474308      22.297270779080439      14.082591102739606
   483   3      6.0329200511470233      22.322289482453257       12.17839452373679
   484   3      3.9861937523676652      22.498027664140523       14.21889187386461
   485   3      5.7949878367241379      20.347995351881099      14.186042662090637
   486   4      4.2488119021463699      20.043245218782037      15.966001661298089
   487   2      6.1094969566133361      22.249600806112948      18.188612429130149
   488   3      5.8675192148809083      22.272135594995024      16.284684868022971
   489   3      4.0009710221142347      22.327860875769048      18.478476969711579
   490   3      6.0311343071983314      20.339278255369557      18.397876527663072
   491   4      4.2591780314629375       19.99759807773582      20.230264525303038
   492   2      6.1622531146767914      22.217965139261132      22.302349844768919
   493   3      6.0261472805145067      22.460962139646533      20.312203944538457
   494   3      3.9690620440408488      22.488589478375186      22.282079685776036
   495   3      5.8900536476271386       20.32148711066252      22.254948005183198
   496   4      8.3738323194184154      11.954781986483985       12.24898057916559
   497   1      10.150136314892906      14.151572751997612      14.148067422714583
   498   3      9.8966355060374482      14.017117073100621      12.101616179715329
   499   3      8.0718277492631483      14.156455353510943      14.288414036678271
   500   3      10.131155707283709      12.144423260473014      14.456205919227438
   501   4      8.3547394365568071      11.934132124347322      15.969870978040866
   502   2      10.115576773300457      14.001806094739266       18.22816045809067
   503   3      10.149213430310324      14.499646379738108      16.234827125411041
   504   3      8.1378303653986013      14.405708879263029      18.130358865611733
   505   3        10.0467906191236      12.132482307624569       17.97160604810249
   506   4       8.332552778306253      11.887340141194276      20.322772302384976
   507   1      10.159113886271429      14.146023550358137      22.228297203754586
   508   3      9.9793318272434615       13.99705763577342      20.187380378446882
   509   3      8.1063683997158247      14.151387374922372      22.403016234501465
   510   3      10.140856189853823      12.141488882038193       22.55916767956284
   511   4      8.4380764729142985      16.070542666602805      12.117680909161979
   512   2      10.168775553186496      18.115271395371042      14.226021671287608
   513   3       10.16292284966331      18.525974209936511      12.210359245208737
   514   3      8.1451887726418217      18.485974279123784      14.079156347900863
   515   3      10.030790023040788       16.22135861317096      13.940146572564231
   516   4      8.3499678311071257       15.99416014634591      16.275216297318426
   517   1      10.122568647408675      18.229904995468438      18.197571961127888
   518   3       9.936889166611099      18.036853997242726      16.167720734151647
   519   3      8.0329680437998032      18.218774578360655      18.388486993809234
   520   3      10.120634474659219      16.211979073953923      18.512720440628676
   521   4      8.3567787762585883        15.9996534520134      20.025192197544634
   522   2      10.128036119168657      18.073947919749454      22.281897527087526
   523   3      10.161032773506747      18.556908986074507      20.281476352282692
   524   3      8.1452900726149693      18.443698282980829      22.184512523620359
   525   3      10.078202476359753      16.199426067917724      22.005201426624577
   526   4      8.3779491516010083      20.051905619657582      12.249903019382359
   527   1      10.124622696939966      22.253368686285121      14.167815066898999
   528   3      9.9519023528649271      22.094512613927055      12.118346003532283
   529   3       8.035232297225372      22.167476343414325      14.342445559652722
   530   3      10.152550993556716      20.248372900584624      14.495685481318768
   531   4      8.3103387966315996        20.0686824089086      15.988316073698833
   532   2      10.235014471112851      22.180789565386203      18.237299861305022
   533   3      10.101585122091535      22.630093978602108      16.281503880396194
   534   3      8.0083031282745054      22.473638479214575      18.180132959306675
   535   3      9.9689924920712709      20.307138594061151      17.993104931719753
   536   4       8.358989554796425      20.045905639521347      20.295228074003727
   537   1      10.129676702042895      22.271112187851298      22.233628934752584
   538   3      9.9040471595326878      22.108326289784689      20.187120535586594
   539   3      8.0335976847174404      22.267831045047711      22.423328947567462
   540   3      10.131348517094555      20.256141211939919      22.566773167306749
   541   4      12.188262771694209    -0.37166090493623039   -0.047177188846449558
   542   2      14.150049659002024      2.0234206367095275      1.8636951845317777
   543   3      14.247070346367515      1.7722890829306803  -0.0052509371528507926
   544   3      12.187255623483106      2.0361974441957993      2.1581247785249342
   545   3       14.14025386042999    0.047471773028158859      2.3622713377200339
   546   4      12.098583423717685    -0.05252243263911701      3.6676315842853979
   547   1      14.153285975717202       1.999990340738246      6.0440794943380958
   548   3      14.142023101427165      2.3612228736589587      4.0438630322692006
   549   3       12.11050108784079        2.10139436268924       6.112922773475912
   550   3      14.338792060965851   -0.047417317909569906      5.8683714497043713
   551   4       12.17934854928796    -0.38387288325740765      8.0671562799935099
   552   2      14.163753864125347      2.0370145817926302      9.9544325718430891
   553   3      14.250677124009082       1.738022591978706      8.0890515845715658
   554   3      12.200149926632585       2.002416213407435      10.260806699878652
   555   3      14.154420133802997    0.037678067744528976      10.459646100969076
   556   4      12.184732543877775      4.0844223709318754    -0.32302482963989043
   557   1      14.145189117952546      6.0535273566970149      2.0045583027059211
   558   3      14.152040888584068      6.3806927037764583  -0.0050549226317116577
   559   3      12.109903148495849      6.1868444253607082       2.050671644388022
   560   3       14.30274877233834      4.0011726129378893       1.811254879742531
   561   4      12.205550239811643      3.7153499375341998      3.9410169781033848
   562   2       14.14977775142005      6.0986717164695499      5.9127705473758985
   563   3      14.233672712545939      5.8066840075716906       4.046223682380643
   564   3      12.191294141143169      6.0839458075197577      6.2194466721858301
   565   3      14.127287981678068       4.097393579300844      6.4168149904054017
   566   4      12.140815511494015      4.0786661104230548      7.7542393206006004
   567   1       14.13811114975184      6.0461869996358084      10.103421761423384
   568   3      14.152926574809721      6.3854254603331277      8.0927310454651078
   569   3       12.09637231937789      6.2261872497072668      10.112793766614869
   570   3      14.270170388413669       3.997272386629195      9.8887676084638301
   571   4      12.192258136261097      7.7456676071568467   -0.094081526509679853
   572   2      14.153583578458324      10.134276347218371      1.8571033380488247
   573   3      14.221572912313221      9.8418171516738084  -0.0060782355872134155
   574   3      12.193769249554224      10.141284725258576      2.1829551703886141
   575   3      14.132857147456422      8.1485117272596224      2.3687506180532649
   576   4      12.137172693964581      8.0896783408575406      3.7000371784655903
   577   1      14.157299995980159       10.10280117345436      6.0561792878205489
   578   3      14.155639257877692      10.443919409055177      4.0485842209167364
   579   3      12.127027460261372      10.212691587653389        6.12164612838236
   580   3      14.322053217165218      8.0544996599573366      5.8602100968204605
   581   4      12.174343515377176      7.7333859988571234      8.0674228398751726
   582   2      14.139338181487531      10.145124913839052      9.9675074414004214
   583   3       14.25407886135374      9.8644663391471656      8.0996952007968552
   584   3      12.188119307506792      10.140369034671147      10.251776868074785
   585   3      14.139997177223846      8.1478044867239721      10.457689029046902
   586   4      15.958651308422464    -0.24096734019906432     -0.1949645986502597
   587   1      18.186787521342406      2.0137469535142589      2.0222798717702517
   588   3      18.372138782054158      2.0533519093309245   -0.024194919916621184
   589   3      16.148302292647376      1.9526157023160846      2.2589892949551915
   590   3      18.430245855274453   -0.030640044973111982      2.0873820620068373
   591   4       15.99155033033791    0.072301261592727512      3.7963662976440355
   592   2      18.068525692800556      2.0422665621511107      6.0989083816029384
   593   3      18.424395596262638       2.051803160972244      4.1320514504485795
   594   3      16.203797465449853      2.1625140376381506      6.0411188488500196
   595   3      18.310598548035557    0.068000212416356773      6.1221845640769024
   596   4      15.929653251035216    -0.19304700178807635      7.8797421699794707
   597   1      18.179470610286621      2.0143242870200382      10.096742779700397
   598   3      18.375127167019549      2.0583019468008561      8.0641113075986564
   599   3      16.149485300949571      1.9623591292041318      10.343735921744603
   600   3      18.421944764205147   -0.036423296148817272      10.195013535661849
   601   4      15.946366351927281      4.1427310447420167    -0.19636319150030659
   602   2      18.066028061765266      6.0791636249730878      2.0594370066908514
   603   3      18.410774512651816       6.098343484617522    0.088092869947122066
   604   3      16.197840346288388      6.2028631385830977       1.993862457993548
   605   3      18.318536225270922      4.1132810966751201       2.076183090551317
   606   4      15.937490187415211      3.8331078059007697      3.8432901783794082
   607   1      18.175804753447068      6.0645210089223296      6.0644252698938583
   608   3      18.351155354992816      6.1135412356529466      4.0258494449237601
   609   3      16.141872416850529      5.9916292514601865      6.3067256733918997
   610   3      18.434255595049393      4.0190674067505281      6.1156810965049546
   611   4      15.937728503402948      4.1713175325944238      7.8936882051444526
   612   2        18.0621161589482      6.0694252754781051      10.149313196085673
   613   3      18.415674238823055      6.0893498292632628       8.177072492275677
   614   3      16.196964373330925      6.1835804168666444      10.079839229995804
   615   3      18.335358885526563      4.1056033879592189      10.161744272136554
   616   4      15.948393368641534      7.8767976007857454    -0.20472882311473431
   617   1      18.180165506348491      10.113036297195523      2.0141650033396279
   618   3      18.359915187622441      10.142993803542737   -0.022333790320672071
   619   3      16.143330573278156      10.041583572671247      2.2502571749925897
   620   3      18.421013898012713      8.0654369158839785      2.0739170298725287
   621   4      15.951539657157285      8.2083333265072635      3.8440013269794089
   622   2      18.066231006583976      10.123061592399566      6.1061741619373358
   623   3      18.400729372289714      10.138963002737556       4.134150467325318
   624   3      16.200389975477272      10.253605909809151      6.0489785094714685
   625   3      18.303814783848054      8.1586869987657078       6.132386726484401
   626   4      15.931972897345128      7.8939534484317964      7.9070060999896512
   627   1      18.169985820738418      10.101254961344781      10.110756942588486
   628   3      18.357459603172671      10.156791790780314      8.0759823346422497
   629   3      16.144315706695266      10.044148600365052      10.352848523324614
   630   3      18.424378280632538      8.0561384777959635      10.156804721492833
   631   4      19.834688840836954   -0.029491164253123738   0.0017595106379066619
   632   2       22.23037265071666      1.9318744782758006      1.9784737235444176
   633   3      22.462469483355608        2.10620352814311    0.065648947607740094
   634   3      20.372413135682027      2.1788483067923634      2.0550504593758681
   635   3      22.305403547431499    0.053162713700904647      2.1437150137906094
   636   4      19.840689345011931   -0.065894775176172246      4.0183507641255591
   637   2      22.263557822052757      1.9252355124623461       6.009678533920547
   638   3      22.352738694342388      2.2148956389874357      4.1044170640531599
   639   3      20.381239548271086      2.0341750711505329        6.18121082966233
   640   3      22.439921590085408    0.057741218767151332      6.0853649457143844
   641   4      19.892895413193944   -0.065459502092229949      7.9591641404746793
   642   2      22.244765705909497      1.9538541007391299        10.0385098747497
   643   3      22.463975247448062      2.1011673779075073      8.1408624076633469
   644   3      20.379706458544575      2.1273328853572013      10.172316977442581
   645   3      22.316092496893891    0.067268620772492196      10.305518693254324
   646   4      19.856002936258001      4.0174236247936532   -0.025719022915819009
   647   2      22.235341064542204       6.022002084249312      1.9739667960606821
   648   3      22.341463640029307       6.263561618548561    0.081655566287920298
   649   3      20.362458916122932      6.0916715216623452      2.1455833694235662
   650   3      22.466651791134748      4.1380739306824719      2.0834115645248144
   651   4      19.857282440429238      3.9779757000592806      4.0018050769126408
   652   2      22.201798558285589      6.0178754750866084      6.0290752234673066
   653   3      22.464127642020276       6.146330212293015      4.1230533499573774
   654   3      20.349175593849793      6.2151463985500017      6.1089832256364511
   655   3      22.332789221042233      4.1279807138502758      6.2346833596148246
   656   4      19.846384118546403      4.0149136448155627       8.066337816717045
   657   2      22.236456425909441      6.0060390466734095      10.070780714295637
   658   3      22.339677331096588      6.2427224335241851      8.1538326014737397
   659   3      20.361592184946517      6.0818762996815563      10.209595844729483
   660   3      22.456597346162038      4.1134204941112111       10.15877385961954
   661   4      19.836354725336133      8.0555432937981379    -0.04154146220287451
   662   2      22.200346205715331      10.073983455684601      1.9831728883856534
   663   3      22.434261774007144      10.147580923655029     0.08990032765263721
   664   3      20.348490996841299      10.246121145051175      2.0881943148142077
   665   3      22.335352247452757      8.1728469156849997       2.226126922074315
   666   4      19.836830027247427      8.0668487947997427      4.0245982670567031
   667   2      22.242099045784993       10.05372254232409      6.0415579691297436
   668   3      22.349882131461818       10.29373365260021      4.1343356407517273
   669   3      20.362846202085617      10.115810162046412      6.1816162373467272
   670   3      22.476468712099241      8.1641526198824064       6.119928994830282
   671   4      19.838405746807073      8.0403596733979796      8.0776803475621275
   672   2      22.236552926365452      10.046834007918697      10.068910088199306
   673   3      22.457213148782774      10.196433231563338      8.1510640913359378
   674   3      20.364182375826481      10.280713403667257      10.150716222072294
   675   3      22.303118996550385      8.1617843680415749      10.246148998172151
   676   4      12.132604175077054   -0.022313438239444212      11.763535045244874
   677   1      14.170532156403054      1.9659062274563495      14.150225875435865
   678   3      14.163607226149082      2.3445160434638499      12.138623592515501
   679   3      12.111847109591965      2.0787963559837426      14.197846126107624
   680   3       14.29632049481472   -0.062629516689567288      13.888385836695008
   681   4      12.229239690114365    -0.28362550998987157      16.151026034125774
   682   2      14.168342725503379      2.0473019106456491       18.06539590083511
   683   3      14.212490111660101      1.7384820466832616      16.199470420896485
   684   3      12.188569646706405      2.0134462080550533      18.378532999483262
   685   3      14.136922872539399    0.043067822690579759      18.541295832805947
   686   4      12.180522062284661    0.028498373441854772      19.919062839009332
   687   1      14.169084670565205       1.991815774427377      22.240977778222867
   688   3       14.13442924202236      2.3770527137630126      20.236455125119502
   689   3      12.122371882399561      2.1047122044086688      22.308678481808471
   690   3      14.296269825021849   -0.043370449345588265      22.048559641513883
   691   4      12.206702488261669      3.6892626509407487      12.046726160505461
   692   2      14.160918744821313      6.0787924700527061      14.004070114561864
   693   3       14.22303130530884      5.7886290810899093      12.139535948378736
   694   3      12.208084705477916      6.0698179164653991       14.32551037001817
   695   3      14.137199598070724      4.0802435576809923      14.508879909394192
   696   4      12.154838186454553      4.0146710058882071      15.837653953168815
   697   1       14.15242930188195      6.0467815991242793      18.192383932437391
   698   3      14.165314357995431      6.3841827548347911      16.187345870084961
   699   3      12.106170919125793      6.1411702533709187      18.238956408667871
   700   3      14.303610757241858      3.9987146193874161      17.997068617606978
   701   4      12.208402687862348      3.7372367947378811      20.117353868259386
   702   2       14.16636212901628      6.0818527439638954      22.102497392037936
   703   3      14.226243995859353      5.7722664639032599       20.24076359678428
   704   3      12.200632702983894      6.0481076977608579      22.430386148976702
   705   3      14.139126666333313      4.0885959245488532      22.621361731803123
   706   4      12.105691998754651      8.0688492335201634      11.770546622376042
   707   1      14.136721481638917      10.091220349967209      14.147468326241832
   708   3      14.161678204988679       10.42650508118763      12.141207048961785
   709   3      12.090779999638199      10.253643569849247      14.164734282585915
   710   3      14.327458784077802      8.0406348916087129      13.960569211693226
   711   4      12.190987864244532      7.7351317630948948      16.115915607602918
   712   2      14.145752071377574      10.130585778493298      18.053061329346715
   713   3      14.224704269710768        9.83275190963084      16.186404774014161
   714   3      12.197774116271834      10.113211953817496      18.360459629375598
   715   3      14.133588208601887      8.1305249040645524      18.555078932875283
   716   4      12.128842853581265      8.0714691816915689      19.892930148205725
   717   1      14.132710535128911      10.089113146394528      22.245887503849044
   718   3      14.164858173070456      10.410258761540653      20.236016593766468
   719   3      12.091727145718158       10.24793535365399      22.278644880711486
   720   3      14.295657211869599      8.0383586267372156       22.06265278321462
   721   4      15.962039047982691    0.099224417790920602      11.940011083304796
   722   2      18.102595780699478      2.0060063367958012      14.222279906646509
   723   3      18.429810149116278      2.0576894065616602      12.219358906793937
   724   3      16.233749745035901      2.1812632531679816      14.121738797036766
   725   3      18.263663475692006    0.027980331387923257      14.138968420332846
   726   4      16.073057554512836    -0.24973623413763421      16.275925181108317
   727   1      18.202908189784115      2.0372120609454334      18.204667699845611
   728   3      18.363413087913468      2.0606123010815565      16.161105564875058
   729   3      16.153661172165208      1.9315080737144055      18.437532548225928
   730   3      18.437575749566573    0.012536181982591607      18.282201495214537
   731   4      16.039865908589519   -0.024766703754946249      19.960267647437192
   732   2      18.081203853750619      2.0372098725560805      22.304315928117131
   733   3      18.447388985110095      2.0672048824642517      20.330143708256205
   734   3      16.216633985458092       2.168957385980522      22.238231459618589
   735   3      18.360322237591006     0.07965554669743434      22.300827918440952
   736   4      15.965178707772802      3.8094060948293982      11.973039626822386
   737   1      18.184927017361364      6.0557964279865137       14.15177558857671
   738   3      18.356989319557854      6.0996319283905116      12.112528922696638
   739   3      16.152053164768141      5.9712600508096623       14.39463617857816
   740   3      18.446792955286583      4.0046675712485564      14.208002697940266
   741   4      15.967528635161765      4.1489049803562281      15.968096956961721
   742   2      18.071922927399342      6.0816839483948009       18.25223070103921
   743   3      18.419701676943088      6.0824849296060561      16.275428707744027
   744   3      16.206729051220613      6.1923042552232932      18.195427270411038
   745   3       18.32949024007041       4.112832938523705      18.265057692469135
   746   4      15.963390348423731      3.8130029979563327      20.061246250372953
   747   1      18.184690535895896      6.0660509220240053      22.266013339751751
   748   3      18.365766796703166      6.0979321046176214      20.221790125719455
   749   3      16.146260428587688      5.9900268552631166      22.500913248693564
   750   3      18.433567538502977      4.0209590225683556      22.326319807836832
   751   4      15.940299428371874      8.2305567965400552      11.940387701249975
   752   2      18.072260931623141      10.122342234000675         14.193211638685
   753   3      18.409060165582993      10.124343193800431      12.216916202212824
   754   3      16.202173961984702      10.246728495050977      14.139674707791116
   755   3      18.288806484182725      8.1483571555659839      14.219351195564553
   756   4       15.94165568314115      7.8881990497963033        15.9820187493071
   757   1      18.179549037674647      10.101994851219423      18.200562229279747
   758   3      18.367316152144298      10.147421920028417      16.163620055949981
   759   3      16.146747944075269        10.0273288944383      18.437336400551068
   760   3      18.434901501028062      8.0568650067656904      18.262755936076026
   761   4      15.943927225682534      8.2294512476696475      20.031828509617014
   762   2       18.05467967886452      10.118415264735695       22.30667060718557
   763   3      18.394345322231928      10.122974543245912      20.333079935722115
   764   3      16.187898697446148      10.222799324727571      22.253048670166592
   765   3      18.310834515037673      8.1514019229295158      22.337775920508573
   766   4      19.938932382698468    0.061029255992802914      11.985880579826382
   767   2      22.241744135213128       1.954930569072489      14.113578658708693
   768   3      22.374994269223389      2.2232954453467788      12.199766455941152
   769   3      20.367252958602318      1.9987789682035055      14.233776840592252
   770   3      22.511939025998082    0.074070624970078644       14.17065221808539
   771   4      20.002675984121066    -0.16684331634256969      16.450618341703951
   772   2      22.238644298914831      1.9943124951667925      18.132265548676735
   773   3      22.455695115274295      2.0710155648927877      16.230449616163348
   774   3      20.373916519051622      2.1711910413448829      18.249075391401902
   775   3      22.317746789290329     0.10622722837418547      18.351945318686031
   776   4      19.859555972322703    0.041718509074594477      20.201901593650099
   777   2      22.257043623317642      1.9650227400512008      22.217802823987348
   778   3      22.346492812211402      2.1976397312200335      20.320070548704759
   779   3        20.3808386458991      2.0569724499782174      22.380926682594502
   780   3      22.430569542532947     0.06201932102609152      22.320860794134781
   781   4      19.841575510016625      3.9812084702218802      12.112376619145428
   782   2      22.220251706172373      6.0041038296925962      14.088096147307706
   783   3      22.454623274768441      6.1276768919723015      12.173573595970758
   784   3      20.347905467695888      6.2386141982320469      14.198930488270866
   785   3      22.283513360543918       4.107278927665595      14.306460104176962
   786   4       19.85091710450488      4.0395771133132756      16.159266189766857
   787   2      22.256937390922385      6.0243931336524907      18.124433762893087
   788   3      22.303421636282614      6.2293163224735331      16.241510433815908
   789   3      20.377899015355137      6.0638235793664066      18.336552223188438
   790   3      22.490728924154684       4.124226430830241      18.295716324558462
   791   4      19.860467482456823      4.0292315215547463      20.209993665421006
   792   2      22.209223575474063      6.0434997400060233      22.208986680570884
   793   3      22.443732540710471      6.1379804326567351      20.321903907561676
   794   3      20.353430499641931       6.203573863854162      22.326145969625905
   795   3       22.34845404483433      4.1373033116003617      22.447334880275214
   796   4      19.842875915705768      8.0568515738415005      12.122088807746472
   797   2      22.247124549334607      10.059484238947395      14.069894576932676
   798   3      22.314480088572875      10.292609389350327      12.181266252210158
   799   3      20.346011777405849      10.073640922215757      14.245811960736729
   800   3      22.476693662106992      8.1508115058942447      14.182736095245385
   801   4      19.855762969192288      8.0346500131377692      16.111870413238258
   802   2      22.217861973820565      10.065001079337483      18.102222743869376
   803   3      22.374550670858525      10.120643488781676      16.235110282648716
   804   3      20.360345376915301      10.246874717829217      18.301002797852011
   805   3      22.320273655191894      8.1555725707459246      18.418564543711959
   806   4      19.853315472020991      8.0801461653377338      20.196678614121812
   807   2      22.230221392238054      10.116270714167811      22.207673671799395
   808   3      22.353412595523814      10.279777171561285      20.322924234681018
   809   3      20.354395330100861      10.114880031857705      22.376020437918058
   810   3      22.474089324809182        8.17553810371823      22.350619246308174
   811   4      12.118896278794304      12.109474148283994    -0.39025084795685439
   812   1      14.148711911032951      14.150023439725359      1.9901099648716769
   813   3      14.165009152509787      14.475016573663078   -0.017677974518035131
   814   3      12.113542202906633      14.257673437276992      2.0504810613907045
   815   3      14.311190907617306      12.096228119972903      1.8222194132456093
   816   4      12.224683832456579      11.832282153760843      3.9311866511461879
   817   2      14.170230972881814      14.182882748040118       5.908170390702927
   818   3      14.233129819815538      13.897829699542756       4.043384399288187
   819   3      12.200241100384039      14.175678049582501      6.2354713030495068
   820   3      14.132414666044859      12.197210394633389      6.4220900533132879
   821   4      12.160349616709697       12.18757489563033      7.7700080237940696
   822   1       14.17304060912821      14.160291452304829      10.114091909940846
   823   3      14.154225899531355      14.492046095341175      8.1021462402063591
   824   3      12.150900375079209       14.26468736801514      10.177081196732098
   825   3      14.332067159281847      12.107421302556586      9.9129123690828891
   826   4      12.210489277279734      15.849818555735196      -0.104513352828123
   827   2      14.176561927448585      18.257423742187754      1.8295776259547538
   828   3      14.212253326041584      17.941486855073503   -0.028101054454385738
   829   3      12.217141109833884      18.213330950577696      2.1745399659816838
   830   3      14.140392192906425      16.241010539383367       2.344799790814021
   831   4       12.16546657654413      16.198029224250707       3.671325272895428
   832   1      14.154254407068985       18.20573594384852      6.0555592715063984
   833   3       14.18388607819066      18.506824841251849      4.0471883718740935
   834   3      12.117794021174632      18.308326664587295      6.1071915972389661
   835   3        14.2961002026824      16.146992252905619      5.8807977117870953
   836   4      12.247557048321676         15.901035195854      7.9613924712501092
   837   2      14.182732742440708      18.250601941918241      9.9660309774406741
   838   3      14.236453105983822      17.939998180624936      8.1020897820685054
   839   3      12.214806450028275       18.20915110758278      10.293401534193368
   840   3      14.151911074746288      16.249599309801575      10.480820461037462
   841   4      12.147965157359039      20.216924603992339    -0.39968756501649144
   842   1      14.142290578580898       22.23977818277681      1.9801476909278233
   843   3      14.141292147821922      22.606447851780906   -0.017300816406610804
   844   3       12.09439562929904      22.416401664048625      2.0384311856317447
   845   3      14.290828992217813      20.196017629667381      1.8602655577848441
   846   4      12.237865667345124      19.898422452956961      3.9416907794710125
   847   2      14.152452722442654      22.306196350979366      5.9067691954472545
   848   3      14.231842889256489      21.998013941246985      4.0427334534946571
   849   3      12.199781449207121      22.293312627203882      6.2113474147442913
   850   3      14.135453791964323      20.296046254572985      6.4062246380042218
   851   4      12.142443879715236      20.240443402483436      7.7407108902508659
   852   1      14.158883556063008      22.242930419248552      10.121333481322466
   853   3       14.17476991216215      22.571098212745675      8.0989866016333067
   854   3       12.10612564825534      22.403714225161082      10.132623652500937
   855   3      14.309559830492157      20.199167602655127      9.9133712783921482
   856   4      15.939766742904483      12.267896031680992    -0.21371152721238881
   857   2      18.061366351453021      14.174240249129863      2.0554229619234903
   858   3      18.419550887469949      14.189110928772452     0.08226533361802825
   859   3      16.198033936083235      14.288408446106228      1.9885609612143258
   860   3      18.308682995982803       12.20478555672614      2.0784449697672196
   861   4      15.954173949305808      11.928091946067726      3.8334716248617893
   862   1      18.175269880402062      14.149836704461469      6.0643749617862746
   863   3      18.349003715283395       14.19781719501969      4.0234500675769622
   864   3      16.145184513076813      14.093380793945714      6.3096466250146008
   865   3      18.429429004810505      12.106309267921697      6.1163633441360208
   866   4      15.947396688260218      12.241414779853013      7.9093934588938914
   867   2      18.079741782946506      14.170456350594486      10.152483820710442
   868   3      18.415412593493063      14.183039099143002      8.1747309013013609
   869   3      16.211510873980423      14.317012819141281      10.072767940912007
   870   3      18.295100956560898      12.200898927125774      10.174638823831849
   871   4      15.938120307520913      15.995814386208757     -0.2268461533597208
   872   1      18.184635825219978       18.20392883410328      2.0073132630017478
   873   3      18.345622095839698      18.159463271263064      -0.024937480670314
   874   3       16.15154232813865      18.133330773394967      2.2297083768468902
   875   3      18.444491728049663      16.148131662881269      2.0660787951951018
   876   4      15.925241921937511      16.341000292689611      3.8388449569200782
   877   2      18.064256591994496       18.21627106920015       6.100500329769674
   878   3      18.404621498346902      18.227112890921379      4.1282344390264836
   879   3      16.200650467044941      18.348770990378803      6.0564245174383613
   880   3      18.298379665803299      16.252059618935128      6.1288089625359943
   881   4      15.958682429309405      15.974825434966244      7.9106002461602722
   882   1      18.183193379288458      18.213200964195728      10.111503873334508
   883   3      18.361426803467623      18.272174849384136      8.0719520288353159
   884   3      16.157769017167503      18.147288641210679      10.370687490332262
   885   3      18.449426769072726      16.168249229846865      10.148228764645953
   886   4      16.104801321389409      20.314670898159982    -0.37279682119348512
   887   2      18.077957977539242      22.240703346128583      2.0172694725369436
   888   3      18.370006621706981      22.365402909041979    0.079064442534152068
   889   3      16.203370538994228      22.420970323781312       2.017653853412857
   890   3      18.276291352884872      20.296373127273661      2.0853716922342396
   891   4      15.942644948388322      20.053188068073261       3.824980740809079
   892   1      18.185482690431705      22.256541891157966      6.0421509550174166
   893   3      18.375285192915477      22.305023956124597      4.0127269818645672
   894   3      16.153501945350875      22.187084875297806      6.2943015766119617
   895   3      18.439591507451063      20.207986236875698      6.1020122140328734
   896   4      15.944357575789335      20.381996875372312      7.8762026061497883
   897   2      18.107777688129953      22.275426183637265      10.078515353362413
   898   3      18.397934322348824      22.296682349573572      8.1679650707367557
   899   3      16.236473401002286      22.391392736725145       10.11593625544989
   900   3       18.31058123197883      20.330628644949375      10.230077466751483
   901   4      19.835833721235023       12.12680701662585   -0.042654646144324501
   902   2      22.241737365413066      14.101434865874717      1.9794563732351178
   903   3      22.331429119704772      14.283712895578553     0.08027639311226184
   904   3      20.367445727533589      14.148466334298583      2.1426387655613168
   905   3      22.477644216481078      12.192144372007377       2.102925968476351
   906   4      19.834044252301855      12.097792988582686       4.024731639201276
   907   2      22.190657307467667      14.101664690386746      6.0296709649347102
   908   3       22.45437431857642      14.212457412691966      4.1199664796580038
   909   3      20.328562945043366      14.311916663042794       6.080941527755944
   910   3      22.295948745763955      12.208402058599489      6.2339437174943377
   911   4      19.846138319607533      12.092386781639581      8.0842875086158337
   912   2      22.240030543361964      14.096780251104816      10.037416721591187
   913   3      22.247542214519523      14.341063917505105      8.1404690545481788
   914   3      20.330682257978584      14.160220530768754      10.264016347125123
   915   3      22.442150516393827      12.217730545466408      10.158468182286404
   916   4       19.84057627964464      16.165165049191394    -0.03010263696297014
   917   2      22.199544356148575      18.139464252601201      1.9857687196417628
   918   3      22.474141969468782      18.225667137611474    0.099054162646644864
   919   3      20.341890395853934      18.327479665000396      2.0325968730269435
   920   3      22.328608175995765      16.229012665474354      2.1955096352290306
   921   4      19.838898783663922      16.151222322805769      4.0419500416570351
   922   2      22.263851198508146      18.138453127765636      6.0339047903615493
   923   3       22.30933542440571      18.400453839231883      4.1056717637899984
   924   3      20.349030513676414      18.217459568507298      6.1904419110728215
   925   3      22.433894011828105      16.242425193180864      6.0902912399206457
   926   4      19.854007748847792      16.116906432993503      8.0416808045205386
   927   2      22.250043105939181      18.123502019032944      10.026637553699523
   928   3      22.382348246848821      18.260944497274298       8.145133290110417
   929   3      20.350694284502961      18.436802517731515      10.174214856388661
   930   3      22.174561535091321      16.250932568872809      10.294341394937879
   931   4       19.93373346195359      20.051134858852304    -0.17894982471578733
   932   2      22.223786897736279      22.175732006732265      1.9679543080439481
   933   3      22.352840571407786      22.433637176689128    0.063042514820834353
   934   3      20.351575263169259      22.259327937679121      2.0986793103368044
   935   3      22.457913682656557      20.287085506676444      2.0531028579740238
   936   4      19.830973736357368      20.183373757486819      4.0252231691277514
   937   2       22.21696818490874      22.171643950317343      6.0060907128662535
   938   3      22.419413487454491      22.324364941774022      4.0751054393069301
   939   3       20.33846538027753      22.459740693460375      6.1200999043527498
   940   3      22.218505554424624      20.293678671155416      6.1868423813229665
   941   4       19.91902219386786      20.114746086487123      8.0017327693559324
   942   2      22.246182209667943      22.190163856865247      10.043255020740997
   943   3      22.279845986288255      22.416417109805518      8.1521406368888876
   944   3      20.336000272341444      22.297909995914086      10.308750639099754
   945   3      22.403482447897343      20.299050766513016      10.230878983909431
   946   4      12.168963618924421       11.76555434407358      12.135136947845602
   947   2      14.144459904547748      14.190811619300439      14.025897562766701
   948   3       14.28158897506923      13.925883752891499      12.156872349763868
   949   3       12.19665471985396      14.193084164786901      14.293667720248285
   950   3      14.138703628456096      12.194746803922998      14.503201102943679
   951   4      12.102037054417188      12.085331570049094      15.822627881477212
   952   1      14.123317134038563      14.131697559077031      18.193219758536493
   953   3      14.150260355044214      14.480226635265502       16.19327384180848
   954   3      12.077821947164761      14.315798254315311      18.217250764057404
   955   3      14.321076695689891      12.086825550544928      18.009823919852515
   956   4      12.164176797805501      11.767603756192305      20.192410264760699
   957   2      14.157283659272688       14.17803497367848      22.095044685052535
   958   3      14.233551527056454      13.893644639203883      20.228680674550528
   959   3      12.202066581464006      14.171024265532735      22.400305353899203
   960   3      14.140600344360164      12.185677857307365      22.601303702124028
   961   4      12.201316515190991      16.273485541139294      11.840331499171336
   962   1      14.166620936783026      18.218198924276336      14.164918860406736
   963   3      14.151301762109092       18.53994169851028      12.157800551337205
   964   3      12.115914778445765      18.357787033169359      14.223094773992491
   965   3      14.345782817153301       16.16363553112118      13.975735186896516
   966   4       12.16516429682879      15.819242891647926      16.176577398897098
   967   2       14.10509939009231      18.216218540401869       18.10947045199034
   968   3      14.337827923379368      18.037545628993048      16.212882388458642
   969   3      12.176351122730777      18.289779193800875      18.295331671703522
   970   3      14.126821919176271      16.245146957081282      18.538971790989237
   971   4      12.057854698729329      16.106571576543974      19.890673497952463
   972   1      14.139744024652133       18.19049704611783      22.228006738903112
   973   3      14.142912011764853      18.536037856291465      20.221307114816071
   974   3      12.094619123224865      18.383578769414903      22.257065931122302
   975   3      14.297838455614096      16.138683116245044      22.054990591839037
   976   4      12.200252946709998      19.908310999886055      12.077388101951506
   977   2      14.082817839891904      22.319085273237054      14.050748518177683
   978   3      14.253699021452579      21.967214309925172      12.184014734260979
   979   3      12.174081905399111      22.315104838452157      14.325748293963885
   980   3      14.167190605142958      20.331419479518821      14.544386170539164
   981   4       12.12452290579451      20.196971251449707      15.867821028335237
   982   1      14.195566192518221      22.232009526898015      18.194605776199577
   983   3      14.223929902827015      22.622415046256009      16.165833364695107
   984   3      12.133974061159547      22.362627937210682      18.227117210039189
   985   3      14.381019032685334      20.204464128690873      18.011626550964067
   986   4      12.161520391634612      19.899909468664703      20.250855303846507
   987   2      14.151044247260142      22.308577544205644      22.105025920819859
   988   3      14.286506560756463       22.03394908710904      20.233557263106068
   989   3      12.193124853847634      22.277530895741119      22.383744967797224
   990   3      14.180148943358429      20.298918120945221      22.563042569593659
   991   4      15.934931841541388      11.941749867487864      11.948878397897923
   992   1      18.181086860996565      14.140995871769672      14.149403200239551
   993   3      18.323377581509753      14.226461741207748      12.117908674444926
   994   3      16.152989384232335      14.088263774217975      14.424792855365773
   995   3      18.437742750272001      12.101126419474747      14.206476909099122
   996   4      15.948903817224195      12.259298304714859      15.981299610817148
   997   2      18.061816161768547      14.161695926748319      18.250665855858028
   998   3      18.435192407361729      14.153971648077409      16.284195856520682
   999   3      16.195248983006849      14.286008300332631      18.178028966604767
  1000   3      18.303718069422633      12.190715538546023      18.281721471997102
  1001   4       15.93308661765656      11.928013061424435      20.028177076646479
  1002   1      18.172791725248768      14.134975378476675      22.260292243569868
  1003   3      18.346029428555063       14.18647843092824      20.221498934614232
  1004   3      16.147008788503189      14.089568714858061      22.490562543218587
  1005   3      18.399735430705206      12.095573012819942      22.330575181333543
  1006   4      15.960935554815361       16.28582230621328      11.960465416867818
  1007   2      18.122249615766503      18.155421440768993      14.206698045833136
  1008   3      18.458326106947009      18.259345273170887      12.250532011783243
  1009   3       16.25379635797265      18.398545609356976      14.106432714571556
  1010   3       18.25474368584748       16.24847047294357      14.267624405956166
  1011   4      15.932098655854297      15.983097290647425      16.010130172984436
  1012   1      18.159879336550357      18.177316668872283      18.211221037981346
  1013   3      18.296370982165115      18.326067516301386      16.160844921011719
  1014   3      16.147050783797116      18.125035389819477      18.475818970475029
  1015   3      18.441407158154906      16.135928435919457       18.26770217654008
  1016   4      15.954388615587071      16.304677985611264      20.033704895213624
  1017   2      18.114596366408463      18.171463365181872      22.275131008164056
  1018   3      18.409110649851424      18.237016933359133      20.293926907911814
  1019   3      16.204954571471788      18.290372493686377      22.216625904544276
  1020   3      18.321384022096439      16.211348466790408      22.293624167994839
  1021   4       15.96121301863343      20.028883629142513      11.987624015647238
  1022   2      18.150654893479679      22.240630536918051      14.154368296813349
  1023   3      18.290978843543872      22.354579716090306       12.19877060938445
  1024   3      16.241219777703488       22.23485449513738      14.280734301560395
  1025   3      18.409410238384634      20.326254077581847      14.215282646481684
  1026   4      15.919867939726934      20.161089352924083      16.135126476469221
  1027   2      18.241956506657452      22.178195293182007       18.36613327394015
  1028   3      18.279329367521242      22.446055310531079      16.158592252611765
  1029   3      16.276706877090906      22.536957729087558      18.156707581045467
  1030   3      18.149590915435024      20.283911725007027      18.139693089456351
  1031   4      15.976656834299538      20.013068994456763      20.045015288564656
  1032   1      18.207878467832586      22.266184663295991      22.279122277551298
  1033   3       18.27626003822564      22.341195286976312      20.250263611994821
  1034   3      16.158365796352957       22.23582897506218      22.508666895679269
  1035   3      18.233737666251958      20.217138512694778      22.434906398837896
  1036   4      19.862421591358196      12.045124552106438      12.060739187261616
  1037   2      22.207685611279906      14.084527027645356      14.075728991162444
  1038   3      22.401091424771565      14.217565461247396      12.188405622388975
  1039   3      20.328838917461784       14.37506197974349      14.224906787309934
  1040   3       22.21553584975387      12.190267424559401      14.343080121783164
  1041   4      19.858916456782698      12.088843230913094      16.141014404981835
  1042   2      22.243657390874105      14.102222641736432      18.141992357390556
  1043   3      22.244827420143334      14.334998248981643      16.260738255314074
  1044   3      20.359204718474743       14.13777122667196      18.363908252233244
  1045   3       22.47473005849891      12.183736691272632      18.274134517170456
  1046   4      19.839409276095907      12.074388481390157      20.180981859655098
  1047   2      22.177541466073937      14.188457070435916      22.198559883153113
  1048   3      22.455474444426937      14.143745628757403      20.300166718862862
  1049   3      20.319932249697931      14.207886528484035      22.290962121621803
  1050   3      22.360598279079646      12.181685578119529      22.480254308637193
  1051   4      19.923068578307007      16.095420781300049      12.026426131360157
  1052   2      22.241262584556786      18.144289032074109      14.116166759010744
  1053   3      22.216924342142768      18.385898503824023      12.237381323851297
  1054   3      20.341407869185272      18.262034390834501      14.361418937115094
  1055   3      22.435460468202958      16.251100671996642      14.228149980468244
  1056   4       19.92144001005915      16.019345417048019      16.126974595349331
  1057   2      22.177223261567356      18.205374414458621      18.213477160376708
  1058   3      22.471700604570049      18.249268696229684      16.256227756532024
  1059   3       20.28992222963263      18.403143126353214      18.171716809683808
  1060   3      22.283977701022266      16.231420577306338      18.427664102297481
  1061   4      19.862998262009274      16.102705186027148      20.224820097371147
  1062   1      22.252303411634166      18.175434603016519      22.274622978731589
  1063   3      22.231644400545278      18.441190427620064      20.228262929123591
  1064   3      20.242931375604787      18.407112842217906      22.312446561181325
  1065   3      22.473308771025799      16.127854321750753      22.312318945164026
  1066   4      20.025711211593642      20.051122261638341        11.9392369487595
  1067   2      22.164371692898396       22.21335659129555      14.184737732486875
  1068   3      22.452063674813324      22.342468836579521      12.247148913487912
  1069   3      20.288194456785249      22.446935687830013      14.200346044977307
  1070   3       22.29916869779823       20.31562189128768      14.355536788175524
  1071   4      19.960086088068515      20.083321903148409      16.352143183466442
  1072   1      22.232921518526211      22.247781269505548      18.210919455840195
  1073   3       22.39777391051377      22.461804524373072      16.154656890852539
  1074   3      20.207688013883125      22.263531133268156      18.097538591738047
  1075   3      22.557376209134571      20.207156143691023      18.170478751677706
  1076   4      20.162540215670948      19.873293866297928      20.414104749101085
  1077   2      22.185352906228307      22.226708323566466      22.206719941297965
  1078   3      22.457463289087102      22.289068471514572      20.320969151866557
  1079   3      20.324898038938247      22.320432994191403      22.317265529457799
  1080   3      22.379108227469892      20.337689977953346       22.43036606385343
