(written by ASE)

1080 atoms
4 atom types

0.0      24.299999999999997  xlo xhi
0.0      24.299999999999997  ylo yhi
0.0      24.299999999999997  zlo zhi

Atoms # atomic

     1   4   -0.029767372111553309    -0.18024290393693243    -0.14930111857044043
     2   2      2.0516179973495299      1.9870349089125188      1.9660968105613017
     3   3      1.8867017661356273      2.1081624564601844    0.086090315212224225
     4   3    0.034116017658092065      2.1032734718856743      2.2754530566288467
     5   3      2.0517443249395741    0.095572326281711209      2.2083309340953572
     6   4   0.0051950229912852358    -0.21165176543588762      3.9339665388046035
     7   2      2.0760481142772718      1.9578286132357943      6.0005970503016623
     8   3      2.0346593006971987      2.2735153316463701      4.1237244905652872
     9   3     0.03252245506770042      2.2953236630463634      6.1112512473296308
    10   3       1.888535489235859    0.095181105944545236      6.0368910201479347
    11   4    0.080378957688732516     -0.3267994288324918      8.0827679587268655
    12   2      2.0542992263625783      1.9526396460977848      10.028044755320606
    13   3      1.8621881479155376      2.0867958095336956      8.1282945536521467
    14   3    0.045331308373002754      2.1075480968655498       10.34243822264173
    15   3      2.0555644196753957    0.093674051852057072      10.252743889590354
    16   4   -0.011896994753134573      3.9529880267779007    -0.20630026625464895
    17   2      2.0674957976475126      6.0600295205838695      1.9813265675539333
    18   3      2.0331433877099041      6.2645322099913301    0.099884493443254896
    19   3   0.0055035924165133818      6.3316958754263659      2.1169996999654912
    20   3      1.8592838286620987      4.1533964901107385      2.1075210079543312
    21   4  -0.0099274265313310031      3.8849661889131446      3.9120810197468052
    22   2       2.064950268717396      6.0320933049783996       6.059325547455007
    23   3      1.8474644618452281       6.132259916691261      4.1546128429216971
    24   3   0.0019334017614067718      6.1213823004780981      6.3336403123638556
    25   3      2.0227864852527069      4.1333637269788968      6.2928638789656457
    26   4   0.0099758440450592577      3.9433120592342172      7.9059611936046972
    27   2      2.1068220946029852      6.0110925767149697      10.147126176126237
    28   3      1.9930025438375358      6.3170890873655292      8.1646738141170108
    29   3   -0.027210075004492372      6.3140622736583936      10.089847739619657
    30   3      1.8695861786584884      4.1256380528104337       10.08818998789987
    31   4   -0.022633958901439218      7.9558861333252286    -0.18440672003632111
    32   2      2.0475972376057805      10.100651686285568      1.9580612990608925
    33   3      1.8882543960153515      10.130613259212504     0.07902220491178838
    34   3    0.013321848030894437      10.147684806532775      2.2887888667740972
    35   3      2.0288539227663867      8.1802848902081422      2.2720989840805368
    36   4  -0.0023085537466209206      7.9753597142440089      3.8755872640392894
    37   2       2.083358536951522      10.063915068249738      6.0274873830817848
    38   3      2.0172545050845718      10.329366851530132      4.1405179641319698
    39   3  -0.0040840536897050975      10.390631642563932      6.1304113485162084
    40   3        1.84778614242995      8.1702080829769255      6.1162089573929368
    41   4    0.035136449758999926      7.8517390674769523      8.0415379206856379
    42   2      2.0561909383544603      10.051347020720522       10.05332023382992
    43   3      1.8339835485388543      10.163273321707658      8.1454024468925894
    44   3  -0.0051238102304357689      10.251467700266266      10.300836094869835
    45   3      1.9566912137376677      8.1729586776176841      10.259208636595234
    46   4      4.2808195721682472    -0.21510806147726383  -0.0056533142049484128
    47   2      6.1768841160287211      2.0561544161066534      1.9981343158147589
    48   3      6.0291385199805099      2.1878525558570021    0.055038426214937347
    49   3      3.9582502720624304      2.2334259598333968      2.0866485140352129
    50   3      5.8316057079417218     0.12900385598603242      2.0391785903910304
    51   4      4.2853636351177755    -0.22704162170400718      3.8810345936176578
    52   2      6.1180845259304659      1.9504171108544981      6.0841091424307576
    53   3      5.8699267795750041      2.0888266417551375      4.1199924543401725
    54   3      3.9906173037530701      2.1087635021739488      6.2469846118173988
    55   3      6.0495199206891455    0.069814957697032567      6.1676260234755329
    56   4      4.1208132021512851    -0.39437877462017251      8.2906152927034871
    57   2      6.1512864509381266      1.9743636593876426      10.178935532571924
    58   3      6.0423566410940346      2.2352453887183876       8.101667680826294
    59   3      3.9761272828219716      2.2216982383759976      10.038121361031576
    60   3      5.9458162578899625    0.088617669239305877      10.083476572378247
    61   4      4.3787108113208761      4.1642412485654114   -0.014895951604678319
    62   1      6.1351716947994834      6.0944003941553069       2.020329039029451
    63   3      5.8603581991033087        6.09001712241127   -0.014259226668427332
    64   3      3.9552457140042545      6.0832457063503584      2.2357698132244535
    65   3      5.9666820783228971      4.0455943737056481      2.1454828621896538
    66   4      4.3420889291593765      4.1014608118966391      3.8827933681965239
    67   2      6.2092667072682941      6.1154201118875831      6.0432975536555951
    68   3      6.0247796917278098      6.1723014784543064      4.1250660748340504
    69   3      3.9646087558910614      6.2154871605884372      6.1073988322891788
    70   3      5.8603964069758003      4.1241663202918808      6.1040530054695354
    71   4       4.291608708359286      3.9762529579094403      8.0209438584326662
    72   2      6.1606205421623113      6.0732724686036992      10.119156349301312
    73   3      5.8557479244161073      6.0969172085231271      8.1364476864716817
    74   3      3.9993040107979989      6.1197046356997751      10.226334449529492
    75   3      5.9809133282032576       4.141865922142677      10.129757352953327
    76   4      4.4463954306355342      8.1034638379730524   -0.047818022789635525
    77   2      6.2553715421454141      10.150143932200489      2.0369792428144993
    78   3      5.9933661472366877       10.18116287656547    0.070866101470696288
    79   3      3.9502989068176819      10.269917041381067      2.0765725718831343
    80   3      5.8519399518375259      8.1812586522480188       2.027544237453502
    81   4       4.401667195619507      8.0930149280209989      3.9241621558489825
    82   1      6.1277016374411657      10.105566956152739      6.0632292265246095
    83   3      5.8738348266418612      10.118186948359126      4.0210497604521791
    84   3      3.9582694117692139      10.099550884783216      6.2423406326692508
    85   3      5.9936759102612838      8.0626548983634905       6.203644861205758
    86   4      4.3835892957621878       8.176386914166839      7.9813870406435914
    87   2      6.2181010583089824      10.143498946197472      10.162014952758163
    88   3      5.9820709671366261      10.175184040693576      8.1718657545245303
    89   3      3.9452829316294378       10.19794154488846      10.083115721445873
    90   3      5.9169000270540888      8.1228711829261044      10.089193365676291
    91   4      8.2547959410118743    -0.28138494756012683    0.015114616198997137
    92   1      10.129001601000597      1.9832429843706711      1.9958044242640249
    93   3      9.8896715279875007      1.8773687032734057   -0.045129452692649931
    94   3      8.0357647282515643      2.0101106927188139      2.2068887728976749
    95   3      10.152583523245665   -0.011499909931006271      2.3346899377593866
    96   4      8.3237442692289125    -0.23101205267558836      3.8385385765636619
    97   2      10.230704882298079      1.9064503486171456      6.0945338108490859
    98   3      10.123349887649578      2.3565088384158135       4.127393919091797
    99   3      8.0157942023649085      2.2096326290817525      5.9915738614580789
   100   3      10.003092448451824    0.031386395105877492      5.8711404020417675
   101   4      8.3533797303046118    -0.24207049111635948      8.1731592069536596
   102   1      10.134767053994064      2.0236818191803931        10.0891383473032
   103   3      9.8838155006211199      1.8746628239144199      8.0398313490832152
   104   3      8.0309337683266833      2.0737943410160113      10.231510895621341
   105   3      10.119311083575148   0.0090759230748812397      10.412311000077477
   106   4      8.4266469390747769      3.9557662472223942   -0.099706624399700447
   107   2      10.193774637227952      5.9716437941827856      2.0548892906872926
   108   3      10.147569706052831      6.3504450406462905    0.056338756057071143
   109   3      8.1505150219342628      6.3321500862212945      1.9643035254465169
   110   3       9.991420434953751      4.0650743749177272      1.8478169378322389
   111   4      8.4059369110925957      3.9364298820465113      4.0281830088481838
   112   1      10.148886611454344      6.0387816644442802      6.0610060840115167
   113   3      9.9551898625755832      5.8928975746651266      4.0251434220907631
   114   3      8.0671634853346745      6.0431603437131303       6.225319486833218
   115   3      10.110264616895112      4.0202559295467566      6.3755875864459242
   116   4      8.4302219654710679      3.9012765553894027      8.0234057058253079
   117   2      10.267677988526867      5.9935934270823461      10.158988057798124
   118   3       10.13584216667137      6.3943090379435583      8.1732981887244591
   119   3      8.0477019482902534      6.2020003409824147      10.012348257986035
   120   3      10.035199476016235      4.1008453292921869      9.8791444226254956
   121   4       8.358933980805709      7.8845951752629277     0.10237206031979022
   122   1       10.17577736837103      10.097309258126483      1.9905885434058868
   123   3      9.9800130871701782      9.9303979348136497   -0.046452680703893856
   124   3      8.1162457355230337      10.047397597842307      2.1481370389862233
   125   3      10.171922254986555      8.0850382075674876      2.3307620647247522
   126   4      8.3762864404501478      7.9131630268004969      3.8507893827559814
   127   2      10.172548478251555      10.005794438246259      6.0685399082998295
   128   3      10.159320287926175      10.434441895569469      4.0963779012060568
   129   3      8.1492808318709287      10.363934980485936       6.014802883063215
   130   3      10.012329194775285      8.1071358751604397      5.8974151781395809
   131   4      8.4435468705755028      8.0204924946079093      8.0798066156373807
   132   1      10.161936275408571      10.082799265583505      10.104089226920054
   133   3      9.9733719966875309       9.931207945978894      8.0612501824635725
   134   3      8.0838740121133892      10.105686753302995      10.238350601965374
   135   3      10.081291261821011      8.0569290202159554        10.4200492389199
   136   4   -0.038529273142368377    -0.24367310184154981      11.957163354489097
   137   2      2.0544590665622837      2.0086146557487363      14.062479591711458
   138   3      2.0858730161094856      2.2672020529258301      12.161756040794515
   139   3    0.038058080343237162      2.3226540428447175      14.176736628873828
   140   3      1.9135628250650638    0.097537300462505666      14.205834046420101
   141   4    -0.15556834402180011    -0.25895466096702119      16.146557761625107
   142   2      2.0523667034187909      1.9933715671936469      18.142059530108089
   143   3      1.9382791604129284      2.0630228783385731      16.262386454852031
   144   3    0.055275693548238698      2.0885867910381513      18.459422853783533
   145   3      2.1269617977206763     0.10584477527735398        18.4261627601282
   146   4    -0.14857855019189606     -0.1785338791189332      19.989999737330155
   147   2      2.0787856583704145      1.9947349348645074      22.208303163340375
   148   3      2.0503871895946424      2.2397424145878455      20.336220848722135
   149   3    0.035780895678624448      2.2513827464505534      22.371979593181919
   150   3      1.9034555044906365     0.10328561518901398      22.356468468631999
   151   4    0.056060481676406225      3.9159561738840596      12.008086596812255
   152   1      2.0734968805273217      6.1076480026831614      14.116674906168633
   153   3      1.8063635709157175      6.1234340081964076      12.082981082295174
   154   3   -0.043190284318194293      6.0793353319750505      14.370993563248277
   155   3      2.1170255486519203      4.0529065940798645      14.410372769339808
   156   4     0.15680985859135566      4.1095937652760375      15.840708316061379
   157   2      2.0922610158534836      6.0943936796357825       18.12179153398931
   158   3       2.036162975538538      6.2639570783906615      16.255630001817927
   159   3    0.012198239500034158      6.2841510083978669      18.312648825491479
   160   3      1.8730289546126204      4.1490622592542588      18.282663128067906
   161   4    0.010737601517344849      3.9608024908009019      20.016885065150291
   162   2      2.0604456054523919      6.0341288609950174      22.202315686745109
   163   3      1.8847389290404999       6.090668687165282      20.328538267416128
   164   3    0.018287149434920495      6.1199597600107332      22.553663239506264
   165   3      1.9905077534044651      4.1304435819543883      22.507658973870406
   166   4     0.15694520962775427      7.8471054731589707      12.109933798546811
   167   2      2.1165517507192688         10.166565935201      14.084437317208225
   168   3      1.9696772571488441      10.327312464269246      12.155700325490962
   169   3    -0.04555781442393541      10.377414502649469      14.203479994791453
   170   3        1.75854712191718      8.2172907824199886      14.110572574268032
   171   4     0.13443568295315023      7.9387420639181858      15.874084398336178
   172   2      2.0598382565125486      10.139607665262536      18.117226990503251
   173   3      1.8858168587712996      10.045247069690433      16.227939269836963
   174   3  -0.0024350547810886758      10.101370084029368      18.462430091018071
   175   3      2.0139142375766625      8.1576789736904782      18.438079303793192
   176   4  -0.0073782064739170584      8.0688987542162103      19.968161680943222
   177   2      2.0901964430429203      10.056665383443962      22.190325318376761
   178   3      2.0111311768410336      10.248936439366775      20.314637033385065
   179   3   0.0045481470153247369      10.280468306484023      22.408972792521439
   180   3      1.8711594725565448      8.1421737790603395      22.354937018419772
   181   4      4.1254770195411448    -0.36753011706069727      11.880935263875045
   182   1       6.116035046233395      1.9940461402707326      14.126633904921272
   183   3      5.8769614472028326      2.1681538492240309      12.078494138041986
   184   3      3.9837108156203875      2.0476685436506923      14.337480325436781
   185   3      6.0474339030229274   -0.036997577600314101      14.349313069524218
   186   4       4.255893339356942   0.0095217232731185566      15.912012715259861
   187   2      6.1507948497861671       2.091698366548437      18.108479978345859
   188   3      6.0511129266365975      2.1216380386961382      16.234825442880553
   189   3      3.9788707632075111      2.2409259642489783      18.281651735455917
   190   3      5.8204607306698461    0.080160053405806869      18.258651480821662
   191   4      4.2175539598228289    -0.11727002896772952      20.085231583858622
   192   2       6.105570913411241       2.019995719055744       22.21671619122321
   193   3      5.8611779118491665      2.0436964419753822      20.323569195842904
   194   3      3.9862297206211257      2.0887205810036327      22.479157737226025
   195   3      6.0054044071927022     0.12107733173446068      22.411526282437482
   196   4      4.2978305892333362      3.9908973390197553      12.249651430061363
   197   2      6.1545494533447149      6.0856051434742184      14.257259715004576
   198   3      6.0692822191017681      6.1593143323966073      12.105995223808547
   199   3      4.0855875928164505      6.1968029379944571       14.06259776879066
   200   3      5.8659589133319949      4.1156272441063768       14.12885429538616
   201   4      4.1050406178493528      4.0433711206957428       15.83741950535634
   202   1      6.1198212751519856      6.0719301919685194      18.204861570267163
   203   3       5.957039105989927      6.1696673462999652      16.176191519059859
   204   3      3.9732607446998047      6.0464470105116277      18.399346355504335
   205   3      6.0601849129007768      4.0221359113065489      18.410624411510181
   206   4      4.3273827369117361      4.1632676312930341      20.025240918784277
   207   2      6.2179707666551307      6.1300214871826091      22.272531109555089
   208   3      5.9960623829999351      6.1451354300894767      20.329377885573241
   209   3      3.9571883260176826      6.1551274412901948      22.319390162769874
   210   3      5.8688422416399515      4.0994128830996761      22.331424645258718
   211   4      4.3360755565260733      8.0332267770490944      12.373358170468446
   212   1      6.1535188974492705      10.116033490459067      14.156026668880047
   213   3      5.8590485456889576      10.141702863568939      12.106017131792289
   214   3      3.9895983987383934      10.027157094808825      14.224651344164528
   215   3        6.03061089782965      8.0875884122961317      14.134493957933296
   216   4      4.4272991060796061      8.1213425271280357      16.119167095049505
   217   2      6.2423043113167624      10.143471907177991      18.203796987098372
   218   3      5.9623677241152659      10.151982359809907      16.242708240424175
   219   3      3.9445054523899357      10.211531560063003      18.220124641499503
   220   3      5.8435503631478083      8.1719401050970717       18.23131614478396
   221   4      4.4269337152340658      8.1056485465777897      20.131778301291217
   222   1       6.129140812697087      10.105046106834212      22.249672700708299
   223   3      5.8736329116105139      10.125763293827996      20.202054537648479
   224   3      3.9564216727966759      10.136347122506468      22.432331155205592
   225   3      5.9687008711222624      8.0674576531150048      22.359700042291376
   226   4      8.3640893525730053    -0.19507853897419511      11.945189322762873
   227   2      10.166544332206783      1.9072102524268131      14.163673902887357
   228   3      10.138304751929558      2.3312311454183976       12.19118518020378
   229   3      8.1362329397343913      2.2802524187719411      14.102069713094609
   230   3      9.9476395223423584    0.012242210235707688      13.989514568016988
   231   4      8.3654940038918824   -0.082668938378020571      16.121024052338385
   232   1      10.115233561698428      1.9904190132155357      18.195173360797334
   233   3      9.9430272148678931      1.8418303661373456      16.155481218536377
   234   3      8.0192483603768885      1.9592871191386545       18.39880831587465
   235   3      10.122440423536988   -0.012400633501570092      18.536114730328432
   236   4      8.3846167253622674    -0.12138065878415642      20.130433746316648
   237   2      10.227501953840495      1.9344510110374193      22.326381776314456
   238   3      10.097591048063851      2.3447989904260926      20.334815857443438
   239   3      8.0108768636926904      2.2156537758522581      22.230083293342442
   240   3      9.9942998108366847    0.051256185429700181      22.050534168207331
   241   4      8.3286396550753761      3.8580970915282125      12.251749829738523
   242   1      10.157574925130897      6.0369868756179663      14.136926568156026
   243   3        9.89862464013558      5.8963788841084277      12.087939110910353
   244   3      8.0735386458728335      6.0198734862142258      14.258463984853849
   245   3      10.157407432844066      4.0343929255190565      14.464289411267599
   246   4      8.3447699421051862      3.8647266969223293      15.955310464125265
   247   2      10.176123640720823      5.9511724499906684       18.21785620399697
   248   3      10.142407604923447      6.3704185371671906      16.239030774750084
   249   3      8.1425921326437436      6.3365246644033499      18.163086459488763
   250   3      9.9615895433462214       4.048660348277858      18.057460786580979
   251   4        8.37595905833013      3.9392468086284214      20.125561441558045
   252   1      10.154974799774893      6.0294123516722751      22.230818595527204
   253   3      9.9617256120051518      5.8684262044481397      20.200800251958409
   254   3      8.0813416523209387      6.0384129936855526      22.420074104359152
   255   3      10.120188409856851      4.0217274463544674      22.594590188687629
   256   4      8.4234620484325404      7.9514761898300321      12.128722290045886
   257   2      10.180168730433493      9.9825750644309945      14.229768276283046
   258   3      10.160254630112441      10.412584300666362      12.197175833290666
   259   3      8.1663423370266095      10.352441942675792      14.089709802145753
   260   3      10.047022325811144      8.0937240266936499      13.911950137729786
   261   4      8.3194360585991554      7.8602302696733926      16.280829158441282
   262   1      10.167146978002432       10.08347960118842      18.189479416831368
   263   3      9.9918751638162107      9.8926396550383622       16.15903693462058
   264   3      8.1047660996223421      10.034333524925477      18.327576741050088
   265   3      10.172017464725155      8.0727635468452359      18.535131671871568
   266   4      8.3654897937896582      7.9015715269680271      20.024178982436645
   267   2      10.148938007911058      9.9500111579254185      22.289318942381936
   268   3      10.156703683898545      10.423342898871672      20.292872344459983
   269   3      8.1524367997950371      10.335719660848364      22.197102335528196
   270   3      10.073516956835153      8.0757163866586339      22.050983717154054
   271   4   -0.029869598429133823      11.999219763138509    -0.19253209741561972
   272   2      2.1048542480311987      14.160907814258024      1.9674258936904401
   273   3      2.0437071664881992       14.30211404266654    0.071100670379973543
   274   3   0.0012702862479541436       14.38542567555081         2.0766393690878
   275   3       1.843417876810006      12.190915131174918      2.1021546097202561
   276   4    0.021494877350200801      11.983230041101351      3.8998843214318213
   277   2      2.0706503408681041      14.084036045131267      6.0575809712682034
   278   3      1.8395573812125046      14.130200207894369      4.1552586051110154
   279   3    0.014948026579567375      14.194181164317165      6.3508010456506767
   280   3      2.0498987764829213      12.198063333908314      6.3022742628713866
   281   4    -0.02897460037688418      11.980361660624046      7.9393123437717188
   282   2      2.0831128611846146      14.090303271356934      10.176144126108563
   283   3      2.0366508855447516      14.424589472410068      8.1609174558523332
   284   3   -0.022479547655054347      14.410271342926073       10.09993452520866
   285   3      1.9224944454450257      12.202731835863146      10.091437779247569
   286   4    0.010869834743126614      15.950267903243734   -0.093614398168238092
   287   1      2.0479333158164494      18.163008949221563      2.0221063039283291
   288   3      1.9418123698860614      18.372685547153473   -0.023210991944071873
   289   3   -0.027242436043215582      18.236473514409422      2.2535762963826538
   290   3      2.0646395181553108      16.136932173829099      2.2889858997391763
   291   4     0.15851181585447435      16.136368704376014      3.7623066184793581
   292   2       2.110294523399141      18.125703568071909      6.0466180885447338
   293   3      2.0396829747195664      18.405587935421813      4.1656129433659013
   294   3   0.0027210309235361435      18.473059000136473        6.09280656164389
   295   3      1.8468038228082284      16.246277823675285      6.0869721090820947
   296   4    0.093488444190807152      15.943288490377954      8.0463616965841336
   297   2      2.0863522862942583      18.233224087538762      10.097880661231413
   298   3      1.7640676207835697      18.235316437627866       8.150132990741918
   299   3   -0.065150781175021683      18.261394289419986      10.378429063651792
   300   3      1.9410999046796888      16.284813839080854      10.264916344621344
   301   4     0.10358397570594907      19.914902834126806   -0.056823381755708509
   302   2      2.0476066776184845      22.190025866079388      1.9865961859794101
   303   3      2.0793729565704044      22.463214348347204    0.075271622231871574
   304   3    0.032846820598430915      22.524206099727326      2.0673614653834749
   305   3      1.8980915084302505      20.320731369809209      2.0716593393765397
   306   4    0.091679519764770595      19.940257948809563      3.8952178226230196
   307   2        2.07843983200075      22.174202879984737       6.076728495792282
   308   3      1.8584120121399288       22.35839273832709      4.1045401804369366
   309   3   0.0060755270560997922      22.369553412821087      6.2496132984396358
   310   3       2.005441519508488      20.295188151331313      6.2423699559195196
   311   4     0.10341175851548169      20.064817847754185      8.0217532281438082
   312   1      1.9940927587537907       22.21798319677815      10.109502014224677
   313   3      2.0231599217537992      22.513279407491218      8.0463990751388685
   314   3   -0.053827638619663769      22.525774494409717      10.126685665749024
   315   3      1.8111069117880809      20.205601200995304      10.102840743648688
   316   4      4.4472968591586604      12.064880257143932   -0.097576814615827137
   317   1      6.1396675579055042      14.142129809146317      2.0234604657171587
   318   3       5.866620831657654      14.178877748231228   -0.033311659620195583
   319   3      3.9920075838983546       14.12971253549396      2.2245241216184621
   320   3      5.9946130217253515       12.10897373122773      2.1110113109685646
   321   4      4.3884053084322936      12.051715311681825      3.9269766394772381
   322   2      6.1849977807713579      14.103602065047145       6.064709107511268
   323   3      6.0260500680289866      14.309079939966166      4.1392838363831785
   324   3      3.9661915448526095      14.356161650134325      6.0677764205565241
   325   3       5.885123337374309      12.201487143451949      6.0751120155681289
   326   4      4.4353057290775215      12.055238736177497      8.1140889688045892
   327   1       6.155366766470209      14.141023564175741      10.104845849358492
   328   3       5.835770092826329      14.180520734183705      8.0619669508597998
   329   3      3.9807109952677306      14.306373061638212      10.205994956679737
   330   3      5.9180079915204278      12.103551455246443      10.162245160784506
   331   4      4.3894304287383727      16.045179817599283   -0.077261776697797338
   332   2      6.1465095841502881      18.244297029201778      1.9161522811569083
   333   3      6.0812574580349992      18.293879757525477     0.01865579019293892
   334   3      4.0681106936991087      18.429091899469423      2.0300615226818701
   335   3      5.8594823250101875      16.262755618822332        2.03704392148168
   336   4      4.2517416683165221      16.077036522910991       3.775171896372115
   337   2      6.1217882155014269      18.148627127152107      6.1014818763032892
   338   3      5.8400477851639385      18.187126102128683      4.1525819065870682
   339   3      3.9874878933218274      18.223416275533502      6.2582010004352808
   340   3      6.0482639729098873      16.245439580223305      6.2236343910530127
   341   4      4.2794038521813933       15.93893494757725       8.239885008838721
   342   2      6.2245008583072226      18.190770084841187       10.18202278622044
   343   3      6.0564190748704521      18.390312335220703      8.1141404130796282
   344   3      3.9729390142790821      18.316892004782858       10.03465538111697
   345   3      5.9382680801815546      16.277370070420883      10.053740933343988
   346   4      4.0312105940996785      19.855888359878644   -0.042567604015233615
   347   1      6.1126098301741552      22.225724976998116      2.0072718677484223
   348   3      5.8949614276195694      22.393788880518596   -0.047467590226145225
   349   3      3.9679247105073339        22.3155133759726      2.2072294980369755
   350   3      6.1039951779635979      20.202564695076898      2.2424039859813742
   351   4      4.2306198972229367      20.062105146767365      3.7786659872135488
   352   2      6.1780920956231506      22.171202186201548      6.0504980860872273
   353   3      6.0489707157431614      22.481229309993047      4.1272230398239982
   354   3      3.9810666291495203      22.460548335839604      6.0166659529203796
   355   3      5.8948336628061444      20.277222908080656      6.0291905835220811
   356   4      4.3253586894254212      20.354893222307926      8.4012506863708047
   357   1      6.1452809877980723      22.244593921420275      10.108739085337268
   358   3      5.8514257548564084      22.283600920569569      8.0353079307601085
   359   3       4.020826678396884      22.375863432384719      10.133317124984751
   360   3      5.9123435665711961      20.214329805042208      10.161784259394764
   361   4      8.3824121043364901      11.936065103085637    -0.20395504622351579
   362   2         10.140347532643      14.016982381079385      2.0505612679340173
   363   3      10.150560899932849      14.490012176648126    0.042289572133347282
   364   3      8.1470776365797271      14.415376960872543      1.9427398432072691
   365   3      10.040796397981703      12.142969046084692      1.7791028348988678
   366   4      8.3684767189270328      11.962434263912687      4.1717251037726353
   367   1      10.139351214807204      14.175491524386098      6.0395171108606132
   368   3      9.9753256966965509      13.961666545166107      4.0057798464787453
   369   3      8.0551751867041865      14.123923636890135      6.2277487971637546
   370   3      10.141908856081503      12.146665852052243      6.3717028478412052
   371   4      8.3757888576654924      11.935926728435401      7.9161507070162411
   372   2       10.15307364073727      14.009383827783395       10.13507856473829
   373   3      10.164001429608545      14.481666268519877      8.1449839429050765
   374   3      8.1637361248207334      14.369110512608191      10.043130724323808
   375   3      10.080143643197221      12.134042193233867       9.887544790716337
   376   4       8.359046849119995      15.983892144285111     0.10235804283126659
   377   1      10.127581677795941      18.196283615179262      1.9843106337083947
   378   3       9.925643751742955      18.046916315564246   -0.052920074702666749
   379   3      8.0411179668171116      18.124990944689404      2.2536174027727798
   380   3      10.134301678749701      16.195395470210482      2.3171951044817156
   381   4      8.3120555977910939      16.051167509543451      3.7993282455932373
   382   2      10.226423950254098      18.120769598839018      6.0888280346849042
   383   3      10.121150900457762      18.551754954341941       4.127156213461082
   384   3      8.0139365618385643      18.402205771768234      6.0021670345774858
   385   3       9.987356383886933       16.24326048036739      5.8617307564411236
   386   4      8.3730566792427155      15.984446520775938        8.19021761904885
   387   1      10.159036258613098      18.199483226304686      10.097309861338328
   388   3       9.876264527223416      18.061590794336457      8.0474905399518697
   389   3      8.0899541614499615      18.237225178816008      10.272388983305339
   390   3      10.129503635631981      16.195322974613752      10.421878724976525
   391   4      8.3318239706891379      20.054206114416399    -0.25749896181530291
   392   2      10.137032245113071      22.158485789213433       2.016287280958863
   393   3      10.121016070814076      22.573368470600041    0.032950779150893811
   394   3      8.1215562761686915      22.527439110761833      1.9430256332613702
   395   3      9.9454491958347297      20.253625840295879      1.8476331901758023
   396   4      8.3271131565758623       20.08712752011645      3.8920306076313409
   397   1      10.127687942481854      22.241120756869584      6.0322635771074111
   398   3      9.9377281479240143       22.09865769754045       3.997171311195197
   399   3      8.0411568834209604      22.270804189620339      6.2264955689448804
   400   3      10.117469762526829      20.221297591614814      6.4042977985500551
   401   4        8.42616105194484      20.100436213378469      8.0247884013348756
   402   2      10.159572435742227      22.143803789483478      10.173889425443519
   403   3      10.152919651042655      22.562892011809204      8.1538895847585575
   404   3      8.1509309706616708      22.483824308715707      10.047237986156432
   405   3      10.064753058204687      20.260151641343434      9.8899730472077554
   406   4    0.029978678612611036      11.941904607203368      12.035490822352962
   407   1      2.0473996685622713      14.129906858003245      14.123227731938901
   408   3      1.8434726362094704      14.233714053110631      12.096363640863654
   409   3   -0.066184904967519206      14.151673294348925      14.403178026556869
   410   3      2.0325472719163065      12.110617191687108       14.38488706462693
   411   4     0.15328695456349464      12.197458304423618      15.870864732523088
   412   2      2.1390026316248689      14.221057894189761      18.144432454757318
   413   3      2.0101137783937642      14.285191482335625      16.248371142781711
   414   3   -0.012733815773372095      14.265860485116427      18.313931970090398
   415   3      1.8241444218902594      12.145331246340954      18.243068679930566
   416   4  -0.0064505016160407679      12.087929523783238      19.944334652575442
   417   2      2.0439805313166097      14.048485134860707      22.190549331348436
   418   3      1.8924999971980958      14.060352251811857      20.313749971457149
   419   3    0.029620309494494516      14.177212954427205      22.560566129288738
   420   3       1.985462665573251       12.15469540610939      22.497523512153332
   421   4     0.14707160232296435      15.987114434779201      12.017219927583737
   422   2      2.0571180180065984      18.121106582202746      14.195729214750806
   423   3      2.0128325496449682      18.402958447825842      12.191472918169747
   424   3   -0.017616174137351261      18.512840931392496      14.123291423846755
   425   3      1.8055567878954715      16.247364377885681      14.146419679371999
   426   4     0.11528535569916618      15.958523932952017       15.98347703378564
   427   1      2.0650798691173637      18.170631706622583      18.182560346054515
   428   3      1.8153331520590359      18.301652090679525      16.140087571116823
   429   3   -0.002463992027394724      18.154491950676974       18.47770378336849
   430   3       2.015306903966307      16.128057422660401      18.418571899102023
   431   4    0.064445266643560234      16.206910381567162      19.880040885389082
   432   2      2.0581438207209564          18.07382457952      22.261530663877203
   433   3      2.1090321393743556      18.392957548770685      20.347437368380561
   434   3    0.035228574242097355      18.417956883947333      22.294148720300839
   435   3      1.9028427792483271      16.181045237714532      22.312028237718547
   436   4     0.12016895766590238      20.062680073921854       11.96987141078184
   437   2      2.0231855315207565      22.224716264876644      14.088629838501177
   438   3      1.9296014116099851      22.360953535653618      12.204941978098169
   439   3    0.043752706120305677      22.346589747595868      14.361307353461573
   440   3      2.0768529463392444      20.341599592439604      14.286510139044625
   441   4    0.045127893872006747      19.977723776405213      16.127460422640247
   442   2      2.0388460985613355      22.210378244275248      18.128912750657044
   443   3       2.099262007554525      22.464508466005654      16.247922945570085
   444   3    0.091092300183645669      22.545797192555678      18.222558414927743
   445   3      1.8699059281323518      20.340492006281185      18.264043618847445
   446   4    0.028770681616114503      19.993557861439232      19.979599283114791
   447   2      2.0338376337677428      22.218681701192342      22.192652895546164
   448   3      1.9185046240080128      22.360743325528123      20.306629226791294
   449   3    0.059154682077345505      22.357969386088527      22.499696024709586
   450   3      2.0759769710246081      20.345554788178358      22.408762213644039
   451   4      4.4434043246247166      12.125667210404778      12.169505451782259
   452   2      6.2183850276013954      14.187452130727221      14.152566788173422
   453   3      6.0317078143619787      14.208750157037407      12.171533288556802
   454   3      4.0532875291929171      14.384471941744788      14.114258271907245
   455   3      5.8756637866866761      12.189235686095515      14.146829674480587
   456   4      4.4104184691664239       12.15768661523459      16.069763262945077
   457   1        6.12356803985758      14.118044318988987      18.194500706357374
   458   3      5.8709333034741542       14.12728779640538      16.151306868928337
   459   3      3.9981692101428243      14.080682600847672      18.337560587765516
   460   3      5.9806355586913877      12.090402715222078      18.271635277581126
   461   4      4.4557936331589234       12.10450185695302      20.176263580059484
   462   2      6.2382244325451808      14.172623415539645      22.273747330329808
   463   3      5.9785270539785706      14.210775553824398      20.310606174474344
   464   3      3.9396672389646552      14.250523490665941      22.295340544280581
   465   3      5.8931814343821616      12.207704712621032      22.278905500985136
   466   4      4.3125450545117205      15.933983370428329      12.207704714946351
   467   1      6.1250320976955894      18.196883477398135      14.148963961717307
   468   3      5.8585895599938045      18.276060625221106      12.098302066184845
   469   3      3.9714432404729201      18.211696356719038      14.316969095370762
   470   3       6.062329885404786      16.165531867857307      14.240409232693228
   471   4      4.2712686462602818      15.935039924142526      15.932335412006051
   472   2      6.0765954840722358      18.089168784177076      18.167770133932127
   473   3      6.1036423240820401      18.415350303795275      16.241231666390732
   474   3      4.0803116527459009      18.484114586076444      18.147940415855668
   475   3       5.912585177882633      16.201068398147807      18.212991959651955
   476   4      4.4121467655753976      16.090741288065935      20.231252262190736
   477   1      6.1000551859987837      18.188940362775234       22.22977401862488
   478   3      5.8187637700235895      18.214548023005086      20.203234419519234
   479   3       3.980217516567766      18.271442375704972      22.440912379722977
   480   3      5.9034768478399204      16.142205214809724      22.316047173784245
   481   4      4.3832215891505486      20.162924254306812      12.110636175726668
   482   2      6.1760823986004052      22.304132021753368      14.107448456133735
   483   3      6.0150238503628932      22.360207686845467      12.191239176611063
   484   3      3.9689009183864936      22.514696761158639      14.179099849771189
   485   3      5.8010586774108432      20.354218182623541      14.153304283830776
   486   4      4.2270160771092264      19.950543355780791      16.066172063005226
   487   2       6.100319908967335      22.235244744367776      18.190968252435688
   488   3      5.8513474225456434      22.282415594343874      16.271699174548925
   489   3       4.007766881654832      22.314621687563786      18.454087687978756
   490   3      6.1103889267905762       20.35031962644571       18.36309179910133
   491   4      4.1078886313813765      19.874196209576905      20.119326294455504
   492   2      6.1110955721272102      22.159929406214694      22.294822390975966
   493   3      6.0459358074183189      22.509320013108667      20.291942316581778
   494   3      3.9831524218242911      22.521799609698018      22.276871870338073
   495   3      5.9337525201789951      20.306845498052322      22.236528272167448
   496   4      8.3922556972220566      11.939359743799283       12.26239046150671
   497   1      10.168292137720806      14.144099084716251      14.145493411532533
   498   3      9.9840528555472865      13.985308414780095      12.107368066672288
   499   3      8.1076278265558255      14.070218564972929      14.306797739107303
   500   3      10.160250373312573      12.127011191903806      14.474347109012342
   501   4      8.3552670663254833      11.975285249160795      15.971539889780985
   502   2      10.120479215897904      13.999549176260409       18.23793613689066
   503   3      10.155383338631257      14.487521536774164      16.239859097813838
   504   3      8.1432489494525573      14.393595885902725      18.136943257175542
   505   3      10.044464270010835      12.131331779025723      17.962020502606716
   506   4      8.3724214467305185      11.927932314317673      20.375725264294864
   507   1      10.154286095284055      14.151621297725965       22.23944788993337
   508   3      9.9915449945310666      13.971923853837364      20.195765833101788
   509   3      8.0988693287839801       14.13275115838492      22.396697780348081
   510   3      10.131168310394575      12.138777960275293      22.558048594204788
   511   4      8.3718927712166558      15.954927409624206      11.956251641593377
   512   2        10.1411218840919      18.076552970700547      14.185626117982597
   513   3       10.16763464126282      18.547410192064483      12.202744456562289
   514   3      8.1411809261456387      18.480689289859935      14.063077016498989
   515   3      10.019790804892716       16.19806991499021      13.941963810417361
   516   4      8.3428693237875091      15.975654926697313      16.252834501804212
   517   1      10.101974558589408      18.211841787520775      18.187036743115215
   518   3      9.9192227194358331      18.039456682721504      16.153231306493556
   519   3      8.0099576358488989      18.208808136565096      18.429674544372887
   520   3      10.123485465843563      16.199578586679529       18.51692990294595
   521   4      8.3323308393299271      16.038219798158305      19.994214841392147
   522   2      10.112515828051343       18.07198029460827      22.274704722745593
   523   3      10.147530086056161      18.530358429028208      20.278268641043589
   524   3      8.1269867453503242      18.433595383088601      22.159535726869439
   525   3      10.060744352312881      16.198642677721516      22.014470838420568
   526   4      8.3547450823996954       20.04433735780297      12.257476037692406
   527   1      10.112774220399302      22.248283709746641      14.177293397138985
   528   3      9.9539708651720247      22.112076370744894        12.1281622979273
   529   3      8.0376259599771114      22.199431246578719       14.33628165826501
   530   3      10.142189443264421      20.245491621790574      14.490863402735393
   531   4      8.2894313171283773      20.002248123490485      15.999302506281921
   532   2      10.203942802802196      22.168992393908397      18.248217531677362
   533   3       10.11152751212769      22.644716554260022      16.277166770164563
   534   3      8.0098352668892563      22.513688791744894      18.149931796888541
   535   3      9.9766654212220018      20.296906251706524      17.989223557050909
   536   4      8.2394414797341771      19.935875876272245       20.22454622357527
   537   1       10.10402572258687      22.257435935549154      22.216812558173224
   538   3      9.8929543906421511      22.134908907603965      20.179519835973284
   539   3      8.0070262042799669      22.314766710766346      22.423436996348467
   540   3      10.123461308585496       20.25393541182375      22.567821820437214
   541   4      12.169490722894556    -0.38075605531173617   -0.070853070369270771
   542   2      14.147149300684561      2.0184114248538609      1.8555943332059979
   543   3      14.247756073460449      1.7479412243772952   -0.010533900690205027
   544   3      12.189859893023151      2.0458765955278175      2.1598390483227359
   545   3      14.124999892708471    0.041135394107126036      2.3618855230560669
   546   4      12.102390857191294   -0.049644890823839327      3.6891937528821055
   547   1      14.157609127217224      1.9971449035680164      6.0499576130137607
   548   3        14.1584658838633      2.3366946406410296      4.0416270495441866
   549   3      12.120565965223397      2.1085210360727471        6.11569511028934
   550   3      14.325570694615736   -0.051885651939707331      5.8661668074899067
   551   4      12.181444794898502    -0.37326569424916767      8.0504442237277392
   552   2      14.168522798677159      2.0449761355086871      9.9608793812932124
   553   3      14.253181443810913      1.7388535610928373      8.0950204611412939
   554   3      12.198940689250668      2.0260869228088447      10.270785919744968
   555   3      14.149228862447746    0.045574736292111222      10.468500797279429
   556   4      12.183825362046498      4.0864019442603343    -0.33383808137868243
   557   1      14.157365316291095      6.0474999788596175      2.0000406149935062
   558   3      14.163320121610765      6.3722923626885937  -0.0083010840373475905
   559   3      12.122901552083174      6.1539898910648256      2.0482331996997445
   560   3      14.317476123694302      3.9903020362585098      1.8106841530841231
   561   4      12.218294804434954      3.7102850938013958      3.9391740760357785
   562   2      14.170338841348395      6.0803039223381292      5.9058884094096626
   563   3       14.23710685711271      5.7928186461555526      4.0422106269143461
   564   3      12.201919722207942      6.0691465992148528      6.2300654010758025
   565   3       14.13772792865022      4.0902020726821204      6.4200741924400653
   566   4      12.159179350119427      4.0728995671402348      7.7591937515367881
   567   1      14.176777434406867      6.0468441542583218       10.10954290653032
   568   3       14.15711644577677      6.3883506692302889      8.0969699597327764
   569   3      12.147673328114292      6.1608870467052474      10.170214734918575
   570   3      14.284766801252363      3.9987614548555839      9.8823510911183892
   571   4      12.215184524536154      7.7482619626639275    -0.10451287470415918
   572   2       14.16475451067879      10.147016219632496       1.851119566421001
   573   3      14.232073479517188      9.8393999421335803   -0.010528558687061533
   574   3      12.212654101550363      10.127490444272745       2.175005058632852
   575   3      14.141623184083224      8.1420775947150208      2.3595121478450451
   576   4      12.173537071958632      8.1017678145299037      3.6978435804629171
   577   1       14.14893971671555      10.106205607843156      6.0513173123439818
   578   3       14.16505965082357      10.429499745229831      4.0432225953615113
   579   3      12.110876045311249      10.230995305460043      6.0961420311158072
   580   3      14.288462413589958      8.0446266430157376      5.8676999482046517
   581   4      12.246173625111663      7.7908839939536314      7.9621872523958022
   582   2      14.170050059154564      10.149066604044862       9.956496552749126
   583   3      14.224696179058656       9.839518919846391      8.0934822296244615
   584   3      12.208491787613793      10.092621966889679      10.282384097067615
   585   3      14.153351910708087      8.1409595662245717      10.469766737949836
   586   4      15.947375025473507    -0.21436898047263739    -0.23454473601001233
   587   1      18.189506108907199      2.0035644558280836      2.0042289206254882
   588   3      18.365819867930909      2.0594806707458746   -0.035577514437902108
   589   3      16.148170902115137      1.9341111845690737      2.2496616380050907
   590   3      18.436959719472199   -0.041577321614163908      2.0467698753624686
   591   4      15.951009220309324     0.10780987256979657      3.8344020008591242
   592   2      18.070012129541713      2.0286671926735895      6.1006386519650615
   593   3      18.416455811915757      2.0268836032122226      4.1284336563264246
   594   3      16.203921850272209      2.1423753405367081      6.0376801729183782
   595   3      18.319282494924927     0.05786246994666587      6.1339163538577921
   596   4      15.927936938536982     -0.2013342999198442       7.891332745685733
   597   1      18.179163458883561      2.0118122732272763      10.104381152951603
   598   3      18.361225736791706      2.0643591566569701       8.067082751830803
   599   3      16.150348611983567      1.9593767182440396      10.348787389362702
   600   3      18.435221887892602    -0.03779646138868957      10.172811113096982
   601   4      15.961920162210241      4.1464875009833806    -0.20403095828395426
   602   2      18.070148612180301      6.0735622694399156      2.0559450414814049
   603   3      18.410673803244894      6.0765400533306559    0.084318044218237728
   604   3      16.201797960560807      6.1964469505891424      1.9893362208995395
   605   3      18.302999990169887      4.1022254018720172      2.0893476792037271
   606   4      15.957071137627862      3.8224519899017539      3.8209645976436009
   607   1      18.179139166821543       6.059329943322866      6.0583028285337379
   608   3      18.342947607803737      6.1168042499649919      4.0242728045780707
   609   3      16.146818082154294      5.9939521003357603      6.3089471775628114
   610   3      18.428139644309994      4.0100031096407918      6.1041903478901904
   611   4      15.951948021690473      4.1528989829222693      7.9050701736574096
   612   2      18.077573207490829      6.0663781551242897      10.151836227879715
   613   3      18.412110430046429       6.080482333812423      8.1720952480362072
   614   3      16.210208257509329      6.1980781533857483      10.067678695480101
   615   3      18.310710776819771      4.1016358197082203      10.175998056673174
   616   4      15.955191628319785      7.8813732729090171    -0.20585420526278916
   617   1      18.178870736111278      10.115202226696573       2.013387640390659
   618   3       18.35021126915764      10.161980598173276   -0.021662719465375804
   619   3      16.148428492340859      10.036631902646727      2.2500759365416081
   620   3      18.422525403861393      8.0605445314564452      2.0628465349536222
   621   4      15.957200693394707      8.2232041657347743      3.8341429089048389
   622   2       18.06119234770005      10.123238747511687      6.1102053928702009
   623   3      18.397041991575342      10.128580463272844      4.1360833095057723
   624   3      16.194581468005278      10.248753420764952      6.0499584941031106
   625   3      18.298242445790599      8.1575304435882128       6.140333263343531
   626   4      15.959131928632694      7.8764172420922556      7.9100898180190589
   627   1      18.176350848180718       10.11058781191737      10.105340689241643
   628   3      18.350917640795156      10.170223281710859      8.0744400903309277
   629   3      16.148191989410144      10.045621444519162      10.348415191774375
   630   3      18.423909114204147      8.0612794761184947      10.147279215568778
   631   4       19.86072157843461   -0.070147206307568863   -0.053061168030743802
   632   2      22.217482992321226      1.9558556152999291       1.969702064083638
   633   3      22.460986559064413      2.0731827373040908    0.073129977314759939
   634   3      20.360832923515165      2.1652131764253135      2.0647706352298343
   635   3      22.326198471504256    0.064290511967858052      2.1816650604302188
   636   4      19.853293429872753   -0.051101627859550594      4.0171668603469843
   637   2      22.257090023098677      1.9426703599335411      6.0181351147507982
   638   3      22.337138580779072      2.2095894973776145      4.1165772841195496
   639   3      20.371651053417555      2.0232770555504902      6.1898641676408674
   640   3      22.447907468018862    0.067210134984585279      6.0937280786047188
   641   4      19.892176422945901   -0.051546893438555848      7.9852282175883733
   642   2      22.227288213399081      1.9843548213712887      10.051563195170969
   643   3      22.462667168896822      2.0844169489507802       8.152033379431078
   644   3      20.360036116289365      2.1445755379027815      10.163066087387202
   645   3      22.293769483190534    0.094400036223953571      10.311474217743214
   646   4      19.852286747382202      4.0162695689320325   -0.044427839616472613
   647   2      22.232657101472494       6.015426168784435      1.9716405708551008
   648   3      22.321477570058168      6.2398791135652782     0.08479580527993838
   649   3      20.354180230703587      6.0609017167322135       2.150709615755138
   650   3      22.476305595766767      4.1175213170104152      2.0883570809694669
   651   4      19.847690335704137      3.9772289439974524      4.0012537723349491
   652   2      22.191615603358677      6.0130765740430849      6.0211594083857447
   653   3       22.44613933859037      6.1251451532150796      4.1216282885844073
   654   3      20.333134226625688      6.2100515346921803      6.0995715189854156
   655   3      22.309609226058139      4.1193067845096731      6.2487502105214414
   656   4      19.844027314508363      4.0182319424248387      8.0584399387552619
   657   2      22.235876383531572      6.0108659884876197      10.060360446258558
   658   3      22.282916932405364      6.2524775673336093      8.1500726971836208
   659   3         20.344551485017      6.0660646115814405      10.224394509265837
   660   3      22.463283614736948      4.1131161139273251      10.152384648240142
   661   4      19.839052919655121       8.050468076382872   -0.050482982182017723
   662   2       22.18444071308414      10.061478941149316       1.981757186119923
   663   3      22.425248327037611      10.148825491674144     0.09357204280280064
   664   3      20.331267601768729      10.261533358555104      2.0829909347907836
   665   3       22.29473886833981      8.1586483970433967      2.2254988646172031
   666   4      19.832845534123059       8.063530991914039       4.023195601496278
   667   2      22.235611216390566      10.047615891545004      6.0219439323796946
   668   3      22.311806088555773      10.296387251937198      4.1247172673720955
   669   3      20.349785415276155      10.125409396965329      6.1849762135290787
   670   3      22.446757009179603      8.1579783253979858      6.1131082609526644
   671   4      19.842322275809863      8.0302732522628233      8.0654402430216106
   672   2      22.210862974592413      10.036139704330409      10.069409536316522
   673   3      22.422841886162576      10.194832729562647       8.155754661248201
   674   3      20.344294037792249      10.289884045593247      10.164593277271949
   675   3      22.256731984791475      8.1589861759219424      10.259155536785126
   676   4      12.134199300763168   0.0047781826183344702      11.764325196528855
   677   1      14.168065437818919      1.9737523815969968      14.156563784111459
   678   3      14.167777183585969      2.3370322028104225       12.14700859548168
   679   3      12.110806710083898      2.1012166202935583      14.196628836345297
   680   3      14.377392980604656   -0.065634984146273098      13.959781320632199
   681   4      12.165529547820952    -0.29661552316850476       16.16854244793959
   682   2       14.15182597134468      2.0575952632727201      18.077636140872404
   683   3      14.247494108791155      1.7154540846022972      16.207225556291281
   684   3      12.185595697457313       2.022509333643709      18.366774063886645
   685   3      14.140266031362554    0.040810667100899443      18.547323729288813
   686   4      12.140020102412809    0.011363349980359464      19.906064847277655
   687   1      14.165989629474865       1.996002538806668      22.241541921629423
   688   3      14.146184371655073      2.3546926430403001      20.233799873366401
   689   3      12.120749826962816      2.1041207980767647      22.301478961822852
   690   3      14.323143476958352   -0.048754890601109754      22.057432668870362
   691   4      12.222665721357746      3.6876315610373021      12.076818872618196
   692   2      14.167706447820507      6.0722911454116888      14.010901632445609
   693   3      14.251118245621591      5.7867164489401768       12.14803260027846
   694   3      12.207591456763318       6.067871758689054      14.311590712093897
   695   3      14.143935371537536      4.0773852766472718      14.520566531378758
   696   4      12.143767406312852      4.0251958775409689      15.830680028073317
   697   1      14.157296368915919      6.0438800032433608       18.19142542858842
   698   3       14.16369233175058      6.3915816827017693      16.188245585571515
   699   3      12.112527745046958      6.1458962103375789       18.23381176262496
   700   3      14.315322539068585      3.9957257056693281      17.991774215272791
   701   4      12.189794519226217       3.728021415655244      20.148081051098821
   702   2      14.178445977552469      6.0778553766661396       22.09774885787785
   703   3       14.23081867579657      5.7736534796227286      20.237489969403168
   704   3      12.210005219862271      6.0439759950711807       22.42792337657022
   705   3      14.145083550813876      4.0826094853095896      22.619817265358197
   706   4      12.204944329376813      8.1552015955012642      11.828281698908228
   707   1      14.156251188691117      10.099115684056136       14.15484833266839
   708   3      14.161020844164691      10.420304657645751      12.143586851689889
   709   3      12.119313585892892      10.228519103575824      14.173131737264525
   710   3      14.323011429815979      8.0401770881775381      13.950518598780734
   711   4      12.216286501349561      7.7406009851463207      16.123616679769746
   712   2      14.157047309934887      10.134073548728093      18.059194010471167
   713   3      14.240110300178969      9.8450899637408806       16.19217225669048
   714   3       12.20941734279382       10.11902636454168      18.367871655096611
   715   3      14.141253007052971      8.1336469894218588      18.555219867211431
   716   4      12.144143156098888      8.0733445208935208      19.897173566905789
   717   1      14.142586987808166      10.094929301376137      22.248087549679926
   718   3      14.172532466076412      10.415453526219373      20.241578219089092
   719   3      12.099970209173661      10.252466528468922      22.277429383295278
   720   3      14.302444451408798      8.0362854592541986      22.067261478175872
   721   4      15.956857666122181    0.088360556501615659      11.953706702934467
   722   2      18.119053069258413      1.9910272953608206      14.242255517066678
   723   3       18.42891750785644      2.0355129047689311       12.22734461685836
   724   3      16.240609341873331      2.1823408815356484      14.124938491493843
   725   3      18.233309593665922    0.011409932770328174      14.199767565063844
   726   4      15.950299818927432    -0.16496359697963087      16.154218367931058
   727   1      18.212773922104684      2.0103294848847115      18.199123718133805
   728   3      18.309405154675044      2.1250432489164912      16.168132501703532
   729   3       16.15340972524956       1.930319201659181      18.452673488886468
   730   3      18.429662284006096   -0.022502008340501391      18.278108356586831
   731   4      15.982234855340256     0.05683228365294711      20.003198888538957
   732   2      18.090042251745299       2.020683418361656      22.293085267903887
   733   3      18.450352296153902      2.0307347044864237      20.328003601722944
   734   3      16.219900710179292      2.1470206007113437      22.227025637732872
   735   3      18.337780745526171    0.051311237625381458      22.321180781366692
   736   4      15.995501258169467       3.787589386194727      11.997791740037348
   737   1       18.18776367650355      6.0585947081859501      14.153650937343887
   738   3      18.339085984837741      6.1190087671726143      12.117446002602479
   739   3      16.156552776282705      5.9748064617927401      14.407319254851787
   740   3      18.451481021143167       4.008689643290805      14.184821744340837
   741   4      15.999874668123802      4.1274948109678862      15.963781111089483
   742   2      18.073005433903024      6.0785553320839254      18.258811501939959
   743   3      18.418146362855175      6.0714436004346135      16.280289670266676
   744   3       16.20652992192819      6.1984714546939772      18.193127102780803
   745   3       18.30936983909011      4.1107083207205166      18.301576801438486
   746   4      15.981907691692559      3.8151342973786364       20.04694527375166
   747   1      18.193267247628775      6.0633190461377886      22.258387364502358
   748   3      18.357436564843695      6.1198063059246843      20.224619191709813
   749   3      16.154692862017193       5.983544014580704      22.495671444218384
   750   3      18.439569399330633      4.0074481616833859      22.307218860996301
   751   4      15.965725384136082      8.2123373077026098      11.943854941066983
   752   2        18.0742845563198      10.126761616017811      14.199863042248021
   753   3      18.398997428171256      10.123482684059004      12.219864898140502
   754   3      16.204844118799869      10.263985178592684      14.137978116544351
   755   3      18.274708454322589       8.154232099520172      14.238977309376709
   756   4      15.957798714204532      7.8781814636956051      15.990683560322383
   757   1      18.181648157512281      10.107709852326387      18.200567289787891
   758   3      18.362016019433646      10.172589765894616      16.166252372150172
   759   3      16.153991405868549      10.031995824284115      18.448381151229334
   760   3      18.436695824550572      8.0602458828000341      18.253742850794051
   761   4      15.958236491806897      8.2270718448122206      20.030101841901271
   762   2      18.070044612659206      10.123311224430955      22.303387611835941
   763   3      18.406876236807058       10.11423725598493      20.333692473503177
   764   3      16.200717127602022      10.235981091810237      22.246910269642953
   765   3      18.309256253574997       8.153730323265151      22.354003679106498
   766   4      19.953907384466525    0.049894404340108722      11.979965791737413
   767   2      22.237601477262693      1.9717696674938465      14.098294908273875
   768   3      22.345358626150375      2.2429882323902604      12.196492176250416
   769   3       20.35754258150514       1.992377614430995      14.255128894749415
   770   3      22.518952633718552    0.098553962383424232       14.14098897890921
   771   4      20.175756804260782    -0.29803543532224763      16.444934451756207
   772   2      22.228356206925714      2.0275615054743183      18.120949526815995
   773   3      22.450385006769903      2.0679293031343091      16.225119458390861
   774   3      20.365194696329841      2.1867528786582269      18.242408141056437
   775   3      22.326542440743868       0.131119945919461      18.350827071175512
   776   4      19.903692512612423   -0.033219763445344365       20.21812330616244
   777   2      22.263639578939038      1.9698707836774545      22.199744731558607
   778   3      22.348297271163382      2.1910600717641575      20.311942539711854
   779   3      20.383911235144716       2.009290265273719      22.382240533315894
   780   3      22.492751280024478    0.067758765529061002      22.337483752546643
   781   4      19.835825507264964      3.9780054031546563      12.120404418615628
   782   2      22.211682274791922      6.0104498335716752      14.082985121247631
   783   3      22.431593013626944      6.1152496104891743       12.17710696443527
   784   3      20.336837051364238      6.2533965934516287      14.204818431090263
   785   3       22.26233698167065      4.1156873840514052      14.331766735752938
   786   4      19.854078977801702      4.0407681392875592      16.142144275301714
   787   2      22.245002431591526      6.0641146940479365      18.120316933963569
   788   3      22.278943487930281      6.2410416803913229      16.243321853897392
   789   3      20.365257979071131      6.0581884367551595      18.343140830337394
   790   3      22.492975005505667      4.1392070469612445      18.289623257319054
   791   4      19.861231872675191      4.0084228258790278      20.190766052880477
   792   2      22.205791865855076      6.0280471671094311      22.198813850603418
   793   3      22.430056615811303      6.1071529434033422      20.321542967277029
   794   3      20.349924407869501      6.1888233242918069      22.332687220541121
   795   3      22.338986199049643      4.1142125993063745      22.463775597609022
   796   4      19.841991350392188      8.0562146945556812      12.110575360414161
   797   2      22.237122688485446      10.056026954699044      14.086067914111805
   798   3      22.321860886386737      10.318705568021556      12.185465701197472
   799   3      20.338047722793796      10.077295040880394      14.238625292941235
   800   3      22.465692449585632      8.1546591442414282      14.184290093892955
   801   4      19.853367722240062      8.0293892780373177      16.113708657992024
   802   2      22.207814176624741      10.107129035311047      18.099867750939428
   803   3      22.359432395806387      10.129958905229479      16.228201287080715
   804   3      20.345847203296724      10.246197145080588      18.301282920848429
   805   3      22.307060941636678      8.1604430367885143      18.420562831936678
   806   4      19.860907555058215      8.0870025847595972       20.18027727366583
   807   2      22.242716188316745      10.068476934753424      22.196290860466434
   808   3      22.319234244111875      10.251686676724962      20.327278513051745
   809   3      20.359366969573941      10.111140246317175      22.400546906946417
   810   3      22.457320762428601      8.1440957451334484      22.361358082544314
   811   4        12.1144269846528      12.113029272606603    -0.38181415781397793
   812   1      14.131405751210506      14.152418224230686      1.9934291210034816
   813   3      14.155891773997098      14.487725879713674   -0.013626418816654306
   814   3      12.091376978873434      14.312726225630671      2.0337309832013983
   815   3      14.319425513805026       12.10127866840239      1.8191794108430839
   816   4      12.214299396605094      11.808661397842881      3.9737495897896391
   817   2      14.143420128723912      14.207774080597284      5.9083463481856775
   818   3      14.236277181157279      13.908520516336033      4.0412026234740166
   819   3       12.19481078414216      14.199949780155652      6.2081959959273236
   820   3      14.135464442115914      12.202980555864528      6.4017877834289081
   821   4      12.130304351463066      12.139605700681999      7.7372796129517187
   822   1      14.139419092794929      14.152828923199312      10.101994595390938
   823   3      14.159531297560621      14.485086176764005      8.0892470832424141
   824   3      12.103809575869475      14.324575458411354      10.127279550421141
   825   3      14.306370620613746      12.100996814219357      9.9205333774856346
   826   4      12.161440897329577      15.830086899823266    -0.05125171895349135
   827   2      14.144357107355324      18.234933444369084      1.8562932606295568
   828   3      14.244338753199967      17.968806881030638   -0.013685733293609018
   829   3      12.183978764239299      18.255527212985239      2.1497387726376398
   830   3      14.126996698501873      16.255659940243643      2.3561939929768578
   831   4      12.096213303966161      16.163254503882367      3.6744457876188341
   832   1      14.150868744320825      18.208825302373157      6.0451260577767973
   833   3       14.13750403986562      18.559052708454637      4.0370995010273143
   834   3      12.115354769636724      18.301911615548565      6.1222709090912328
   835   3        14.3333698403484      16.160830276297691      5.8619434576364773
   836   4      12.181087816923307      15.836114189364878      8.0638851541956313
   837   2      14.154624382333056      18.244513395184601      9.9675160699710457
   838   3      14.271439430157695      17.973748086463818      8.0984173424845292
   839   3      12.203101236060297      18.235788839975896      10.258744847949723
   840   3      14.147250864977726      16.254044110998986      10.459154888379436
   841   4         12.088439545676       20.20641633034694     -0.3884229096406871
   842   1      14.135915816588136      22.251734192735242        1.99122726061487
   843   3      14.160950152324496      22.586945926714183   -0.016096951709413804
   844   3      12.088577555456352      22.371362569714794      2.0300819356327255
   845   3      14.321845244595222      20.204489105707914      1.8154221024301136
   846   4      12.192288724694539      19.929493232977631      3.9256985725468785
   847   2       14.15913305599666      22.290965442297512       5.907826649704222
   848   3      14.222194770185833      22.001053970405913      4.0403742590645004
   849   3      12.194704774196486      22.280381721914381      6.2194959899836864
   850   3      14.127197990755482      20.297592497044096       6.412636189820109
   851   4      12.143411972983023      20.284041172892898      7.7638082053860833
   852   1      14.157323232689162      22.251276668703806      10.127275147426428
   853   3      14.161512262031529      22.575017091276454      8.1026123211677721
   854   3      12.106394753568843       22.42048784805565      10.144838163980351
   855   3      14.324047419675205      20.207528113244901      9.9217978638186732
   856   4       15.95631023089167      12.271177450150205     -0.2298530476219085
   857   2      18.058978645908969      14.170382664914371       2.053279123308839
   858   3      18.402490974245385      14.170397368306215    0.084136867953360797
   859   3      16.191498824788795      14.311736880796541      1.9955436274620868
   860   3      18.280689697974658      12.206591914658926      2.1051909008201659
   861   4      15.944419454297391      11.945773628634218      3.8464432423469876
   862   1      18.175099364606819      14.162100373032091      6.0601356561234647
   863   3      18.345990981354998      14.225993850744182      4.0256663660967851
   864   3      16.145910266148782       14.09693815595122      6.2999188704379145
   865   3      18.419745425881484      12.113254327305031      6.1054191997138041
   866   4      15.950416486333102       12.28757630439763      7.8745117666267097
   867   2      18.059822337452903      14.175438475025887      10.149588809939967
   868   3       18.40884553811518      14.174539070728335       8.176147349056107
   869   3      16.193505792112052       14.30645659943931      10.080412989078036
   870   3      18.284891627793947      12.211053050824706      10.198237700604764
   871   4      15.934013873896738      15.989872103709141    -0.21588016730934947
   872   1      18.179480745321836      18.205488238476562      2.0066082704161379
   873   3      18.335418023212011      18.278544584602326   -0.035818019993134741
   874   3      16.142486807744017      18.145288662216014      2.2575536738364472
   875   3      18.433414273018172      16.157799068360021      2.0538640573056801
   876   4      15.945166428788022      16.303569198594282       3.832308764250091
   877   2      18.064322318880489      18.228605853770141      6.0964275357261801
   878   3      18.436935329830501      18.217761579933356      4.1271770603096094
   879   3      16.202311866919356      18.359210312672662      6.0167163823484167
   880   3       18.30798498761272      16.262426112845077      6.1372828698955013
   881   4      15.936876508589302       15.99607365252826      7.8972371974266737
   882   1      18.177937918836729      18.211302740581701      10.103925396505504
   883   3      18.334776021772445      18.295422029146213       8.065991271714168
   884   3      16.154267152434919      18.151228147566055      10.375335717720302
   885   3      18.432826604016089      16.168954512821074      10.142957808958601
   886   4      15.919109889848771      20.371554694408012    -0.20375713823581604
   887   2      18.068014893867744      22.277412902193955      2.0453138358738205
   888   3      18.422040492837311      22.271640185326749    0.073819360824146432
   889   3      16.199889104222255       22.40281059653887      1.9885815905393207
   890   3      18.304421423182969      20.308275880008811      2.0867973378883553
   891   4      15.938216286714871      20.039154566345324      3.8268941689548721
   892   1      18.186120901334561      22.249259584788692      6.0414137800407257
   893   3      18.363254468940255      22.325530185135509       4.010415946002877
   894   3      16.148692803461735      22.188331602344977      6.2978289366070248
   895   3      18.451324825188035      20.207596572597048      6.0828027276622176
   896   4      15.928601963202878      20.356412527215298      7.8992715649732634
   897   2       18.10917810897848      22.274925143675794        10.0696759705547
   898   3      18.407753069347855      22.281985229429811      8.1649303516365812
   899   3      16.237676917846077       22.40640127249668      10.102160121246783
   900   3      18.290297115332159      20.332817862602738      10.260091116917422
   901   4       19.84303326123425      12.112714496935764   -0.051093531677472423
   902   2      22.226762772410382      14.092520418732095      1.9870163849807543
   903   3      22.341885715207461      14.324677356918665      0.0905933840477125
   904   3      20.345135025993908      14.134730989315546      2.1344797251244505
   905   3      22.477140198246342      12.187837947320753      2.0846624528773345
   906   4      19.831078872598898      12.088249905920119      4.0243717280286209
   907   2      22.216930969668208      14.110770178482975      6.0050898287488579
   908   3      22.434360749555111      14.189422887708774      4.1110724841972672
   909   3      20.349918874957496      14.324773763399312      6.1109112747037235
   910   3      22.284513758632869      12.214783164374587      6.2557780464308008
   911   4       19.85401157467361       12.09949695269075      8.0561731891386668
   912   2        22.2220222711769       14.08971696689381      10.049539601074189
   913   3      22.275646280124334      14.341219776171478      8.1573889650306182
   914   3      20.330744773559417      14.169815511377452      10.250806432206879
   915   3      22.427729191365149      12.212640621538009      10.161631311459512
   916   4      19.839499369363072      16.127850766502725    -0.04070871342804995
   917   2      22.225583279728166      18.124298898861703      1.9739450217336443
   918   3      22.482767938000823      18.250739613604399    0.060461656734663013
   919   3       20.35254208582424       18.38088336965864      2.0291720277930683
   920   3      22.270974581438587      16.228272096683039      2.1877548623469298
   921   4      19.842745756693478      16.153169124075664      4.0189749051462371
   922   2      22.276130547307673      18.127620463743281      6.0117321392819951
   923   3      22.276836378007506      18.392429127404597      4.1109099003181466
   924   3      20.377011233227076      18.234201470784267       6.237332682358331
   925   3      22.452760470763472      16.248337963566392      6.1200185508276608
   926   4      19.855007327580594      16.100303425795062      8.0257668966910476
   927   2      22.238476567622993      18.108711750032143      10.049144239310756
   928   3      22.453357363970895      18.303368062527273      8.1541721352067409
   929   3      20.346472197477702      18.437646370259177      10.140117966889449
   930   3      22.220872966662174      16.240141169462394         10.270167155062
   931   4      19.855269176747072      20.181889265640368   -0.018202082865811615
   932   2      22.244398684657863      22.182400871104687      1.9615937285552234
   933   3      22.364796910944328      22.441983685324672     0.06658857047168755
   934   3      20.370530496519073      22.268502692631678      2.1169671930148275
   935   3      22.469643498585899      20.301076034908696      2.0563539986918666
   936   4      19.862550189280658      20.157127001604024      3.9842614282654392
   937   2      22.220303037892144      22.184491808308877      6.0107187538042197
   938   3      22.453721547189048       22.33986252159923      4.0965272371899975
   939   3      20.356313487835955      22.437666175279027       6.104141178665321
   940   3      22.285063500381995      20.312750548404701      6.2367908446382669
   941   4      19.928390842724092      20.107040072646548       7.987524342355492
   942   2      22.245816657601534      22.182518641823393      10.073270885608254
   943   3      22.284520920991788        22.4635117262651      8.1628412328159783
   944   3        20.3342081863258      22.303506001742111      10.316055560896901
   945   3      22.412938179495725      20.308554300189343      10.180268538578884
   946   4      12.186476949783559      11.786681253909251      12.094800799009366
   947   2       14.15858538324154      14.205849768340979       14.01836224941594
   948   3      14.246557995466919      13.920485210630931       12.15100466164812
   949   3        12.2078088566665      14.183297268598674      14.320682071889676
   950   3      14.144066125044693      12.199733779082781      14.504371857257111
   951   4      12.153572596878808      12.131820140375609      15.845202491836517
   952   1      14.129672756235419      14.138233477168555      18.204525419043687
   953   3      14.156545689706663      14.475065844696754      16.201011047448667
   954   3      12.083853608940741      14.314351325835297      18.222932721497713
   955   3      14.326924592012103      12.093744226886086      18.016423287980885
   956   4       12.18246940655866      11.772840374997081      20.204674243410043
   957   2      14.148553517849596      14.195910791870862      22.109735338550522
   958   3      14.236890308927318      13.910446588580044      20.240724760912485
   959   3      12.198541768413982      14.181375133494564      22.401114021053637
   960   3      14.145834647906758      12.196160831745157      22.599870647810139
   961   4      12.115495226326029      16.160556185021058      11.775304175031824
   962   1      14.154980745160424      18.211255991106388      14.160761962768657
   963   3      14.154044269032905      18.542411202388603      12.156393092835621
   964   3      12.098988613709528      18.357527450683275      14.228786983143324
   965   3      14.350865192365628      16.165736398139913      13.994230287319247
   966   4      12.163412411808912      15.819852995441128      16.173436491408026
   967   2       14.10040284725466      18.219988374426482      18.117576281735573
   968   3      14.337258791822578      18.042488160382042      16.219080445233796
   969   3      12.167906126041796      18.280931520444302      18.287063218009671
   970   3       14.13252492521425      16.252824373433221      18.548511251725245
   971   4      12.055331342830842      16.106500561463946      19.898580283843256
   972   1      14.122660069896945      18.198342647287479      22.237096668430237
   973   3      14.118815579733342      18.557001878513315      20.228777407587202
   974   3      12.075777074259367      18.380368510251994      22.269699351950521
   975   3      14.325001402490505      16.155031846320636       22.05525528336765
   976   4      12.190724175514431       19.88187189196357      12.102775442603111
   977   2      14.060715107735669      22.300069442711354      14.061715903924265
   978   3      14.273590784281831       22.00800161268014      12.192557081364621
   979   3       12.16433510827183      22.342183530174662      14.298942723025414
   980   3      14.156091260056709      20.335953178857039      14.545684877190919
   981   4      12.062861691328569       20.14634781260413       15.87356430507219
   982   1      14.171147338730698      22.242323142960846      18.192139732548306
   983   3      14.197663698882277      22.619907098815812      16.172843806539259
   984   3       12.10999302983323        22.3777017809747      18.233969264251964
   985   3       14.36487675001819      20.209613629913967       18.01793623511719
   986   4      12.118941132821957      19.895855947298422      20.238282350181201
   987   2       14.14636745977128      22.291167065202426      22.102551083025102
   988   3      14.252626994142378      22.021233323333899      20.234069015770732
   989   3      12.184190653243336      22.300098454063196      22.391895191400813
   990   3      14.126051365091637      20.302024999966747       22.60140612805478
   991   4      15.942312340257249      11.940003947636175      11.960685005213589
   992   1      18.181278773500058      14.152427276426101      14.152832320351937
   993   3      18.326254617061956      14.250665220618705       12.12048146226679
   994   3      16.152806675663879      14.089594764898495      14.413575241583585
   995   3      18.441833208017027      12.112199409042688      14.195844616592641
   996   4      15.952481337138034      12.266931972301705      15.986494703357506
   997   2      18.067491666923019      14.164123106473678      18.262741921603393
   998   3      18.425324007758142      14.154270722506757      16.284539126479874
   999   3      16.198851321137393       14.30080113983762      18.194666483949916
  1000   3      18.295568457873642      12.196026788239386      18.304417962799761
  1001   4      15.937642784211372       11.93759159749354      20.043423212042082
  1002   1      18.183927686120221      14.160402909731618      22.256539840848653
  1003   3      18.349254306964173      14.223566305650289      20.225394887540027
  1004   3      16.150779697685127      14.096924835045179      22.498639465859316
  1005   3      18.420559511468547      12.106569694144303      22.313093592283646
  1006   4      15.950693608244677      16.312935969687349      11.941233371217958
  1007   2      18.118589872872619      18.177587497613647      14.219098661288882
  1008   3      18.468289421268619      18.235197701292918      12.251400023190035
  1009   3       16.25145083343627      18.404516671982211      14.111195493706445
  1010   3      18.252594186959527      16.263162063836358      14.293283180804348
  1011   4      15.930470165029456      15.987890399241435       16.01964263387703
  1012   1      18.171192548801983      18.182278616373249      18.218621668626081
  1013   3      18.295396597116266      18.374939619833253      16.168617966775511
  1014   3      16.151035085191634       18.14644507699072       18.49174326873824
  1015   3      18.437612296605632      16.147542080460049       18.24585351179989
  1016   4      15.960545355560837      16.295655840790268      20.038574666971005
  1017   2      18.065676696233314      18.216665769485704      22.298770608567093
  1018   3      18.475394322737774      18.213680751827887      20.329792814769913
  1019   3      16.202324366966959       18.34514833835583      22.200708664464454
  1020   3      18.309816654657752      16.254678088302914      22.349769459034182
  1021   4      15.956245027876404      20.031563153044949      11.961290811488096
  1022   2      18.164052252730094      22.236540745755377      14.150626942573153
  1023   3      18.278345706228667      22.379101261688191      12.201650824456124
  1024   3      16.260220059712275      22.209027609799076      14.321026147425911
  1025   3      18.432871138655827      20.315602187723616        14.1632211035627
  1026   4      15.896801015148625      20.174069553348719       16.13142689997774
  1027   2      18.171650225997517      22.266667534137095      18.310901104998361
  1028   3      18.374422639337126      22.313695368949137      16.176829879133589
  1029   3       16.25725158576941      22.446888125354029      18.167142447181476
  1030   3       18.28163625934209      20.286727789235051      18.264233989632494
  1031   4      15.934542486411381      20.044558260050962      20.029687097286953
  1032   1      18.199231195777802      22.246209555775483      22.279217472146279
  1033   3      18.355292901951735      22.295386757071348      20.239038384657942
  1034   3      16.152368950494385      22.191593498997371      22.491940132239176
  1035   3      18.474334437335187      20.194938118093187      22.274700811241658
  1036   4      19.851810399792978      12.046232389344119      12.069855055873601
  1037   2      22.216026132174271       14.09049366529544      14.075709191780042
  1038   3      22.422042873360667      14.220469144627552      12.181218302017701
  1039   3       20.33772003007099      14.393001153584319      14.223542530772043
  1040   3      22.202362526239583        12.1978343473137      14.326447284389166
  1041   4      19.855982236424055      12.116578252053552      16.139796198450714
  1042   2      22.234578496759418      14.168453298011194      18.139802276006421
  1043   3      22.268369271724737      14.320226069155749      16.252170287330099
  1044   3      20.343103959793112      14.121483087699485      18.340087685175277
  1045   3      22.451132545609489      12.178363647942763      18.290007858922419
  1046   4      19.857946115413817      12.078367862419883      20.170456734850294
  1047   2      22.208659354170685      14.108970053580313      22.204282964902315
  1048   3      22.404132596670415      14.130318336241992      20.331167293639972
  1049   3      20.354560187660272      14.281604534935534      22.351803752063443
  1050   3      22.330935109132724       12.18725219039586      22.493026087659434
  1051   4      19.884117938338875      16.103913367420432      12.052194624146241
  1052   2      22.238238671877205       18.13614664590488      14.087299733034781
  1053   3      22.213148203908702      18.387705035865405        12.1981382444314
  1054   3      20.349143671931273       18.22397414516373      14.341332758547223
  1055   3       22.48054230340524      16.251844604413893      14.200873763776459
  1056   4      19.908983102021882      16.039927904554538      16.139571378043893
  1057   2      22.246656282552809      18.244834833256967      18.130579991759113
  1058   3      22.503041668810948      18.225292381365023      16.216944609625056
  1059   3      20.335225236393082      18.338478628158462      18.181156670610218
  1060   3      22.298365201861948       16.19733725337472      18.419927693120183
  1061   4      19.874648329497752      16.169164415093501      20.174456999976112
  1062   2      22.249852672773141      18.126304969356941      22.217288047207472
  1063   3      22.272020577438756      18.291347576549924      20.321904959709695
  1064   3      20.377109595234057      18.183296545346138      22.417388756448684
  1065   3      22.483176770074746      16.217107997825732      22.367096158779091
  1066   4      20.005591202194857      20.046249370330266      11.950591331516664
  1067   2       22.19351634352104      22.175613657733827      14.178811268974028
  1068   3      22.477592822181165      22.357408607847692      12.219423401353035
  1069   3      20.305892694649245      22.467887092302405      14.158801380265343
  1070   3      22.270484196345233      20.305033674172275      14.315686963257425
  1071   4      19.956066470647944      20.135695477704019       16.41866338368413
  1072   1       22.27431151871053      22.206906503865252       18.22038251203762
  1073   3      22.310025720864324      22.543767314176154      16.141291351352461
  1074   3      20.250357249595169      22.270745233033143      18.126186694856464
  1075   3      22.508970125982046      20.173232863073245        18.2426985102143
  1076   4      19.896984306882313      20.162095239648352      20.234086957324109
  1077   2      22.236481405183607      22.164071064954292      22.199153216376416
  1078   3      22.476594374159752      22.328429873138859      20.331710934101224
  1079   3      20.379047408922794      22.401638677399568      22.304587861638243
  1080   3      22.311188145152169      20.270772798658736      22.410119195911214
