(written by ASE)

1080 atoms
4 atom types

0.0      24.299999999999997  xlo xhi
0.0      24.299999999999997  ylo yhi
0.0      24.299999999999997  zlo zhi

Atoms # atomic

     1   4   -0.089859108451248754    -0.24899306417067532   -0.075272369938044897
     2   2       2.032440299676169      1.9471053865053405      1.9808071855076357
     3   3      1.8521463063369548      2.1086369203202429    0.090452703360981074
     4   3     0.02697021132803162       2.115555270776742      2.2757903545065488
     5   3      2.0827568700202654    0.072130549584114981      2.2091294780449364
     6   4    -0.13395468395035823    -0.29785633108747978      3.9941464230915802
     7   2      2.0622001502127962      1.9331013269506685      6.0340891137207393
     8   3      2.0321708583049021      2.2478871070262909      4.1365145115248669
     9   3    0.016176836944713065      2.2996642864744929       6.126613541804673
    10   3      1.9013715029499851    0.067247381667251152      6.1230175663868698
    11   4   -0.067754740180633752    -0.32665907488292484      7.9931297149865221
    12   2      2.0273057781173125      1.9547672013344808      10.089116134246925
    13   3      1.8702446625886981       2.157027901543624      8.1589542678699747
    14   3    0.028138091276894383      2.1568550131413486      10.296550529864779
    15   3      2.0568591414370085    0.095525264032633395      10.216879195147522
    16   4   -0.011185112163503213      3.9084302051093118    -0.19735754216717835
    17   2      2.0869423074300197      6.0405230637286218      1.9710342086304993
    18   3      2.0089796136246898      6.2645078496772753    0.076188683931035617
    19   3   0.0025624320707151411      6.3527559411791295      2.0998169548795453
    20   3      1.8600389607369063      4.1521558993235193      2.1013985608568069
    21   4   0.0042606205846154443      3.8562718357946335      3.9274699491770799
    22   2      2.0660519767139918      6.0409995972024237      6.0173563209394674
    23   3      1.8630393320793186      6.1735665968952231      4.1244817665503097
    24   3    0.014604730025757053      6.1737249333535758      6.3065819600590061
    25   3      2.0207461965658799      4.1580402887568244      6.2418790877385364
    26   4  -0.0076741590847022208      3.8900296937461651       7.952940383562682
    27   2      2.0980801908865092      6.0467981478207378      10.057498224385805
    28   3       2.004342270996923       6.308779311778502      8.1644568980573453
    29   3    0.019345288750634394      6.3498659107025759      10.166402793870688
    30   3      1.8898995223468864      4.1740670519490424      10.149840958354856
    31   4   0.0078893108235097414       7.924868591315855    -0.18321403879705056
    32   2      2.0580988381162459      10.109333117754444      1.9384826349421835
    33   3      1.8745704023812486      10.159030867521233    0.058671543046429513
    34   3    0.015375752687214212      10.161625115344211      2.2783107121330985
    35   3      2.0172478350595688      8.1974468194312884       2.232787669042386
    36   4    0.010718587980443834      8.0109632657583898       3.831295400492015
    37   2      2.0896985964197721      10.091630131651113      6.0118871494870527
    38   3      2.0284506636746924      10.328066576589958      4.1263847124137705
    39   3   0.0079454282383106933      10.391333729129256      6.1342243386794282
    40   3      1.8574356967504118      8.1962464516589399      6.1360930861144327
    41   4   -0.010911834804485052       7.932706236657717      7.9612901308112383
    42   2       2.060524663202262      10.079585401718106      10.050313710585078
    43   3      1.8554816431179093      10.185047649531679      8.1613705743758125
    44   3    0.014226474783972572      10.202927762707864      10.366793600557363
    45   3      1.9966435355192798      8.1933874082353206      10.305449394123851
    46   4      4.3256765602387803    -0.18389647542526777    0.017327766797725883
    47   2      6.1768102971709844       2.044791890460294      2.0570744622426091
    48   3      5.9980087260069324      2.1475298767939983    0.051339539837112605
    49   3      3.9404842987700595      2.2110013098406922      2.0424851909829145
    50   3       5.846143399972429    0.080662529197143437      2.0370127399688296
    51   4        4.36898178584274     -0.1319672834746935      3.9687711349868806
    52   1      6.1031947779262108      1.9840283881096044      6.0919391859073677
    53   3       5.848419533230877      2.0484078256206133      4.0299516493909051
    54   3      3.9506264880789539      2.1038786228169264      6.2663359327819954
    55   3      5.9812309052704586    -0.05551993654411131      6.2036148275102976
    56   4       4.285754271609691    -0.23458799450315945      8.0332940982088754
    57   2      6.1155389957176238       1.913514192218259       10.14113545122485
    58   3      6.0458721855436917      2.2428533208047678      8.1855250995307713
    59   3      3.9776145367963509      2.2429757954421898      10.104142687340259
    60   3       5.947419655474123    0.041644841313420715      10.038803032424696
    61   4      4.3998717399568639      4.1125359364201772    0.059475024988795852
    62   1       6.122511388413491      6.0719517388231719      2.0230753925680749
    63   3      5.8494303189200796       6.077068163168466   -0.020247052535951684
    64   3      3.9580740709441598       6.117453786755588      2.1882987676061867
    65   3      5.9532666477705298      4.0305346328644287      2.0941577799575324
    66   4      4.3746479097022855      3.9343558865728419      4.0013286436247002
    67   2      6.1974178155380706      6.1143849015036942      6.0219389649961883
    68   3      6.0346279989136731      6.2145344982017914      4.1106635949405339
    69   3      3.9610658665601064      6.2611477029341644      6.1132739811495673
    70   3      5.8537692098769538       4.166963611942168        6.07817724056589
    71   4       4.307306086115358      3.8470216707061704       7.928080327202208
    72   2      6.1162187828416688      6.0413564049480746      10.115772137375469
    73   3      5.8811277252287413      6.1343414227391309      8.1591721001542439
    74   3      3.9926463184288012      6.1478205181834147      10.263040876546976
    75   3      6.0412378953446959      4.1522132417004958      10.213840934272103
    76   4      4.4520350200548027      8.0579353842756909    -0.05486969487499721
    77   2      6.2541562199547762      10.155159957225802      2.0202498888379239
    78   3      6.0106811623857119      10.208492466443674    0.061669150912732743
    79   3      3.9561473629997206      10.282166742745392      2.0531758173235195
    80   3      5.8698534341656812      8.1880937297618939      2.0121589155087589
    81   4      4.4119255370380506      8.0924605652816286       3.914035806705396
    82   1      6.1261998829270778      10.121379964172347      6.0476919035825318
    83   3      5.8683454748544897      10.131472542364616      4.0116827540728464
    84   3       3.965826941139091      10.128253793864179      6.2470404630043825
    85   3      5.9962757899120396      8.0854373659852783      6.2103420127466622
    86   4      4.3926670615604664      8.1929028482978605       7.950259327156318
    87   2      6.2305074757697927      10.165210530259737      10.136901631114988
    88   3      5.9952941280135361      10.206034837117857      8.1679060740404665
    89   3      3.9534918328372206      10.248657707511319      10.115511670862611
    90   3      5.8834528841618718      8.1666887211042809      10.132872979895975
    91   4      8.3354264882066182   -0.093990018354180707    -0.18662354819609414
    92   1      10.154711829056916      1.9748843443434259       1.988474947421073
    93   3       9.865147441602236      1.8373532978437435   -0.048062834451167873
    94   3      8.0555749127900373      1.9588273232865698      2.1878087462169464
    95   3      10.133066010770097   -0.036485346904864824      2.3763674733032309
    96   4      8.2473321460508728    -0.10883846603633465      3.7666501921574826
    97   2      10.141984752858058      1.9074742639020239      6.1125581681810619
    98   3      10.144371296429822      2.3147895784476114      4.1155274343466699
    99   3      8.1275049997132189      2.2462480235391165      5.9986476047867381
   100   3      10.028192869246993   -0.020242414312023758      5.8828145947847537
   101   4      8.3069479920166014    -0.13070683630722546      8.2792952816819092
   102   1      10.120453688735468      2.0270841594364852      10.100038678601821
   103   3      9.9291489462555695      1.8275747740426025      8.0705677074845603
   104   3      8.0240651054074998      2.0144012769715536      10.266554230733277
   105   3      10.098219454212115   0.0055965136906180888      10.397538705538386
   106   4      8.4157710802265058      3.9136201832012549   -0.086790356124497717
   107   2      10.158811475168093      5.9190234647535434      2.0783413015834356
   108   3      10.146203244974322      6.3299503930102254    0.053188990779483573
   109   3       8.146825324125615      6.3031433482096739      1.9486188123961692
   110   3      10.033305320125383      4.0329313022095041      1.8048555440613396
   111   4      8.3396333950452473      3.8231962941128574      4.1709266771989926
   112   1      10.137803738163317       6.033853946630467      6.0641985609751199
   113   3      9.9520220644008539      5.8790328410579713      4.0269497423168072
   114   3      8.0594052552582216      6.0320827563975303      6.2399992943569726
   115   3      10.121119898286342      4.0177339464626529      6.3767991924874012
   116   4      8.2844633982877394       3.813886799832821       7.921995780111593
   117   2      10.234009946336714      5.9548361142450252      10.148250697718368
   118   3      10.129816393019462      6.4074954702133491      8.1766523496678634
   119   3      8.0241804486953754      6.2630808129122171      10.045699081780022
   120   3      9.9964186298052216      4.0839675315144452      9.8921793495677193
   121   4      8.3486756760654686      7.8322386550453569    0.080253727220625418
   122   1      10.167111927256654      10.090250955261373       1.986578381771354
   123   3      9.9802957621283745      9.9486178487119918   -0.049752226095247314
   124   3      8.1150136652450175      10.073149210939127      2.1609428439862235
   125   3      10.154595643370264      8.0766954189092086       2.323271696881902
   126   4      8.3647708945474601      7.9118737989682941      3.8312650169831994
   127   2       10.16209886002871       9.994360105239295       6.069454357285033
   128   3      10.156308378049967       10.43107565788157      4.0933630202739089
   129   3      8.1442308726035293      10.377849944569098      6.0005017972147616
   130   3      10.002986807570828      8.1003321785544724      5.8855820632009745
   131   4      8.4089290360422915      7.9847139985607782      8.0719679311527521
   132   1      10.155935641565069      10.080015924037578      10.094087851188059
   133   3      9.9602543752676489      9.9329634779129048      8.0537164560773498
   134   3      8.0908694333574047      10.105367257600468      10.249552246215233
   135   3      10.103649379723208      8.0631025913010941      10.423565815931257
   136   4    0.051417457262108009    -0.37704318393255182      12.204795420253943
   137   2      2.0362507588536842      1.9155291759161337      14.207231271398893
   138   3      2.0343291725581687      2.2662397636695033      12.173580572906374
   139   3    0.017761937797596022      2.3017364812657966      14.138803824998657
   140   3      1.9519618524717735    0.054762351503078226      14.135445590323913
   141   4   -0.057104223900034723    -0.35457640119315942      16.137703557751745
   142   1      2.0448184726569654      2.0094368744970827       18.17239657391352
   143   3      1.9151393597663195      2.1585024531130976      16.135499045749064
   144   3   -0.030613490364749543      2.0890452458935345      18.376759917885053
   145   3      2.0802011985361819   -0.035011583090408249      18.453988692816218
   146   4    0.032967591954897867   -0.093306064310225853      19.863634848420379
   147   2      2.0612270521517635      1.9635564022314371      22.219758134767634
   148   3      2.0110409721426223      2.2044191735609941      20.351279131868406
   149   3    0.010453848604164923      2.2566886330335585      22.346075533749939
   150   3      1.8680295762454513    0.075546285046896505      22.329615962649648
   151   4    0.042031258676962273      3.8328106429131732      12.062485408074041
   152   2       2.051564932065582      6.0717424276596175      14.081197282296724
   153   3      1.8491420963008354      6.1905104529473194      12.182700125662596
   154   3    0.025072452255180459      6.1883595928141766      14.383237087249627
   155   3      2.0558135974964475      4.1820539452351762      14.278204687403948
   156   4     0.10650564414363213      3.7739981583556657      16.139772966394862
   157   2      2.0876800207350352      6.0509006105196894      18.120981688243656
   158   3      2.0442221927666653      6.2759141398787293      16.233424748102703
   159   3    0.019031463769009705      6.3306057941253124      18.273088931168552
   160   3      1.8752506756619181       4.160723108609278      18.257570574239509
   161   4    0.092580022818963034       3.802920734892111      19.990147926250476
   162   2      2.0650364176902998      6.0099937790444953      22.185890448128543
   163   3      1.8671792629550306      6.1227415658673001      20.304597612105415
   164   3    0.014023595137189719         6.1362577540237      22.514656282998025
   165   3       1.989824708946889      4.1213611236170902      22.471246130452293
   166   4   -0.017100050422475001       7.996249519055981      11.948507794084032
   167   2       2.098285771800148      10.131250292577644      14.101377199399687
   168   3      2.0118267729362369      10.335586675773484      12.208112319667929
   169   3    0.013366667531504485      10.389337619274405      14.242829325199621
   170   3      1.8586248662147968      8.2175197818550174      14.216142071576483
   171   4   -0.029284287598823285      7.9931926261756523      15.992629639560285
   172   2       2.067832826218055      10.095983974636734      18.131292047263393
   173   3      1.8888601316443443      10.170017845698005      16.253064955343103
   174   3    0.029314391164586454        10.1636899129571      18.474544382495807
   175   3        2.02990485815574      8.1789541737242892      18.413896539609219
   176   4  -0.0047045209764786855      8.0223873107981998      19.997479668034213
   177   2      2.1011983311558713      10.054395152403842      22.188647877608609
   178   3      2.0291136756151174      10.279523255004023      20.314923618391727
   179   3    0.011889014405737015       10.32894322198281      22.368280200881721
   180   3       1.871871309196792      8.1517494222038813      22.337544415180144
   181   4      4.0138882503039346    -0.37701205304589802      12.136093938593218
   182   1      6.1196671722766229      1.9741908077727985      14.116531636520275
   183   3      5.9004806124950191      2.1319662827027845      12.095120802295831
   184   3      3.9788051124985322       2.125744083337668      14.231806482351471
   185   3       6.092785116117426   -0.039452750793609735      14.363632315634806
   186   4      4.1897537133597993    -0.20087219373964585      15.907753933129566
   187   2      6.1044415510794545      2.0475140381300569      18.080446197763628
   188   3      6.0409010630573272      2.1791540714205082      16.195368436764227
   189   3      4.0722034383675441      2.1355996712489214      18.338375516654612
   190   3      5.8611598476848288    0.031574254725650848      18.226377789921205
   191   4      4.0445849988434324    0.069936088842402697       19.88793731252359
   192   2       6.092284360358029      2.0165133536658564      22.229373256887666
   193   3      5.9231241680495357      2.0297972031248599      20.329888534541325
   194   3      3.9715500158779271      2.0435043293887025      22.447406130127682
   195   3      6.0381802166070226    0.095323400897206381      22.432437730784873
   196   4      4.2336576818336571      3.7787592641369923      12.226163838157806
   197   2      6.1920852727094262      6.0896017421845539      14.225822739493504
   198   3      6.0430095003988642      6.2484841404256386      12.145655471563963
   199   3       3.956286159256551      6.2628084774323938      14.116450700798184
   200   3      5.8311703045244219      4.1610344887072239      14.136309900814208
   201   4      4.2381977612653667      3.8658288645338104      15.981453586975517
   202   1      6.1002825615969938      6.0560534771350447      18.194835227604933
   203   3        5.88508415706149      6.1397837786526113      16.148818727497982
   204   3      3.9685749552165288      6.0498144522021002      18.398949116213167
   205   3      6.0648567639728963      4.0057838364649818      18.390050513928369
   206   4      4.2337798366694051      4.0035293840774377      19.924741943487113
   207   2       6.205374522993182      6.0887791839242151      22.252954589301911
   208   3      6.0329273161052557      6.1728227529221611        20.3158160446471
   209   3      3.9515606605761118      6.1777579024159763      22.278460334645381
   210   3      5.8569528114835601      4.0811774239838963      22.326554322652072
   211   4      4.4279538753898171      8.1649537111544372        12.2255625449361
   212   1      6.1417472377382234      10.134827650006525      14.173818013613936
   213   3      5.8719274773366825      10.157098897917948      12.119501660148869
   214   3      3.9731163187976914      10.144292314388574      14.296737432219958
   215   3       5.952021861693952        8.09738900139563      14.187799516771166
   216   4      4.4535190361473571      8.1331262842528229      16.132610482513851
   217   2      6.2414514671991137      10.147215583562451        18.2335867028048
   218   3      5.9929886495084119       10.18824967813589      16.258849847338482
   219   3      3.9580986066781483      10.252593668969663      18.233201655723441
   220   3       5.865806526622098      8.1774836886383397      18.219941929931672
   221   4       4.438117904794102      8.0562166465575196      20.146567215145829
   222   1      6.1272279723364873      10.092855038208633       22.25518753981671
   223   3      5.8790435311315754      10.130258654543784      20.213015402516717
   224   3      3.9650584282360928       10.14838433858649      22.435333213157413
   225   3       5.972517180756248      8.0496661863653305      22.366947526172723
   226   4      8.3460798660138451    -0.14274876835352485      11.967753344723263
   227   2        10.1563903610182      1.9109870585003295       14.16714519896785
   228   3      10.127052829042519        2.32600308763941      12.182274826239212
   229   3      8.1335903840488459      2.2803804769208278      14.084533077554012
   230   3      9.9579074772993152     0.01053571592859469      13.956763048175366
   231   4       8.347233200867926    -0.13949995203543541      16.094529020185149
   232   1      10.136546528867191      1.9653654462453496      18.173098054535366
   233   3      9.9438800408453734      1.8349278977731798      16.140868717209919
   234   3      8.0130355733668921      1.9598165853887035      18.397722786502513
   235   3      10.120461687066493   -0.027783127180989818      18.520251432799629
   236   4      8.4074488850920712   -0.060713238189915919      20.108515321451325
   237   2      10.264314397654788      1.9822481765508682      22.283241714816214
   238   3      10.048950919834224      2.2603161082023684      20.332310901706244
   239   3      7.9952504559748769      2.2032097670504447      22.276856283512334
   240   3      9.8916835420218021    0.055483157118970658      22.135178035960873
   241   4      8.2584358600107546      3.7874010291752218      12.177135245879041
   242   1      10.145910070072535      6.0286718628687304      14.135805240634602
   243   3      9.8945815117649545      5.9054529363507688      12.088622108413867
   244   3      8.0668232855821671      6.0353424683983796      14.288199641083873
   245   3      10.169628289067166        4.02796374956755      14.474554716120274
   246   4      8.3499844334455311        3.84957367718226      15.964091839236922
   247   2      10.159016840476401      5.9317144669380664      18.230907468497399
   248   3      10.140461169471868      6.3623124823527695      16.245089939964316
   249   3       8.131075926446373      6.2966934511478287       18.14913907056712
   250   3      9.9684159784287001       4.026158227767012      18.061694231804385
   251   4       8.300179676953988      3.8695037956450848      20.036038857154477
   252   1      10.148351170685599      6.0002040678768811      22.227623199451145
   253   3      9.9425653628124255      5.8817982461315914      20.197694132131229
   254   3      8.0722023673500356      6.0195314966676161      22.431945247001188
   255   3      10.132499347355411      3.9887843647153041      22.602981672890152
   256   4      8.4260524807936896      7.9485026355683912      12.066179296152237
   257   2      10.166680705587398      9.9720277088909217      14.220311362944104
   258   3      10.153259642443267      10.403660009801561      12.202790389112081
   259   3      8.1563001194729079      10.353435901963891      14.100938121430225
   260   3      10.043850939487841      8.0884043277044473      13.939238332983631
   261   4      8.3393540908297918      7.8782333057981182      16.318212997768569
   262   1      10.161090780146969      10.084264150692507      18.204367223198307
   263   3      9.9729940755066746       9.920303988153151      16.166306967333718
   264   3      8.1048130821831634      10.068461647482112      18.337204215980606
   265   3      10.144996468640107      8.0654128475079432      18.508996477069019
   266   4      8.3515201455061536       7.858463917810603      20.043855121580052
   267   2      10.140570683936375      9.9381546659454489      22.291416943320275
   268   3      10.156024955691771       10.41581597612244       20.29501950724724
   269   3      8.1497249439536983      10.335058694115904      22.194091920034772
   270   3      10.057148579123179      8.0650355250810239      22.054160252162021
   271   4   -0.016185838486062379      12.014223354793129    -0.21089707060969104
   272   2      2.1035430968777078      14.180676880635147      1.9447175186984516
   273   3      2.0500470338012513      14.323958252344598    0.054464330458629751
   274   3   0.0086343522833440458      14.374324135180487      2.0849914965842569
   275   3       1.850099971700478      12.204800448680045      2.0893708379009652
   276   4    0.026944836524201859      12.019579550079959      3.8481813951822268
   277   2      2.0687281243343545      14.113253890037017       6.011437083620689
   278   3      1.8802483841298825       14.13059134643524      4.1300770024352085
   279   3    0.031084244330710942      14.172711844041817      6.3349013047477047
   280   3      2.0523461759450692      12.216466359465874       6.300002932522256
   281   4   -0.036567455910264106      12.059968915330026      7.8673346468641459
   282   2      2.0638062976724996      14.112853206314945       10.06230060137494
   283   3      2.0504472436648236      14.356861453297276      8.1720256014368786
   284   3   0.0064949803362012049      14.375101023901451      10.207096193204276
   285   3      1.8929939576020764      12.217284057602443      10.177743173172139
   286   4    0.017899105230046432      15.990968872053886    -0.12657621019589888
   287   1      2.0643733324296134      18.191883761819732      2.0138030915627883
   288   3      1.9506364385551671      18.373467240989967   -0.026657574959343896
   289   3   -0.034321726420371956      18.209772768570403      2.2791660193496743
   290   3      2.0679119802929211      16.152807649079541      2.2759921574964124
   291   4     0.14075858306912756      16.191355385373743      3.7324758112409562
   292   2      2.1118020834971563      18.135660768741378       6.020328072384288
   293   3      2.0332116385984631      18.379592281999415      4.1528109570673921
   294   3    0.027913253296823176      18.412859483379137      6.1124974101412981
   295   3      1.8429802520357248       16.23632225483253      6.1109630345351444
   296   4    -0.06966168888089018       16.06866763870654      7.9019465306583392
   297   2       2.036222195493631      18.124915778035213      10.037499169068594
   298   3      1.8347500346748684      18.199846169051334      8.1552165536537427
   299   3    0.041305358895887503      18.239488473369178       10.42415111689199
   300   3      1.9830046030967787      16.237332296110701       10.32766170417238
   301   4     0.11438113448440096      19.980383017357834   -0.097710046153713176
   302   2      2.0676814148241567      22.200458045175864      1.9845064751645125
   303   3      2.0848865649296773       22.45554128250032    0.085738118327208568
   304   3    0.038430800774498911      22.525444171399077      2.0603980834503384
   305   3      1.8592089356884305       20.32684558817272      2.0945560356086883
   306   4    0.076271012473825978      19.950980566166272      3.8675107640217159
   307   2      2.0358928812783015      22.141625851081873      6.0528836963881494
   308   3      1.8869207558240788      22.328940401732506      4.1342943469305604
   309   3    0.053601813201927397      22.303513851943194      6.2793358346084842
   310   3      2.0484885330050013      20.262200470763357      6.2584712147009096
   311   4    -0.17646509966180088      20.100300962793934      7.8658997284150569
   312   2      2.0304925605254422      22.132251740105936       10.13667149541946
   313   3      2.0385366679066461      22.478232838186305      8.1615898787132455
   314   3    0.012514526140788882      22.493553800208502      10.143144562969443
   315   3      1.9451914150013219      20.255241805835418      10.125722531021434
   316   4      4.4502280439854625      12.070756714194957    -0.11466547678030968
   317   1      6.1368832893519771      14.150805646765505      2.0066149228782657
   318   3      5.8695614387760013      14.186538548303266   -0.037233495772298245
   319   3       3.995284612986949       14.15645147442838      2.2142161707368375
   320   3      5.9978632399582912      12.121945481626653      2.1125920943751448
   321   4      4.4003534954979955      12.069346888892689      3.9152589479888471
   322   2       6.201269920920133      14.143906699783868      6.0533635712324765
   323   3      6.0247474143011335       14.32656158167244      4.1323356793881221
   324   3      3.9678948077873946      14.378300426473265      6.0839100347866237
   325   3      5.8879862983854458      12.234164752655001      6.0759714978106922
   326   4       4.438020598497955      12.093828514328035      8.0753358633711194
   327   1      6.1416345073397531      14.146005655644069      10.114701709088902
   328   3      5.8438058961313377      14.200034776243754      8.0674824850173028
   329   3      3.9546043910635458      14.266076415954258      10.268979884405685
   330   3      5.9437663073961913      12.122081536267297      10.180644238901213
   331   4      4.3659905776632284      16.032088849404293    -0.13905871247184756
   332   2      6.1067451257927532      18.239150870799094      1.8723386876448338
   333   3      6.0998083623488926      18.343453320508832   -0.010416702798810814
   334   3      4.0955259889588831      18.452215582475851       2.025672801661162
   335   3      5.8924085105197923      16.277873661111887      2.0454097579756034
   336   4      4.2375528576916093      16.083959111610067      3.7593892881619211
   337   2      6.1472308936234636       18.20456054736799      6.0416979280030905
   338   3      5.8900950938666465      18.195085450351655      4.1403873865204606
   339   3      4.0034242751487819      18.190553589546646       6.260228366957806
   340   3      6.0474257339900763      16.266656670050395      6.2424909968952864
   341   4      4.3479845698222803      16.006083885323481      8.1565821015921447
   342   2      6.1818348079000449      18.220131573647915      10.183721797994124
   343   3      6.0443442724044694      18.356831069753799      8.1341272969469252
   344   3      3.9628622161647509      18.288969257255829      10.085597675592954
   345   3      5.9199021295077889      16.272007141828123      10.101235562428336
   346   4      4.0495611957112398      19.921657350929941   -0.097054140243610559
   347   1      6.1218087127581615      22.249083417075017      1.9899591680568858
   348   3       5.869217483121334      22.346973432451708   -0.051913871545420022
   349   3      3.9749936549402953      22.257005887058138      2.2183405765904118
   350   3      6.1414421516765545      20.217276482037999      2.2578623339522976
   351   4      4.2918614325035715      20.198478856256664      3.7779207281292226
   352   2      6.2024206028122792      22.303422097355618      6.0728908144545404
   353   3      5.9853399958645968      22.373949437675819      4.1394160788915384
   354   3      3.9606587460090279      22.419315879777553      6.1068676942194227
   355   3      5.8774925223497929      20.266379823498482      6.0998458286362371
   356   4       4.400784605281256      20.257446103666222      8.1673790461594127
   357   1      6.1120834368710897      22.252000033389081       10.10839637607784
   358   3      5.8379476040057741      22.222687004093537      8.0710486433659501
   359   3      3.9603764597392948      22.355347101059664      10.238029561450711
   360   3      5.8801806680315707      20.215768970206653       10.17055907416038
   361   4      8.3788614583901637      11.931909612863487    -0.21090899646522168
   362   2      10.137278152577844      14.022712439203495      2.0572055389435153
   363   3      10.152099589055922      14.489490178931392     0.04247272232913224
   364   3      8.1467810318300895      14.441663004571124      1.9405492551455445
   365   3      10.038658716474293      12.150182446681058      1.7862849885097631
   366   4      8.3628134870584958      11.948265916491406      4.1440168548565843
   367   1      10.138073583011241      14.166079639644895      6.0346854086814039
   368   3      9.9908919843256534      13.978381216225996      4.0028929721675528
   369   3      8.0654672814521593      14.141073676091144      6.2291538459439586
   370   3      10.141948721854556      12.145510978157125      6.3686326629634147
   371   4      8.3706597418599564      11.943536438735608      7.8915420141029431
   372   2      10.136898252045837      13.997911300435073      10.132465075718134
   373   3      10.154080127820581      14.469415590192996       8.152166994213319
   374   3      8.1530127874650216      14.375363904404129      10.056272601565052
   375   3      10.074918538081192      12.127825478911506      9.9026731269004351
   376   4      8.3732618352068631       15.98822626269731    0.066577110999819486
   377   1      10.131775878699695      18.227927442687808      1.9866281208723295
   378   3      9.9397870152376875      18.099844092299499   -0.049517955396888885
   379   3      8.0336920330538373      18.160970918321237      2.2562514077647431
   380   3      10.132062927070281      16.219794111583145      2.3070160617929072
   381   4      8.2771733392351639      16.098623511006693      3.7309775674254193
   382   2      10.210379293128106      18.091916494571105      6.0767646764008143
   383   3      10.128585673835978      18.554008158639668      4.1699841218382447
   384   3      8.0393548446995009      18.396730361122561      6.0470261434053159
   385   3      10.031066129055322      16.237203406813759      5.9098428720259397
   386   4      8.3738901303273359       15.98723738948633       8.213193446997094
   387   1      10.156293152682707      18.212201669655599       10.11182331327162
   388   3      9.8684226568355555      18.138784741093428      8.0534586562440875
   389   3      8.0652900653696804      18.292875000958542      10.228415333908776
   390   3      10.112027429940001      16.210469642351825      10.406039305626791
   391   4      8.3299265695839946      20.066555856777597    -0.27957123945829992
   392   2      10.145586906843093      22.240396879907994       1.907878541642849
   393   3      10.093354842386539      22.551795696472137    0.027213513518759599
   394   3      8.1460347343169488      22.442159419040408      2.1592380763533017
   395   3      9.9585175646321122      20.305592532491222      1.9500135958795484
   396   4      8.2289165069017276      20.139426525579537       3.713178827423389
   397   2      10.214434129869961        22.1988402526408      6.0521019698230463
   398   3      10.075945667210256       22.09856625294502      4.1477193432073749
   399   3      8.1021236952776388      22.268560830198961      6.2100384743023103
   400   3      10.096795802723229      20.323969851135068      6.4153680097497192
   401   4      8.3353167341033565      20.004602672029748      8.1627866151461852
   402   2      10.144253843467085      22.172918502811438      10.189309865194165
   403   3      10.130866367152565      22.621160896357555      8.0998215144580463
   404   3      8.1519373732737641      22.471645387505305       10.02235043616392
   405   3      10.082489973873688      20.294090552103842      9.8566083771562099
   406   4   -0.026109575189149043       11.99047522687378      11.996291807660107
   407   2        2.04838766891669      14.163949340955126       14.09391522096232
   408   3      1.8842453381452513      14.204621552544697      12.205304935702934
   409   3    0.033095675123625337      14.120693251933613      14.414823135206564
   410   3      2.0537256862212847      12.229590793702577      14.371221362294976
   411   4   -0.056943897231523571      12.131334353274777      15.936381109769624
   412   2      2.0979522925220033      14.134057922759052      18.136415195566698
   413   3      2.0631866795427327      14.326145683361839      16.265045462326889
   414   3    0.028641719057294707      14.335177618617704      18.346055774914628
   415   3      1.8807976919591944       12.20634734973849      18.299044895674484
   416   4   -0.027436596255552337      12.037747441945866       20.00807130097337
   417   2      2.0478625840308617      14.068620210281523      22.179658410213879
   418   3      1.9053483257029917      14.178626682386701      20.315433939790843
   419   3    0.041845494603960386      14.201568876259486       22.54310620656306
   420   3      2.0112326596154766      12.180461564545794      22.472142063611411
   421   4   -0.084454602475929716      16.108223817134874      11.985667624334232
   422   2      2.0943785260018952      18.238789485367079      14.071240636917588
   423   3      2.1231777532687635      18.363083054469332      12.184217189589276
   424   3    0.040079590196465488      18.387282442733333      14.161096194567033
   425   3      1.8510093485883483      16.233408791986225      14.238800522451356
   426   4   -0.090524572083163751       16.19598927785999       15.88528591105155
   427   2      2.0564293424176614       18.16738606875418      18.176982270293383
   428   3      1.8224296298621019      18.183624121017441      16.287588124341905
   429   3    0.037015559139409161      18.175484172614084      18.508364776517443
   430   3      2.0394220181483673      16.247759975420397      18.439053708322518
   431   4   -0.066009399326138182      16.141046305354376      19.977406716092535
   432   2      2.0454095298653416      18.103033795503841      22.275084565770346
   433   3      2.1020258291656693      18.405491211546604      20.328006168227912
   434   3    0.036503521053029703      18.435076447610847        22.3150428098301
   435   3      1.9052156741792694      16.213315687379797      22.333212211458871
   436   4    -0.16563821946832202      19.908632506038522      12.161395090545881
   437   1      2.0345383870759459      22.207526632480768      14.155896083745693
   438   3      1.9619344358785926      22.415795324512946      12.105472717836935
   439   3   -0.035338207060283157      22.347248535788516      14.294155988209473
   440   3      2.0727991433010966      20.186122333770832       14.41221041315368
   441   4    0.055011587798682822      20.070844348065656      15.888630151623083
   442   2      2.0522803277647497      22.256007567637909       18.10170799100543
   443   3      2.0889113328415152       22.41728055436203      16.230579857365296
   444   3    0.054554468794211802      22.466169367221287       18.19224707979911
   445   3      1.8433539570854978      20.285546235871468      18.272789005400938
   446   4   -0.061990702116010439      20.169030127374501      19.969450503369206
   447   2      2.0410858060505168      22.235627218786092      22.195100325523931
   448   3      1.8427055719888086      22.266257064365792      20.322399455931521
   449   3    0.041975830458043061       22.30858935772029      22.557935514472153
   450   3      2.0807487481662896      20.346522476777125      22.447168152108731
   451   4      4.4563112713520932      12.136043693400833      12.127201200237215
   452   2      6.2539286803854095      14.201874100106014      14.192564236078287
   453   3      5.9964762310572146       14.24275448422028      12.210718454077657
   454   3      3.9626697285051957      14.344830511051088       14.17062913357459
   455   3      5.8783995118369985      12.230919956158068      14.167705620740747
   456   4      4.4519658083562543      12.118767780570886      16.131107618032278
   457   1      6.1264542277331069      14.147521920554858      18.200462572031352
   458   3      5.8679212680940607      14.172416355563758      16.159965291351572
   459   3      3.9681881495696829      14.190112562720632       18.40210255649076
   460   3      5.9676127501573815      12.114473800782752      18.281326258415504
   461   4      4.4492440744177397      12.101458468550053      20.172788604770734
   462   2      6.2449145672375126      14.186829845767219      22.268360845584787
   463   3      6.0055036474654537      14.244747256934438      20.309332810450535
   464   3      3.9516129765482786      14.296865305505655       22.30783123605887
   465   3      5.8974111956756685      12.222502589634388      22.263926916932579
   466   4      4.4079993775559814      16.060062157288897      12.080730659475174
   467   1       6.135013385115565      18.199033289005293      14.183020624994475
   468   3      5.8723159738094592      18.254174099921823      12.124010931842987
   469   3      3.9956701213190815      18.172917994568952      14.400289015556085
   470   3      5.9990342666414405      16.165952023745877      14.250003601185911
   471   4      4.3693523255388014      16.126978143612348       16.04075182572652
   472   2      6.1923475305271749      18.168775788004304      18.204775143574341
   473   3      6.0382276775001085      18.373636266032328      16.280889568335613
   474   3      3.9685001975594951      18.416029213088564      18.201774464551416
   475   3      5.8956294779253868      16.264725208472541      18.214635128126229
   476   4       4.408855087798301      16.069127508685778      20.180428217219731
   477   1      6.1210516609348691      18.194751257050321      22.213852160430733
   478   3      5.8097027560435333      18.247610057731265      20.191536847792804
   479   3      3.9798098055583253      18.306125444728558      22.415356681888021
   480   3      5.9364758048283859      16.161046182843744      22.333710484798541
   481   4      4.3657893855319276      20.148538347888472      12.102835737839316
   482   2       6.158414788391986      22.310534757222605      14.067656743850124
   483   3      6.0563502089957373      22.351888637076641      12.165553512226104
   484   3      4.0643807031488741      22.482299017890728      14.150878956699344
   485   3      5.8492304290379469      20.322928713403101      14.165007603792038
   486   4        4.23717327157288      20.124315120721995      15.911231091584876
   487   2      6.1172273200230878      22.227701081109156      18.236706601792509
   488   3      5.8425526352448065      22.259574924472634      16.285095456594284
   489   3      4.0053213345243979      22.276016660780197      18.434677532892973
   490   3      6.0451729105365457      20.311511755081177      18.363450415073338
   491   4      4.2053439202142702      19.976340150232527      20.256999594939497
   492   2      6.1144665581484299      22.200985067063908      22.289319660380794
   493   3      6.0721113321508291      22.445444939794641      20.274043634596133
   494   3      3.9670115687766039      22.506299483506872      22.262051544982061
   495   3      5.8842211161062972      20.326200371396581       22.20837651891657
   496   4      8.3862481419412305      11.935497560720979      12.282505224848885
   497   1      10.167605057505357      14.150633355780048      14.156412788742864
   498   3      9.9825352841985797      14.011430865711196      12.107886671260037
   499   3      8.1162481061644307      14.121060457189063      14.291293774488508
   500   3      10.142575460174296      12.133113869508934      14.466012432934797
   501   4      8.3726830444305449      11.941501833667971      16.007432779827493
   502   2      10.139707698682988      14.010217502602083      18.244057036100727
   503   3      10.158627237334255       14.48905434845847      16.244517064363254
   504   3      8.1479936033338323      14.406645625805277      18.140226266453503
   505   3      10.053681841945529       12.13912598423474      17.982832022299526
   506   4      8.3765476752355177      11.929111849258392      20.382299387616701
   507   1      10.162200219043825      14.155806945625153       22.24178463004084
   508   3      9.9697745118822052      14.003862592096869      20.202182533430587
   509   3      8.1072496455149761      14.149729286818264      22.401250983944752
   510   3      10.126363229257041       12.14142373396013      22.543378937415703
   511   4      8.3808155548159338      15.955271663699644      11.967433390730326
   512   2      10.139891134318848      18.076851715791385      14.197776100865875
   513   3      10.148272415697068      18.564392265477487      12.187921418853664
   514   3      8.1479234524932878      18.470994503675961      14.082809798653479
   515   3      10.044609065050526      16.204253891340539      13.920152663908457
   516   4      8.3854565888051891      16.009186517308919      16.332953480838253
   517   1       10.14094021974987      18.237619807620479      18.187273023269622
   518   3      9.9792054435825008      18.037867812380266      16.149627560456899
   519   3      8.0607053549442469      18.199518664730206      18.373489986501454
   520   3      10.121205094699677       16.21203715798276       18.49656703546129
   521   4      8.3769181849778018      16.006338579092592      20.042420268538606
   522   2      10.141702242557407       18.09203196103369      22.280941772592783
   523   3      10.157994519207168      18.546596071673449      20.284326215113193
   524   3      8.1412784903353064      18.479083943110055      22.169539127872195
   525   3      10.044010551131036       16.21543945511727      22.045376163002217
   526   4      8.3384597780306962      20.040010789063761      12.287142433669473
   527   1      10.139044717626629      22.255883083843663      14.165222493939714
   528   3      9.9831541827270414      22.106279480193781      12.112241615790131
   529   3      8.0517006105045343      22.185133782163266      14.356739051747189
   530   3      10.140180671628498       20.25216227965047      14.470523081533015
   531   4      8.3313708360488565      20.104222076762188      15.972217546138296
   532   2      10.244481119297173      22.191202983975288      18.230635781413906
   533   3      10.118427331521213      22.622410882650634      16.260582158990967
   534   3      8.0170464234438672      22.461612941657943      18.127835768853906
   535   3      9.9951209994680941      20.311084295931067      17.988642343382942
   536   4      8.3747566317188884      20.069775549241346      20.316068047214884
   537   1      10.134893306473737      22.283292497188192      22.195630104951764
   538   3      9.9045421392406379      22.130248424800804      20.175561643789749
   539   3      8.0115385733923379      22.265689307258587      22.406757506792903
   540   3      10.119085334115042      20.279854299957101      22.527354049585345
   541   4      12.357266367628265    -0.28592951137900197    -0.16950050647290937
   542   2       14.16701475029855      2.0464368361233349      1.8714117545169295
   543   3       14.22686289175633      1.7192303824564903   0.0069382584800153444
   544   3      12.205134585894134      2.0085510292793436      2.1779798251245182
   545   3      14.142762573253233    0.032752858317761611      2.3738602312956218
   546   4      12.170433299939525   -0.017717812216143727      3.7074682823006917
   547   1      14.163606443821257      1.9760870342723793      6.0832164572235339
   548   3      14.181084294826977      2.3255256775703468       4.057875120398136
   549   3      12.095953011201365      2.1381863055444086      6.1224033401141451
   550   3      14.254824099607951   -0.059721617536373228      5.8189213943149269
   551   4      12.283476806026671    -0.24213555367509701      8.1465011659853754
   552   2      14.099971391307081      2.0862908257353481      10.014471357522563
   553   3      14.277353161578727      1.7071739833867161      8.1489550030605731
   554   3      12.187094922710086       2.040030907289283      10.233205586672399
   555   3      14.181710262941634    0.079597175886873817      10.487253870975286
   556   4      12.224027576873306      4.1126843158766917    -0.29615259844092634
   557   1      14.148672858288487      6.0395583042552694      1.9988679592662846
   558   3      14.139674819612781       6.381889668338566   -0.012010291132757756
   559   3      12.102496777223367       6.174359354678649      2.0304445449308086
   560   3      14.302263783504426      3.9924141896069774      1.8058738930994702
   561   4      12.195774932579731      3.6656031461147065      4.0026685230853101
   562   2      14.162001177111762      6.0691733309511466      5.9135967570519119
   563   3      14.241570179975385      5.7917308007182884      4.0456344887039881
   564   3       12.19463140955126      6.0601305019735046      6.2271098407179739
   565   3      14.148737850903196      4.0831529170399081      6.4231463324107914
   566   4      12.125471361288765      4.0402160314971622      7.7361584339126637
   567   1      14.174579611313185      6.0398631823394489      10.096763585166858
   568   3      14.153136753906836      6.4038827524780579      8.0937798517803081
   569   3      12.125920046029549      6.1366779293219693       10.16964670977627
   570   3      14.345352722828105      3.9996203749620771      9.8610705424950158
   571   4      12.161659735982882      7.7260986019847095   -0.064426701652284049
   572   2      14.152272739781965      10.136407544550371      1.8505305860478383
   573   3      14.236546855375433       9.842988621262279   -0.013084156414297816
   574   3      12.203272266926048      10.124377171071556      2.1648380493248909
   575   3      14.135789264823465      8.1379480750069213      2.3574024791134809
   576   4      12.142983353670465      8.0667398177503511      3.6823115851420818
   577   1         14.137534147017      10.096137402444596       6.043547786315421
   578   3      14.156552322383808      10.428129152110458      4.0388695422499659
   579   3      12.101055491799093      10.228434211208224      6.0922878004187426
   580   3      14.298394781109401      8.0397863054033483      5.8649692866174519
   581   4      12.219187450591296       7.770934260391102      7.9736296938050124
   582   2      14.159220636189531      10.137577597713346      9.9551166018001744
   583   3      14.224664896205386      9.8434420031286791      8.0890662791737853
   584   3      12.201421456233371      10.093153761097017      10.278883174859276
   585   3      14.146230137154319      8.1329929345545686      10.464412323066112
   586   4      15.979362175872833     -0.2163219570701497    -0.23157041295303996
   587   1      18.223640437912657      1.9769697827809627      2.0139133155779998
   588   3      18.370932104282947      2.0635877555955031   -0.031120439811672833
   589   3      16.158599887282818      1.9387548292035319      2.2569937812015843
   590   3      18.405391724666099   -0.061414387673750598      2.0482151515962563
   591   4      15.965464553040755       0.127318463412157      3.8324664400116779
   592   2      18.116457860434515      2.0163019269141556      6.0157074617204227
   593   3      18.373210656091185      2.1099348630054888       4.123911178864665
   594   3      16.241376237458745      2.1531906397660157      6.0692363227991972
   595   3      18.316883241111857    0.083441354027397219      6.1510726270496923
   596   4      16.056326096593015    -0.25323022069269974      8.0532841673424791
   597   2      18.200039782590949      1.9741121891470357      10.109320968331087
   598   3      18.286902510855253      2.1467382370049268      8.1646725011761543
   599   3      16.275017730162709      1.9988398016569002      10.283093000621946
   600   3      18.391364559756056    0.085966206885123464      10.168858046274325
   601   4      16.036531189921206      4.1047273406248177     -0.2699603206716093
   602   2      18.070288637384309       6.080980931147935      2.0397445585915355
   603   3      18.408242163249692      6.1059029012613433    0.074784096267264538
   604   3      16.201874482934294      6.2075071725580377      1.9922185290797485
   605   3      18.312598828094572      4.1169570324547342      2.0743587572370386
   606   4      15.967034501556563      3.8369897395458312      3.8413438160532425
   607   1      18.179445474354484       6.070443235599523      6.0480279585802599
   608   3      18.366776376876871      6.1101222858420297      4.0175193390508497
   609   3       16.14945345771979      5.9969939267259385      6.2977949168403757
   610   3       18.43167418537351      4.0234128363256794       6.160049411275808
   611   4      15.998062042125966      4.1290977549609877      7.8665463710784005
   612   2      18.095094325268501      6.1024262556184494      10.148059014650164
   613   3      18.423785994293809       6.097440319915882      8.1817723486630278
   614   3      16.228244992852279      6.1951930930204586      10.099852463666519
   615   3      18.322887955714336      4.0971382734823276      10.174764469828263
   616   4      15.939035222466259      7.8716474842499427    -0.19309776484170749
   617   1       18.17102067938972      10.114033857762131      2.0045150225397643
   618   3      18.348050874534778      10.154909331401296   -0.032701155533903348
   619   3       16.14165202097217      10.033588578110651      2.2484485337729541
   620   3      18.428851728508803      8.0680276880492929      2.0648417136014907
   621   4      15.941476895720319      8.2104902376805136      3.8361756466095995
   622   2       18.05589532066567        10.1258926444993      6.0997897690504086
   623   3       18.40198528160046      10.138490009119996      4.1288962505755968
   624   3      16.189788221025474      10.241385121594881      6.0421190419937227
   625   3      18.312707509858381      8.1590759787677012      6.1258239465901427
   626   4      15.939931400965726      7.8868111873110252      7.8868516085548199
   627   1       18.17780181633939      10.119334603559775      10.105778848346601
   628   3      18.349539203626531      10.155512048449298      8.0659013600801046
   629   3      16.144664374412514      10.039367721373232      10.345624467034392
   630   3      18.407778880344058      8.0661832454801026      10.179633879648581
   631   4      19.890856274820752    -0.12748019644169467   -0.055787745128195752
   632   2      22.204852970247394      1.9656243599646785      1.9658458625435364
   633   3      22.452503318948555       2.098886237721159    0.063109422146509761
   634   3      20.356882549750409      2.2050950176774862      2.0693469060052707
   635   3      22.323489918740332     0.09099187883972415      2.1501976817477346
   636   4      20.075671485138887    -0.38865137234265673      4.1903505836063832
   637   2       22.24146805476909      1.9566642480871435      6.0310679155270099
   638   3      22.324752733255263      2.2263506645017772      4.1290886972948524
   639   3      20.351432839157617      2.0507983212306655      6.2380653249380584
   640   3      22.446879489576464    0.093912570714893506      6.1014195949502978
   641   4      20.091597432713471     -0.3037943628145206      7.8524482752516551
   642   2      22.218492925802195      1.9379035088130323      10.086386520629793
   643   3      22.482919958216172      2.1131110780665971      8.1707192989525925
   644   3      20.336787803403038      2.1828564337414056      10.120678040102387
   645   3      22.315559509431306    0.077322152373080474      10.268256599158313
   646   4      19.855616346567793      3.9881782234679832   -0.059688680944763484
   647   2       22.24689707492103      6.0240879286341107      1.9467053372597158
   648   3      22.331099672875755      6.2524492647145671    0.058420314172995334
   649   3      20.364595880685417       6.070473761759418      2.1378425695988894
   650   3      22.482367919679454      4.1334169451663136      2.0856980206922833
   651   4       19.88039133477276      4.0197935405187364       3.943480667385511
   652   2      22.228549926310233      6.0447648495428128      6.0022242840398246
   653   3       22.42687541267637      6.1460856777642228      4.1111360414179119
   654   3      20.356634555383192      6.2135198681717636      6.1479909938753652
   655   3      22.310957029601177      4.1523438835274789      6.2604987580325808
   656   4      19.938104623101953      4.1208716311499867      7.9439221647227676
   657   2       22.25156825565373      6.0131811239121724      10.067504942705618
   658   3      22.337296328845369      6.2948287392309368      8.1676562397477905
   659   3      20.365860717497199      6.0999712483799184         10.227947406061
   660   3      22.461207437550797      4.1378709743850912      10.146329248285996
   661   4       19.84765989613949      8.0406767095713256   -0.067624806059980738
   662   2      22.187816474607192      10.075833876255771       1.956620212460833
   663   3      22.434421170351488      10.168697708476666    0.066152152519141152
   664   3      20.335569299499095      10.272846183409069      2.0605535618149942
   665   3      22.295670990447256      8.1755708287790352      2.2041460800849109
   666   4       19.83682448725358      8.0731530596604042      4.0014651188674799
   667   2      22.237279348502192        10.0965689001005      5.9958633209504875
   668   3      22.309163437628722      10.309276044729883      4.1058892304974686
   669   3      20.355005074019406      10.132420978317333      6.1855284285840115
   670   3      22.457262470012836      8.1902413286042641      6.1243008530061207
   671   4      19.858674428848921      8.0596793314445172      8.0298277664301878
   672   2      22.194926584757539      10.076484359036197        10.0475986743426
   673   3      22.435719621993069      10.177554345555242      8.1547424444788863
   674   3      20.338190333960089      10.252807584207712      10.158115814737396
   675   3      22.323214391175259      8.1875422179259001      10.306428571871606
   676   4      12.173386405061157   -0.049726888867456395      11.825625456201191
   677   1      14.178436303376676      1.9688766705885239      14.123407572257761
   678   3      14.187855721999499      2.3989540475848652      12.107001458693169
   679   3      12.109380562416009      2.1211853112382322      14.140697091281755
   680   3       14.26874062070002   -0.054282437590754046      13.861254293403794
   681   4      12.244076495969409    -0.31199349167391849      16.093097086983889
   682   2      14.197655544967516       2.009413299715197       18.03168785157375
   683   3      14.227455365268471       1.772451858786672      16.165884879710045
   684   3      12.202456101503033      1.9974444929539494      18.372043674299388
   685   3      14.170176235467448    0.043240424717278084      18.522870013423415
   686   4      12.228115223625997    0.046080625169094933      19.881834912504253
   687   1      14.186615577194903      1.9943259569507437      22.233535011530584
   688   3      14.146725126544677      2.3659472584499119      20.239188128215506
   689   3      12.139825698907719      2.0221676386560485      22.328539627666302
   690   3       14.24519847794121    -0.05746993372645931      22.160399923921631
   691   4       12.15890570808352      3.7287504882984743      12.149433408059794
   692   2      14.143501401474223      6.1074979561068004      14.016483867882856
   693   3      14.241988748987128      5.7744878761885534       12.14916215878779
   694   3      12.194745103457043      6.0649335655092855      14.305539984575523
   695   3      14.138716267234981       4.087290486356566      14.483114814649124
   696   4       12.16552115375395      4.0028330391046287      15.841422268629362
   697   1      14.155529256689949       6.038911174255964      18.198261462069226
   698   3      14.156435524299795      6.3813587234661808      16.186139284972707
   699   3       12.10331921737915      6.1395379619860622      18.242312751468418
   700   3      14.243568939675628      3.9862355107837995      18.008141001260952
   701   4      12.312764425041296      3.7760159318400053      20.038763156043235
   702   2      14.167291267831006       6.078737934053879      22.109418843290676
   703   3       14.20255462445669      5.7511605593885582      20.245682386279668
   704   3       12.20192689446832      6.0320054523231521      22.430014645584336
   705   3      14.145388268452095      4.0733573047108198       22.62854318364046
   706   4      12.162397571766233      8.1251314016917551      11.800461070609792
   707   1      14.140646082593543      10.099169931592796      14.157399671009037
   708   3      14.158381193381068      10.417534157797672       12.14368927062856
   709   3      12.105216934403776      10.234008277966909       14.18578727838594
   710   3      14.309530898059409      8.0514473993697599      13.952077940024127
   711   4      12.179461699440591      7.7328422276916147      16.145117999859057
   712   2      14.146109214581772      10.135495963472138       18.06550763487153
   713   3      14.233080139034415      9.8283968362198983      16.199431110631039
   714   3       12.20003108643607      10.104829917288649      18.370695541095419
   715   3      14.137621998512181       8.125982248286622      18.561737242583675
   716   4      12.130308859826469       8.065150489332046      19.894856573801885
   717   1      14.132922320617796      10.085390829107007      22.250499732561959
   718   3      14.163819731265955      10.414803488362107      20.242467009849399
   719   3      12.092334481152326       10.25160515038962       22.26965161781596
   720   3      14.306220237670935      8.0317202557908178      22.043811905541499
   721   4      15.966282412347677    -0.13412661293011091      12.038110463668195
   722   2       18.11334288300441      1.9982964948367639      14.247054257500547
   723   3      18.415573358227654      2.1628262328157355      12.140886668592485
   724   3      16.240766383789826      2.2226407701681916      14.080849739395742
   725   3      18.257395351216584     0.08900926754258312      14.087151964587679
   726   4      16.137927403427437    -0.35928557407854633      16.085031397596605
   727   1      18.231344801788119      2.0148261492510238      18.192261593038538
   728   3      18.305219492097759      2.1134232615800688      16.147465024704921
   729   3      16.167668751276082      1.9797347756640844      18.425751835210967
   730   3      18.260704736392238   -0.010302354816317154      18.404220473094334
   731   4      16.219514264028767   -0.024774946076377178      19.838244360511919
   732   2      18.112621822826544      1.9811931862341345      22.284880541345125
   733   3      18.382111136896199      2.1183711003936874      20.327494161864415
   734   3      16.228932255014243      2.1665155299918042       22.27255575172639
   735   3      18.299502921915838     0.03788505191753129      22.327338526269049
   736   4      15.959667220244006       3.910109899006843      12.111340573511693
   737   1       18.17850816073306      6.0825821516295679        14.1741329248489
   738   3      18.375501612845547      6.0892931686412473       12.12676432278049
   739   3      16.144465784786391       5.976513654293341      14.389304868341277
   740   3      18.466691766513517      4.0460481440732821       14.18793380743546
   741   4      15.956060166224042      4.1393006994109776      15.969044354273372
   742   2      18.067821789372132      6.0843598987475094      18.256483718595685
   743   3      18.423514541893589       6.102004094717155      16.275227926915221
   744   3      16.201338942923524      6.1804356815168342      18.186237660763979
   745   3      18.344235443860317      4.1220895314525263      18.247894642616117
   746   4      16.008796787353557      3.7675447131126498      20.074481626781104
   747   1      18.197959445874822      6.0571465938765225      22.255272988649015
   748   3      18.370320045261515      6.0973706246361346      20.215931349898213
   749   3      16.150984690533583      5.9802729342129091      22.494033005467724
   750   3       18.43124695162934      4.0154659555649905      22.338766202814629
   751   4      15.961045346110279      8.2281225744861395      11.935121833141091
   752   2      18.057516856228983      10.124828580185943      14.214076779031013
   753   3       18.39606954160282      10.140810132689309      12.233100231002362
   754   3      16.190668226003996      10.239737451261741      14.150522830336431
   755   3      18.300448958518178      8.1571583741692866      14.219713969308504
   756   4      15.940941339496524      7.8910302260522363      16.012736889455731
   757   1      18.173793977198294      10.117320565426851      18.213348631784182
   758   3      18.349882791205637      10.148335823061704      16.175677459754166
   759   3      16.143674537865429      10.036554966520917      18.450612986068236
   760   3      18.412117875033186      8.0669730941929529      18.271947961987721
   761   4      15.949069709631109      8.2342666723393894      20.041389791785591
   762   2      18.061443356509802      10.126215344248713      22.299999051840484
   763   3      18.408883299635391      10.136803249734912      20.330305174822552
   764   3      16.194289115858417      10.231839335701133      22.233793133964642
   765   3      18.315620556401363      8.1568443752648605      22.320576915268987
   766   4      19.959391081009848    -0.23158204687548742      12.275459064572649
   767   2      22.224569217015144      1.9757627285937045       14.09324621007754
   768   3      22.351373327760943      2.2557750693483736      12.173519503232695
   769   3      20.341209103249618      2.0371695321857755      14.190862370013894
   770   3      22.438774178316738     0.10344488082243618      14.108203508318292
   771   4       20.12770801132503    -0.34881534691775046      16.271684805716887
   772   2       22.22481502348251      1.9457459571145905      18.127494272981242
   773   3      22.437556764712546      2.0935947639623738      16.195472684634016
   774   3      20.344767431281305      2.1522883189170456       18.24211149726159
   775   3        22.3132560146943    0.076018620182813745      18.339724346942401
   776   4      19.940545480227144    -0.17432354890174998      20.053237564151829
   777   2      22.252324065672404      1.9384545444157042      22.183128507720774
   778   3      22.315308205457367      2.1850459631582173      20.294286045868368
   779   3      20.371386527394531      2.0099314451245358      22.384174842018737
   780   3      22.477584618949237    0.053931437725719962      22.341941380471845
   781   4      19.882103917761906      4.1048501884470809      12.235865059341142
   782   2      22.235709370985195      6.0348393903800295      14.113666752629065
   783   3      22.462747204544776      6.1688901741233915      12.202495143383075
   784   3       20.36950610407073      6.2554651779831989       14.19642832420333
   785   3      22.289400902615593      4.1480181365868187      14.295915567897637
   786   4      19.848600815193869      4.0543014129405419      16.178738504363015
   787   2      22.250267490710105      6.0323923927639758      18.142024376821286
   788   3      22.339774026954217      6.2964443876331329      16.244920046786806
   789   3      20.370249890357741      6.1129887995559358      18.306257923330072
   790   3       22.44750899184962       4.140496767179255      18.230839179983022
   791   4      19.860531527371485      3.9804583747877698      20.195541350563801
   792   2      22.223132599412136      6.0028524044577276      22.179512329920779
   793   3      22.438437860502049      6.1433928830084517      20.291279593113927
   794   3      20.366880069788635      6.2206652127370079       22.31035790496615
   795   3      22.316507284347736      4.1113214790399342      22.438098803818765
   796   4      19.850315142810206      8.0905978900886648      12.134685589457682
   797   2      22.225616141270102      10.132356660028309      14.100424907266699
   798   3      22.321492174022467      10.324538201198628      12.200956613218695
   799   3      20.344974053585496      10.105648667922964      14.271347657047141
   800   3      22.491256246907106      8.2109744866242202       14.21893074948194
   801   4      19.849721241882257      8.0551068406969915      16.155733724546732
   802   2      22.194272242000917      10.112684080339916      18.149804454546828
   803   3      22.428121427730254      10.157904377831722      16.261632111912345
   804   3      20.338443316782254      10.252431377163425       18.27131208652127
   805   3      22.333495527860254      8.1955345499046111      18.406033477314647
   806   4       19.84885257405741      8.0741587659116067      20.209777324442019
   807   2      22.245764438932888      10.063419723385293      22.202952696635958
   808   3      22.328412895614182      10.295973204025643      20.317893560981286
   809   3      20.364004657941518      10.123847427180257      22.387087971098016
   810   3      22.465116293381008      8.1616899968552126      22.327919608788218
   811   4      12.098447909546135       12.10213351552833    -0.38223366668212361
   812   1      14.123752113727315      14.150988137001155      1.9950809419721289
   813   3      14.154291875102048      14.482158417225248   -0.011509477111658367
   814   3      12.087009172130385       14.33330796513413      2.0266319574866212
   815   3      14.314750257067617      12.097916730827597      1.8181544044111442
   816   4      12.197472928297753      11.795620496866327       3.974116538664326
   817   2      14.131895018242734      14.199862383868828      5.9051855893859013
   818   3      14.222175076849974      13.916556076193098      4.0396880297695317
   819   3      12.188397789364441       14.19059707745715      6.2199884095202282
   820   3      14.127242368636969      12.198036515228539      6.3959662136533462
   821   4      12.121024537358082      12.123459341983718      7.7320758775948022
   822   1      14.127417136912158      14.132129000224555      10.101479619963644
   823   3      14.158372490790152      14.473025979181992      8.0958961371247913
   824   3      12.090565085890688      14.324033014803065      10.135388122665756
   825   3      14.302542209260624      12.091027536368616      9.9184948723837731
   826   4      12.162913757222135      15.827741348964764   -0.047800874929647817
   827   2      14.138261038128347      18.228625426213096      1.8550066439995347
   828   3      14.237251650833938      17.983800057672664    -0.01223734429709746
   829   3      12.181211704855999      18.263105544646908      2.1593366124820697
   830   3      14.119196782889874      16.257037674517917      2.3554424497330757
   831   4      12.083885497475602       16.17421693378391      3.6670958338822794
   832   1      14.131287800773363       18.21157511532402      6.0505723775908651
   833   3      14.138309608666709       18.55087728346313      4.0516121346514362
   834   3       12.09098331964408      18.360418223119659      6.1948951573823514
   835   3      14.314410917060254      16.161252474306302      5.8806955864699608
   836   4      12.179453947139111       15.82081203325796      8.0704903334026259
   837   2      14.175399094783423       18.20168463338053      10.025565899271848
   838   3      14.252269365648843      17.992337574072618       8.117990969670176
   839   3      12.195629465348615      18.263266618227593      10.215521061886603
   840   3      14.139384335808119      16.234913608010231      10.467082800383242
   841   4      12.110891008580234      20.252814949541698    -0.40896627157556231
   842   1      14.127447822867756      22.250291573060512      2.0322552549988844
   843   3      14.202027517644813      22.553682732726706    0.018231018852683481
   844   3      12.080389830071324      22.344473327091425      2.1005804525935212
   845   3      14.302310894945331      20.202515520131254      1.8420875745801111
   846   4      12.218580297770574      19.959262013885681      3.8898210898580365
   847   2      14.272827460088946      22.301325054728096      5.9693300075810303
   848   3      14.194323553265757      21.957330957321506      4.1022296984444173
   849   3      12.138391599764367      22.315967672291634      6.2135277076068736
   850   3      14.127310710747549      20.322548725627655       6.497753751268454
   851   4      12.331971511501495      20.099236526259144      8.0111303984707902
   852   1      14.176466263411806      22.231962571286843      10.104172018524222
   853   3      14.137004277339697      22.645357555108419       8.094637888565881
   854   3      12.103768638871955      22.451902130377533      10.104528056260389
   855   3      14.284069347202436      20.203724705475754      9.8133135032560173
   856   4      15.931820073030602       12.27341776695013     -0.2182941891789249
   857   2      18.048294278166761      14.172209555212788      2.0458569021437665
   858   3      18.389956749413805      14.183394211662812    0.076098587008829904
   859   3      16.182752182880392       14.30853296676821      1.9989888015051636
   860   3      18.278206746813332       12.20451613921467      2.0786526135111223
   861   4      15.931034469561585      11.939721383253236      3.8327384258906854
   862   1      18.162111994702926      14.160086362775161      6.0491216972146908
   863   3      18.352574867316317      14.196238054074554      4.0128537729202751
   864   3      16.133045544165373      14.090346395154292       6.292592877285176
   865   3      18.413722608695689      12.111474059766421      6.1085322713442434
   866   4      15.934904397771511      12.273515948829257      7.8725796462804638
   867   2      18.061829915891952      14.163258533010296      10.132837076731857
   868   3      18.388512392374324      14.175347728591976      8.1697064623520959
   869   3      16.189852587104273      14.292172273659233      10.101656994760244
   870   3      18.296830498079224      12.199392613920569      10.173278963128348
   871   4      15.927797099069958      15.987960736371956     -0.2277256456590338
   872   1      18.167214660333631      18.208681218919804      2.0064688495514087
   873   3      18.342121301226875      18.251514751153433   -0.030409877150236981
   874   3      16.134293366152104      18.147936636347911      2.2573464248480835
   875   3      18.420203748213211      16.156420198060303      2.0587730020737252
   876   4      15.930046674300343      16.314796635482107      3.8455395986163614
   877   2      18.049729400863988      18.209193591784729      6.1326898089932529
   878   3      18.417730745464983      18.222274059319531      4.1215382789363817
   879   3       16.18091202909423      18.369469336654166      6.0226527127988154
   880   3      18.296007880500827      16.233716819985045      6.0718545312367569
   881   4      15.928901831006735      15.984880481387904        7.88030476871789
   882   1      18.197177610071545       18.20382293973282      10.084213203361934
   883   3      18.232181626003477      18.151919157939687      8.0563241221408948
   884   3      16.154563683890636      18.150904168964026      10.378756507486345
   885   3      18.415466329795862       16.14008841910946      10.187185738192598
   886   4      15.893542257054349      20.403018374076751    -0.17194259949556989
   887   2      18.057417938398228      22.312636659411822      2.0535838922093492
   888   3      18.396962659141522      22.259992579427639    0.073559066040887688
   889   3      16.187278555440212      22.373450898203725      2.0430701030275435
   890   3      18.320100080056367      20.304736071107165      2.0732862271152328
   891   4       15.95025880337543      20.025543076539378      3.8218379023562212
   892   1      18.186148970300671      22.242131754971957      6.0670038208081269
   893   3      18.375046157381949      22.272583944547243      4.0284889274235383
   894   3      16.177340902974503      22.210234974161548      6.3111040001624321
   895   3       18.43844373874256      20.185335555928773      6.0931606160050285
   896   4      15.998285651737767      20.216901690373398      7.9596896521833322
   897   2      18.140952213856448      22.117934343302348      10.163421038949069
   898   3      18.399425010956634      22.341680370971254      8.1976804596622479
   899   3      16.255347778781612      22.478092124413177      10.045615376133398
   900   3      18.165728149696363      20.261541289443446      10.181677131882941
   901   4      19.829118505702539      12.118243863909113   -0.044131673851565585
   902   2      22.222883545669209      14.104972839830895      1.9644087650964992
   903   3      22.351187491541889      14.337721038074724     0.07079908865178576
   904   3         20.344640433355      14.124961926314462      2.1031601564342339
   905   3      22.485037842983189      12.195343212708853      2.0626959751219096
   906   4      19.822067548652537      12.106569966742816      4.0054625341477141
   907   2      22.199317637230337      14.158195274188291      5.9783327276969711
   908   3      22.406311744465764      14.163225978938838      4.0969256178611095
   909   3       20.34090669744004      14.291143766146952      6.1265381976990607
   910   3      22.305229031049016      12.227230453290536      6.2738388404233829
   911   4        19.8457691935402       12.11817392477761      8.0354307051475349
   912   2      22.229718879480441      14.098670975271437      10.051976455985859
   913   3      22.321114653268527      14.333669228739316      8.1688121705932133
   914   3      20.347730358381295       14.15698739726348      10.229774058900645
   915   3      22.457522657091125      12.195301727470785      10.152212348036391
   916   4      19.819788201792445      16.148349221912884   -0.041508144920128588
   917   2      22.222107432204613      18.111039374226898      1.9451084729998116
   918   3      22.473243483426327      18.219457766082115    0.055319236437766352
   919   3      20.351725979381474      18.353938146778994      2.0497026370914928
   920   3      22.279764860346344      16.212338860624875      2.1975234886777213
   921   4      19.810436301308815      16.189193509168533      4.0222920303487495
   922   2      22.216346404041197       18.20473267934581      5.9983753352367684
   923   3      22.277398559866047       18.34505410882689      4.1122852374577405
   924   3      20.334713949417399      18.143865893035318      6.2429635936184429
   925   3      22.488865605114501      16.224318730742919      6.1500299927115192
   926   4      19.832247860303838      16.156751858051827      8.0300173400575208
   927   2       22.14929652213814      18.131216758610801      10.121273274986148
   928   3      22.532456561072966      18.160800032156196      8.1996996589267184
   929   3      20.302254290844921      18.315804015832722      10.099003009801642
   930   3       22.31119779430918      16.217450995866791      10.336908504866772
   931   4      19.832509715805923       20.21043978727943   0.0069227409547250015
   932   2       22.23643356835078      22.139484455482069      2.0433598897362613
   933   3      22.346485801500659      22.466929928540512    0.095609148039605643
   934   3      20.347900345364451      22.271594029841602      2.1093541388794286
   935   3      22.473593442524088      20.257171021610095      2.0551426187846813
   936   4      19.837237044669145      20.146916617272122      3.9590642427029112
   937   1      22.297721703682313      22.218391519503001      6.0490584218305781
   938   3      22.411904324441888       22.39456493917427      4.0074708881093866
   939   3      20.292255798116486      22.390232738058231      6.1713857223340858
   940   3      22.252269659276784      20.174135082918802      6.3605046448828491
   941   4      20.130308740899743      20.416013087354138      7.7113946982669921
   942   2      22.218599883689699      22.174634507373405      10.127041773156593
   943   3      22.314693671778947      22.453094827953741      8.2258695718182828
   944   3      20.317480292603165      22.310265877489762       10.24488005057222
   945   3      22.443227972473984      20.286122026215875      10.102988493576536
   946   4      12.181730474593412      11.776254930188221      12.095526095051438
   947   2      14.145998242998992      14.191455059716048      14.014732331439648
   948   3       14.24200505310403      13.896845363262671      12.144723889670535
   949   3      12.200087380293285      14.177836701843287      14.309067928977242
   950   3      14.135024227194741      12.186765445025852      14.510934093985282
   951   4       12.13334075746841      12.126278165188968      15.841245738412894
   952   1      14.127744584367852      14.142613884807758      18.202588745237659
   953   3       14.15453621391123      14.470094511397024      16.192117699832092
   954   3      12.088525843591807      14.319096640487503      18.224440649091598
   955   3       14.30921427506968      12.091813914399991       18.01152534618393
   956   4      12.172166969913665      11.768870252815256      20.217435873585348
   957   2      14.137858417041114      14.191655122871179      22.107987435881672
   958   3      14.233721244186784       13.90865747749891       20.24028154561648
   959   3      12.194826147265285      14.179563959405233      22.408763257629179
   960   3      14.136010980412447      12.193321894770985      22.595573688607114
   961   4       12.07734835849157      16.124914489754751       11.78708023980461
   962   1      14.137518531541311      18.178148263895011      14.132863197620702
   963   3      14.143747528918864      18.565388802526527      12.126404466370829
   964   3      12.095808238511065      18.379205817314006      14.164250938743258
   965   3      14.327995570253451      16.142973855495732      13.949765637065658
   966   4      12.176511787531531      15.833922814395155      16.174248348094565
   967   2      14.149225801519966       18.25584147235427      18.047297163552631
   968   3      14.254721720694693      17.957011644619978      16.179006228364116
   969   3      12.196661724221878       18.25648640990303      18.334830057425211
   970   3      14.131096117896986      16.249781159153244      18.542425890133178
   971   4       12.10703146591576      16.174099625551385      19.861727730713621
   972   1      14.132153824934527      18.206783219174454      22.241540642015529
   973   3       14.15944126635689      18.534434694842361      20.231382769803162
   974   3      12.090057690108797      18.388588200205902      22.271878977568974
   975   3      14.317392608045679      16.155779847288002       22.06685309191252
   976   4      12.172288319143201      19.885911651945801      12.124738367636185
   977   2      14.147947859492193      22.278932760818044      14.038482888205046
   978   3      14.313499940705162      22.045782293641004      12.141096580339228
   979   3        12.1903103807402      22.297764348554352      14.287354091610347
   980   3      14.156574712170322      20.293584140597794      14.485018887590734
   981   4      12.116652413138823      20.195094747671728      15.824110863687777
   982   1      14.194045724888424      22.235711045840414      18.159646755563788
   983   3      14.167271426140124      22.624235879082779      16.157759017443901
   984   3       12.13832804145887      22.379009422256964      18.222927999190699
   985   3      14.346266183369387      20.198644534572409      18.001201995940871
   986   4      12.185606897020795      19.884541094251851      20.193331739637895
   987   2      14.178525110814705      22.292887196344282      22.067747748547951
   988   3      14.224358977852571      22.020952551676139      20.213795851906006
   989   3      12.199393712703946      22.303005357332488      22.418808752207774
   990   3       14.12542233871913      20.311129890408424      22.601244137173449
   991   4      15.934436399859926      11.935855605890549      11.955431969786583
   992   1      18.162423866916431      14.137301355993023      14.166997821380704
   993   3      18.342996447625318      14.179400671821014      12.120653980893861
   994   3      16.141672192668789      14.078757142086603      14.404578707386909
   995   3      18.413063398637693      12.104321727024818      14.222531921639874
   996   4      15.937830934022729      12.267041338481436      15.996181107287926
   997   2      18.057267548121089      14.166995498275561      18.263124052321459
   998   3       18.41472654601883      14.184141151637663      16.287044736585695
   999   3      16.191799189294958      14.290448805472847       18.18793705553022
  1000   3      18.301134920850533      12.202126353268209      18.283662092090044
  1001   4       15.92591902980613      11.942539649304088      20.052006993611595
  1002   1      18.168002279379333      14.166614989933986      22.257207872722969
  1003   3      18.356672001112393      14.197540864745031      20.224693949660985
  1004   3      16.139781261572317      14.094951462942479      22.497070785424452
  1005   3      18.416078272758174      12.111426643058397      22.312775361005205
  1006   4      15.988705640036683      16.223815231979277      11.937125285853167
  1007   2      18.115796003552909       18.14876623919308      14.182540770136786
  1008   3      18.389258116873975      18.210492198895782       12.19957114593778
  1009   3       16.20464187674019      18.364738230283159      14.098571281720446
  1010   3      18.261192597496457      16.200594688460697      14.195985704592456
  1011   4      15.930809436553609      15.980338266981345      16.010373844381604
  1012   1      18.177133092761693      18.178412679920665      18.216862137512454
  1013   3      18.311130480372967      18.170880053524325      16.179003980490926
  1014   3      16.149555525196774      18.128392356205914      18.455123323347973
  1015   3      18.441088805889326      16.141297716616382      18.267912536042068
  1016   4      15.915163776215234      16.319689777798583      20.044600368749187
  1017   2      18.054497071897451      18.223764056556526      22.304920631904903
  1018   3      18.440695045102103      18.234535045327565      20.331522586098782
  1019   3      16.196137437074103      18.353736207793794      22.221138912696851
  1020   3      18.297960534002076      16.256829475201663      22.335379904447688
  1021   4      16.036812602803483      19.968853474114695      12.040135058768232
  1022   1      18.197783982315656      22.233611081769453      14.143188164674488
  1023   3      18.274069596328296      22.408898516842701      12.099587434300545
  1024   3      16.161848337054174      22.217150062003114      14.383235766558318
  1025   3      18.329315823402791      20.207300920823869      14.275028687255441
  1026   4      16.061790903616092      20.249461286084092      15.885170263607277
  1027   2      18.208140130302432       22.15758152706811      18.197324194558732
  1028   3      18.314719401626274      22.412758423087322      16.226028985852121
  1029   3      16.251184887407817      22.437079691118957      18.170651219398913
  1030   3      18.262778548915566       20.23801088222088      18.241686172115067
  1031   4      15.956186378340883      20.035887834752334       20.00091111258708
  1032   1      18.199242234858133      22.245098897815794      22.248617883485839
  1033   3       18.36053418734528      22.228231731931388      20.218635411420401
  1034   3      16.151883504479535      22.200011154073195      22.468258101917939
  1035   3      18.474293117672225      20.194492882645033      22.298898318391871
  1036   4      19.821131681894141      12.101595038503911      12.109953231242921
  1037   2      22.172338187589116      14.207959958486127      14.088846343325619
  1038   3      22.428078615018737      14.135686395939056      12.188709651649399
  1039   3      20.308325899783295       14.25462603756551      14.201323471779061
  1040   3      22.307144081804633      12.199220159718923      14.385996604537745
  1041   4      19.845276754903264      12.146526711063832      16.154944797927861
  1042   2      22.238703370983988      14.186491499434352      18.145972273005452
  1043   3      22.315456218700565      14.270363710605347      16.256737172613128
  1044   3      20.359159811538298      14.136219160648288      18.328274001563813
  1045   3      22.482920109342075      12.206074608110487      18.299862585799232
  1046   4      19.838569105985766      12.106563723338743      20.203537041044889
  1047   2      22.196348698596942       14.12129114382234      22.217436975037664
  1048   3      22.426349052910979      14.172549679401749      20.334489348822252
  1049   3      20.344945758130507      14.291543850479764      22.337380327189404
  1050   3       22.32867868719811      12.210554471438929      22.478092031632325
  1051   4      19.849422422518266      16.109231454841016      12.120361354120323
  1052   1      22.243590051752392      18.151391037701647      14.166909263476732
  1053   3      22.243531798442302      18.462346096138159      12.117695865632919
  1054   3      20.232158081402766      18.314128546353256      14.239891313630256
  1055   3      22.501196729035815      16.128148336743148      14.180448629003038
  1056   4      19.852456496380874      16.151628338730706      16.167190336276406
  1057   2      22.200516113803388      18.284569024346663      18.117726961239836
  1058   3       22.45959578424884      18.156238361099827      16.251676815859138
  1059   3      20.322992211557299      18.269076649578796        18.2084482564048
  1060   3      22.341294082546511      16.204183532037447      18.421015556551374
  1061   4      19.858645774633775      16.188308608600735      20.191771650110379
  1062   2      22.239383455016316       18.15304436109032      22.212093338637427
  1063   3       22.30684781779129       18.28511874091836      20.327058022146975
  1064   3      20.367878008582224      18.170496354172712      22.394406344087823
  1065   3      22.502257662813477       16.23113696491319      22.358272119430204
  1066   4      20.118493771319375      19.866045861491198      12.320522452528401
  1067   2      22.236188237557489      22.153733674478506      14.223612689955484
  1068   3      22.426586852047091       22.33172160501881      12.182820059664349
  1069   3      20.316547842460132      22.477271314914326      14.129910161356879
  1070   3      22.260449592638327      20.280264344729993      14.294551111446602
  1071   4      19.971466632950012       19.96254572441709      16.019269485569453
  1072   1      22.253890486118632      22.226067762209649      18.226326478991517
  1073   3      22.246208251635839      22.536760534824442      16.151516701234254
  1074   3      20.226930899484096      22.414070588297349      18.212967702425583
  1075   3       22.47928291479198      20.185649874783071      18.270663732259397
  1076   4      19.867911438756316      20.190697444931914      20.252995135126707
  1077   2      22.238306695678851      22.177353713662534      22.217222276571025
  1078   3      22.448286161809126      22.266237607803124      20.350598549029108
  1079   3      20.369775357739435      22.400437184111599       22.33050914391394
  1080   3      22.302024126101387      20.264077096942085      22.441612970958865
