(written by ASE)

1080 atoms
4 atom types

0.0      24.299999999999997  xlo xhi
0.0      24.299999999999997  ylo yhi
0.0      24.299999999999997  zlo zhi

Atoms # atomic

     1   4  -0.0059466528399093298    -0.15967417293079744    -0.16458818138130185
     2   2      2.0464158169285724      2.0114358345971284      1.9429583369963972
     3   3      1.8542978009887274      2.0598211460070392     0.05552463663240325
     4   3  -0.0091074631683653109      2.0611286130756432      2.2884528817887495
     5   3      1.9927550030353334    0.089037064311021374      2.2329158599227736
     6   4    0.027366979825678137   -0.099579868238148281      3.8467703822512345
     7   2      2.0899349375403835      1.9726029052804028      6.0167603287606291
     8   3      1.9980081974289206      2.2197490743388588      4.1268338111760139
     9   3   -0.032777010199466945      2.2835282687750893      6.1378734455506159
    10   3      1.8371859542183522    0.076415946087854569      6.1089266768452095
    11   4    0.042516511465437098    -0.23644058502604448      8.0312102612112621
    12   2      2.0303089869378437      1.9824475924119349      10.046721739239645
    13   3      1.8308503493047736      2.0860051540375584      8.1510605517068466
    14   3   -0.009376521883991136      2.1213955531838042      10.342820856311953
    15   3      1.9812340971142786    0.086804273844082638      10.262073934560718
    16   4   -0.012354118380826978      3.9894838448564203    -0.24744903658724851
    17   2      2.0926295816388345      6.0816938251534269      1.9325302712116568
    18   3      2.0146579371827098      6.2413775234708755     0.03945657159146182
    19   3  -0.0093213763893588934      6.2391911836804734      2.1259010870357806
    20   3      1.8371545502989712      4.1006493838046643      2.0773289381507114
    21   4    0.018091930683236241      3.9321773045298696      3.8296103341861643
    22   2      2.0767093196769149      5.9996524416441996      6.0002791897823009
    23   3       1.890258365236225      6.0174142014211638      4.1260509404968388
    24   3    0.004693888768460058      6.0941870686807524      6.3271918670672811
    25   3      2.0128464980311094      4.1119956345774611      6.2962359885690029
    26   4   -0.042460004411260063      3.9194117730435143      7.8974396632408368
    27   2      2.0764403084223222      6.0349014166096797      10.077300196360687
    28   3      2.0000704822312678      6.2839905384311647      8.1758114591883579
    29   3  -0.0025159683228852927      6.3141109691308825      10.209377786558525
    30   3      1.8840277006369472      4.1328053134754184      10.167431224110373
    31   4     0.16786427580192845      8.0898784783736595     -0.2029426821241761
    32   1      2.0632769460783873      10.086203316811169      1.9546694097370274
    33   3      1.7887590945422889      10.038211471982709   -0.059486955978773411
    34   3    -0.04647371891530154      10.086987314808315      2.2766163271015727
    35   3       2.030813801803931      8.0470450614752203      2.2617645397094979
    36   4     0.12316857316366631      8.1091065087139036      3.7094666860913117
    37   2      2.1087246067830017      10.021552435802571      6.0150360274762589
    38   3      2.0201476556143874       10.26966620584656      4.1486648852194916
    39   3   0.0099707607603602682      10.331574203450058      6.1271881265555752
    40   3      1.8418028474099906      8.1304314832186524      6.1096468770948036
    41   4      0.0138144602581175      7.9046586894754425      7.9600218945311427
    42   2      2.0812717108948782      10.134682152669889      10.042835146132918
    43   3      1.7971619124343516      10.107905629890565      8.1489714938126703
    44   3   -0.029329483966060242      10.105526641986346      10.414968106282691
    45   3      1.9696498315313689      8.1665734137123831      10.348425796045603
    46   4      4.4466452281556501    0.018834747975681208   -0.033225243535014853
    47   2      6.2513391777963259      2.0488268068371034      2.0361155769178731
    48   3      5.9744761999538598      2.0772535145049655    0.065822673916790184
    49   3      3.9361177223880746      2.1650301867110131      2.0455801387663608
    50   3      5.8619734455226222    0.083500688080296995      2.0287315766305793
    51   4      4.4390506796695544    -0.02710949173270439      3.9783336816151831
    52   1      6.1234024439870032      2.0009436243419585      6.0597119904069459
    53   3      5.8672519736348985      2.0467884209745071      4.0110269662453586
    54   3      3.9498300235292469      2.0413439417671522      6.2193485428161503
    55   3      5.9635893529255357   -0.041806725934470858      6.1351708992614959
    56   4      4.4291591309538987   -0.035246036049686118      8.0563770049934842
    57   2      6.2348483240389223      2.0516341815547707      10.122502987537889
    58   3       5.993579315112501      2.1022875221002861      8.1604609511903377
    59   3      3.9298272970612245      2.1226070278432672       10.11119540432348
    60   3      5.8640336079551583    0.084191025953437804      10.105279898306307
    61   4      4.4588224364065514      4.0150792315197767   -0.065367907108338716
    62   1      6.1318767788067632      6.0551729379391448       2.015865849658566
    63   3      5.8719282212267556      6.0864090702895224   -0.045779728641959339
    64   3      3.9795895868307904      6.0592568697332219      2.1715271737188595
    65   3      5.9623411546963432      4.0154088926192015      2.0736667245291178
    66   4      4.4022890021357544       3.983105242787131      3.9264530372553761
    67   2      6.1911207706461688      6.0217436711438674      6.0493606494887446
    68   3      6.0013238290883715      6.1626801463519012      4.1350472562420615
    69   3      3.9584268788030252      6.2377059007657607      6.1136866620064048
    70   3      5.8868707733960584       4.111911506399986       6.089987876927883
    71   4       4.438474287248261      3.9731576690281964       8.076373923797048
    72   1      6.1505376312384454      6.0474972564200753      10.116552138206774
    73   3      5.8506111583729679      6.0979939561300656      8.0712166420260605
    74   3      3.9569339313344747      6.1650430251357369      10.228409725730351
    75   3      5.9313453396571383      4.0187112902915754      10.180142429141343
    76   4      4.4137744837587869      7.9969271874511048    -0.13746255161002691
    77   2      6.0920331164165544      10.168094046157393      1.8468230788123821
    78   3      6.1246802149083077       10.16103899334804   -0.017298266064104607
    79   3      4.0939215009183982      10.200470923171236      2.1488343041047173
    80   3      5.9285624937498698      8.1597777920109547      2.0591144396623231
    81   4      4.2245779705242015      8.0724829605386788      3.6875270536989646
    82   2      6.1209910356733346      10.062790850318592       6.083911580548313
    83   3      5.9046284139167682      10.111994169544509       4.175779913366422
    84   3      3.9865160247178855      10.108194350188532      6.2382573494127218
    85   3      6.0342363716201914      8.1431707295516009      6.2322836112664914
    86   4      4.3485747327009943      7.8882134548843776      8.2042626392040408
    87   2      6.2394389239611421      10.125488575812224      10.159360442520299
    88   3      6.0241046951434436       10.23985528435745      8.1402801930003648
    89   3      3.9681551590982771      10.208949715039038      10.078948391472009
    90   3      5.8934578497142462      8.1788843735207788      10.112441849752496
    91   4      8.3637422547287041    -0.19069959929077304     0.12480625004780449
    92   1      10.175817849816266       1.999687947159507      2.0063123592652286
    93   3      9.9817658130651754      1.8052554099166507   -0.033591884265657748
    94   3      8.1114072609339782      1.9696117544111171      2.1378458853584381
    95   3      10.156303869813211   -0.014430306120711268      2.3365102474462165
    96   4      8.3803393999250932    -0.21562197486552648      3.8579367186619522
    97   2      10.156419775030702      1.8649377655235544      6.0981763075619462
    98   3      10.166214635732837       2.342997465274705      4.1017140132985936
    99   3      8.1523637137635578      2.2554850476904869       5.999065554475802
   100   3      10.059117728393609  -0.0099848817282505043      5.8326738561656111
   101   4       8.377218631310404    -0.20211455299351158       8.184524533890702
   102   1      10.149947433592803      2.0012513022066596       10.09739047061416
   103   3      9.9742215130794687      1.8180589486372256      8.0576952192875506
   104   3      8.0961352810243792      1.9801826023606397      10.257630205729242
   105   3      10.152245181181156  -0.0048117777570792098      10.438338071406287
   106   4      8.3880967052577962      3.8651117870551315    -0.19142494260574289
   107   2      10.133810716329469       5.914004565196251      2.0650462072599693
   108   3      10.150228233438952      6.3831515581981781    0.040957678434594968
   109   3      8.1481947194521549      6.3000008366995415      1.9498177809129216
   110   3      10.051108999147257      4.0426884147061353      1.7562177715378511
   111   4      8.3869594342047353      3.8527399606419355      4.1840024604615511
   112   1      10.139770550354392      6.0786103095212205      6.0303719380571374
   113   3      10.026956968945198      5.8321713522481504      4.0048132768839997
   114   3      8.0582932004200902      6.0236547457004272      6.2193535615877291
   115   3      10.131329808355581      4.0502911962520614      6.3695213757879312
   116   4         8.3720176056227      3.8549700032267822      7.8905004246555368
   117   2      10.152838480223004      5.9090631249599213      10.134722825787101
   118   3      10.156804357041775      6.3847898131658383       8.145200470396027
   119   3      8.1606524250977426      6.2858403296910197      10.063074116570451
   120   3      10.059900938509298      4.0380542476788763      9.8754409696893699
   121   4      8.3747209714848534      7.8897892814022734    0.094550488985165645
   122   1       10.12487139467877      10.097082455638235      1.9807096024010462
   123   3      9.9440523195167838      9.9446914468852032     -0.0503009528073197
   124   3      8.0186767119620956      10.049046068264744      2.2751728158183555
   125   3      10.114417966813392      8.0962667819188159      2.3109105788269462
   126   4      8.2425391666392489      8.0188389426985651      3.7261658090973802
   127   2      10.224877503648473      10.008803821803491      6.0858324899808141
   128   3      10.108994920996476      10.445320036842087      4.1294800903292739
   129   3       8.020016014558303      10.303759141325626      6.0432031527082888
   130   3      9.9980072194014831      8.1370284459218372      5.8665849508438539
   131   4      8.3826864539122745      7.8902498945537189      8.1826591535354094
   132   1        10.1637612978848      10.097908277434996      10.093670212704369
   133   3      9.8950693657891176      9.9510914428174271      8.0479363954712682
   134   3      8.0966249244123496      10.108486920951663      10.258850712383387
   135   3      10.140948684953164      8.0909084041510528      10.422942031409946
   136   4     0.10566396774920127    -0.28060163103043823      12.068824190945625
   137   2      2.0799895462110647      1.9677399088538565      14.087220952587003
   138   3      2.0080265811083553       2.209994630526642      12.193420693273049
   139   3   0.0043739465918212024      2.2887767946406035      14.217602727681603
   140   3       1.838014948610351    0.087858797339246633      14.200556158001621
   141   4    0.096083767656176641    -0.25520797062140854      15.972038327992978
   142   2      2.0686040544662596      1.9577301346277078      18.132018486240522
   143   3       1.852663729153283      2.0565278145085686       16.24461215833697
   144   3   0.0068991393712587281      2.0786612746072186      18.451392302338697
   145   3      1.9777194341862046    0.064244734041989784      18.414090381032462
   146   4   -0.014781740520254006    -0.11917803030978204       20.02517678768076
   147   2      2.0824861370663257      1.9937471359473649      22.198448840143964
   148   3      1.9947214356706902      2.2014464646690355      20.304384609989615
   149   3  -0.0091877029469303682      2.2767221520017555      22.341662717641583
   150   3      1.8318575842769025    0.084322799794425571      22.329324745843515
   151   4   -0.036989728710265332      3.8707124591987028      11.995103612553878
   152   2      2.0661192179974281      6.0088873920904327      14.102183413643338
   153   3        1.87460695778688      6.1136967122745425      12.211284959988181
   154   3    0.018216883708239484      6.1045273539168763      14.425744223728776
   155   3      2.0296472827572103      4.1107288054323288      14.365170914392305
   156   4   -0.021841800611768363      3.9334938022023107      15.976424779774256
   157   2      2.1087357794674175      5.9949627751120778      18.141955111819666
   158   3      2.0085109755894157      6.2456327062590073      16.254801416519623
   159   3   0.0053660750075633758      6.2845223477522758      18.289642727724871
   160   3      1.8686380190892127      4.0920550786427601      18.258109030014577
   161   4   -0.012838991876128903      3.8682369349323764      20.062683804427866
   162   2       2.051456735256167      6.0333923824045312      22.166907038177435
   163   3      1.8751426489182892      6.0769130119671804      20.278034475132383
   164   3    0.015187854713587584       6.070257176263409      22.502275274913632
   165   3      2.0064064482800177      4.1125850947937739      22.458637001273729
   166   4    0.040967753582808651      8.0480103792567323      11.905424328705765
   167   2      2.0999730182077494      10.044355050186493      14.132266690329674
   168   3      2.0011945404900109      10.266488098741753      12.240358906622777
   169   3  -0.0038908075259817404      10.346999449269516      14.249014623781727
   170   3      1.8507418185039155      8.1444702086720859      14.235405333291064
   171   4   -0.001474716492291339      7.9163508245970151      16.049562529798258
   172   2      2.0756066330348664      10.037244243457334      18.184232861816742
   173   3      1.8342030681178101      10.130526817185567      16.269900925730624
   174   3   0.0099009722369625981      10.156016722305852      18.479054838550148
   175   3      1.9903257929985487      8.1309100132421044       18.40271872699492
   176   4    0.028286651839059197      7.9987221152038561      20.041422661024871
   177   2      2.1722509212994572      10.115522371255691      22.291555638859144
   178   3      2.0087958213962502      10.284031254268623      20.286607213446121
   179   3   -0.039471657179587213      10.349858418170278      22.245433575869026
   180   3      1.8130554889171742      8.1201140965498659      22.249784461366183
   181   4       4.370984500473452   -0.014703047274728527      11.978100155646562
   182   1      6.1201296640363374       2.016107584959459      14.152487581718608
   183   3      5.8413213858035968      2.0276714204214152      12.103246788272326
   184   3      3.9593293998881283      1.9827686760425585      14.324885988828003
   185   3      6.0701092854798393   -0.020720107967502316      14.310867749160341
   186   4      4.2685730923358749   -0.071142973834983927      15.896567183959966
   187   2      6.2166498325339914      2.0368427525614599      18.195364983849245
   188   3      6.0261822526497228      2.1218584231811759      16.258249899345035
   189   3      3.9496900250935902      2.1112953795243685      18.215035048294389
   190   3      5.8818904293608005    0.033227109412955411      18.270413449020175
   191   4      4.4265288759686916    0.077326686211104056      20.305365299647317
   192   1      6.1378708983120935      2.0302354330943162      22.272776568060472
   193   3      5.8589193663021755      2.0396668886964155      20.218423986973914
   194   3      3.9475270748944218      2.0302010052624708      22.401823373630414
   195   3      5.9317206022359192  -0.0091949178943662429      22.305731230007858
   196   4       4.456171548820139       4.015162861839352       12.10951862991581
   197   2      6.2423098807212627      6.0997739566538369      14.174141362889195
   198   3      5.9799471452746333      6.1367178557595041      12.203065931355214
   199   3      3.9481309413106427      6.2087066159375963      14.169726809612445
   200   3      5.8574875057407469      4.1237248352580744      14.158308515098064
   201   4      4.4583475118846998        4.01534168101744       16.12271183634148
   202   1      6.1328855633334109       6.046817216221096      18.205812170956165
   203   3      5.8794221249693814      6.0727887741924524       16.15330099026227
   204   3      3.9669193333361541      6.0888139417957206      18.340344250284648
   205   3      5.9560738377969402      4.0004551170406737      18.288787480736378
   206   4      4.4670252962448007      4.0203046985502882      20.198199946792389
   207   2      6.2535639619519481      6.0822527650840437      22.263630509690021
   208   3      5.9904569306592848      6.1118384489427315      20.303990613429352
   209   3      3.9444980284405444      6.2179511759730781      22.292410103601451
   210   3      5.8693340820252899      4.1181995377180796      22.273125595359698
   211   4      4.4391051431245163      8.0287287727672076      12.105577507785567
   212   1      6.1296024463297778      10.109189439604863      14.158513641247184
   213   3      5.8646625215501205      10.154015097117744      12.102383782596348
   214   3      3.9607586499490908      10.126011490342201      14.315876841010374
   215   3      5.9721923968708985      8.0635151444608884      14.219039802304222
   216   4       4.474537640984126      8.0580788387990658        16.1639359311331
   217   2      6.2440395562978583      10.145402959414486      18.218757494709727
   218   3      6.0086586657657106      10.186912854594532      16.248443820794346
   219   3      3.9585597742582639      10.202605953412924       18.19946016939009
   220   3      5.9054364737464535      8.1649149656404365      18.211038534181721
   221   4       4.471610299836593      8.0539996061730239      20.173388788585857
   222   1      6.1497485916516643      10.099667880952115      22.223245001336025
   223   3      5.8701345993464527      10.127602176810608      20.192828179783668
   224   3      4.0377103273835537       10.06492778692135      22.382467881667697
   225   3      5.9830872548618146      8.0479704644267294      22.306795848071129
   226   4       8.358602001647764    -0.19100919810310096      11.934327441280884
   227   2      10.164698296196971      1.8910055422093623      14.183723051260099
   228   3      10.163742314625814      2.3461043462921509      12.194144797090459
   229   3      8.1470868049733696      2.2730276455217635      14.093260045357697
   230   3      9.9746624852619821  -0.0040050468261021988      13.967430529449405
   231   4      8.3088099203410177    -0.18609939899603514      16.031329985072681
   232   1      10.151379680794026      1.9669573667772147      18.179911875945674
   233   3      9.9684313529311677      1.8242980318519131      16.143492792561979
   234   3      8.0810018446403546      1.9899974752147873      18.362835261525465
   235   3      10.135673129561177   -0.036534465148572677      18.559211969024989
   236   4      8.4353015575069037    -0.11826306270225266      20.145476292799067
   237   2      10.171129619781135      1.8835341913285022      22.318424840819393
   238   3      10.150309618051725       2.314723656623761      20.296547179465499
   239   3      8.1570548322988561      2.2522157986755085      22.200027026178383
   240   3      10.052900240476886 -0.00041896132956257165      22.022465836837871
   241   4      8.3657616982248193       3.861048161629026      12.265584449166949
   242   1      10.163928390315085      6.0478695029291405      14.153713961055237
   243   3      9.9961696261720103      5.8642825745821874      12.107596897142242
   244   3      8.1047392944596144      6.0005663101173656      14.270695617239497
   245   3      10.159232458114152       4.031458743415409      14.466104856063726
   246   4       8.364153367503862      3.8369048690872756      15.994827724602198
   247   2      10.143804255300399      5.8922603603241779      18.243362184001001
   248   3      10.156809829860936      6.3849648036312061      16.242654444244941
   249   3      8.1550626794836205      6.2796566503961397      18.145365821561402
   250   3      10.064958037319137      4.0235831270673748      17.972656145573932
   251   4      8.3535425941213859      3.8033181362883477      20.342347263129451
   252   1       10.16958566176098       6.039263175595404      22.242766689211404
   253   3      9.9920063048349146      5.8780673818124614      20.198748980706362
   254   3      8.1132823028831904      6.0033066668790367       22.38832323921989
   255   3      10.159487966468147      4.0288664990632608      22.585293521108746
   256   4      8.3898446551818946      7.8775297826605941      11.951960176613923
   257   2      10.154594422546362      9.9611606617810597      14.183286488209088
   258   3      10.161150979348582      10.445422605848195      12.193508903716209
   259   3      8.1508900308721959      10.358119973091847      14.088617962827925
   260   3      10.050105776187426      8.0891437942922533      13.919564197395886
   261   4      8.3853947278949832      7.9065277968255838      16.339401151656045
   262   1      10.165722486792482      10.103775987689223      18.190262862326563
   263   3      9.9700381416986907      9.9238911511377683      16.147880117858335
   264   3      8.1091576316291327      10.084854940585796      18.339872369750907
   265   3       10.13071698289076      8.0889112365578111      18.497682353830623
   266   4      8.3789588114299605      7.8928054226701603       20.03505155701529
   267   2      10.149682906474528      9.9633163352201226      22.286548115427426
   268   3      10.166319369161751       10.43478078570651      20.287254324041609
   269   3      8.1588699687877213      10.363874159411957      22.160600423357494
   270   3      10.041104411759601      8.0910817846302958       22.02549511907241
   271   4     0.21398575836140626      11.989647499085354    -0.27083948309562145
   272   2      2.0583893819097234      14.068285728734816      1.9735803463058708
   273   3      2.0396757226752555      14.330461031787046    0.095712694949587465
   274   3    0.016991506551399325      14.385065362906399      2.0706040542045905
   275   3      1.8992021305813624      12.186200907986171      2.0647059522663178
   276   4    0.096964212793464746      11.856316396039453      3.8328417715263354
   277   2      2.0935672717335803      14.061618934127305      6.0827900720947667
   278   3      1.8314331826883967      14.232566975720259      4.1181928891902997
   279   3  -0.0011088724299107473      14.231820491944248      6.2706662948596898
   280   3      2.0017713246059485      12.173508655808558      6.2430177168420595
   281   4    0.050460387934013036      11.981916222797068      7.9385329116247494
   282   1       2.007373425278971      14.110215367025603       10.12601804304003
   283   3      2.0246979885080125      14.392289778478224      8.0523303214116524
   284   3   -0.051218106359858691      14.386675932878831      10.144664360974442
   285   3       1.816543195274569      12.084270943161091      10.156323377280497
   286   4    0.058426197257782989      15.896262336465483    -0.20554188058642092
   287   2      2.0564602750053127      18.161610524450978      1.9602957477365028
   288   3      1.8781168685536114      18.298582643304471    0.062127334044636939
   289   3    0.022183433635967333      18.307917226385513      2.2419172731437982
   290   3      2.0306313505729476      16.274028159190557      2.2077238536675869
   291   4     0.03485680271007869      15.959022982954187      3.9308391715967441
   292   2      2.0986664593928528      18.150608048845314       6.001562351541363
   293   3       1.990014870888221      18.442880281414467      4.1088980451392052
   294   3  -0.0016023677660088123      18.484120255161663      6.1124349627653274
   295   3      1.8505049250537584      16.284206428185115      6.0392505483275043
   296   4     0.10987870336122754      15.855765781041873      8.0702294829860683
   297   2      2.0454726423153935      18.139426486016518      10.025189596909328
   298   3      1.8273078622724974      18.270011036209759      8.1233476125131716
   299   3   0.0077434687914572434      18.315072652224092      10.333214051956435
   300   3      1.9823497794828517      16.275966855069498      10.274641497311908
   301   4   -0.017828110659958731      20.119651546873779     -0.1983541758732654
   302   2      2.0822348409466871      22.243068255871158      1.9730525993271659
   303   3      2.0079147761964267      22.484446484290878    0.081502258799994232
   304   3   -0.012157083866490195      22.542490127042463      2.0897848774043113
   305   3      1.8573009058884791      20.342391802661162      2.0809478180043324
   306   4     0.01240337410940546      20.050956465596251      3.9141415112173963
   307   2      2.0631006285438822      22.218067143560184      6.0553860352533651
   308   3       1.815142067220866      22.337335896031412      4.1365407752964121
   309   3   -0.037067939469324171      22.343310339202436      6.3260144823446911
   310   3      1.9695441401962057      20.322507968006018      6.2479049446568711
   311   4    0.010357483693515711       20.09192675524714      7.9264596170334078
   312   2      2.0967038427420066      22.203056267257477      10.159454816948887
   313   3      1.9742860508463633      22.490246471538736      8.1526219672111004
   314   3   -0.044296966227573183      22.542644848495016      10.098125017440699
   315   3      1.8764636445257414      20.306119163475032      10.100348804096132
   316   4      4.2071596600782861      12.330963634547775    -0.38278017436794393
   317   1      6.1182190817462034      14.146117934824193      2.0018889687925037
   318   3      5.9081063321422356      14.190337973962938   -0.029337258776104318
   319   3      3.9660146828771259      14.173062954070732      2.2357319381053538
   320   3      6.0757541463278439       12.10748348120902      2.2175402491605585
   321   4      4.2283920714448016      11.991304970602267      3.7455094182675488
   322   2      6.1818166136054806      14.076810856181767      6.0540943080619094
   323   3      6.0454935194557642      14.346616291197252      4.1332716316160765
   324   3      3.9819053628495773      14.337728179249979      6.0160148938853535
   325   3       5.892609049908474      12.173536524325725       6.077720803606586
   326   4      4.3175729245719543      12.296784542941992      8.4091216980415897
   327   1      6.1604631900791995      14.154854966639146      10.123605935389007
   328   3      5.8499242182584412      14.185930064965005      8.0485221565354426
   329   3        4.01935876646436      14.258624569159187      10.139351523104992
   330   3      5.9315340891037289      12.115535667024838      10.163421466912947
   331   4      4.2931067613377225        15.9657041547772    -0.23384697971390392
   332   2      6.1764370635698596      18.229400416857271      1.9502451525367872
   333   3      6.0363383318055783      18.370783931104047    0.046444141305785364
   334   3      3.9503766226625419      18.393205939910239      2.0552744901662869
   335   3      5.8517253366699915      16.304905669285638      2.0604435777000978
   336   4      4.3062675493262947      15.986949836474112      3.8612953190259196
   337   2      6.1150937780944741      18.150809486545391      6.0710394364328994
   338   3      5.8651578052764615      18.268904789225125      4.1192180247400323
   339   3      3.9782143125158078      18.255782715003406      6.2029917902021339
   340   3      6.0482668950824863      16.256373363982853      6.1628406326417142
   341   4      4.1677550121855003      15.834463635609316      8.3336360105788767
   342   2      6.2042396760488243       18.22134763889218         10.169589569083
   343   3      6.0323636995139251       18.38235745131934      8.0963579057936386
   344   3      3.9423978868490224      18.346640436944629      10.087348601612899
   345   3      5.9161948002584461      16.288522411968881       10.09490132093576
   346   4      4.3973242573523486      20.196754878291017    -0.11204556263305152
   347   1       6.125479700024524      22.273551678740276      2.0061620783722742
   348   3      5.8634917657143797      22.314946312614882   -0.041749362309196666
   349   3      3.9511763313131176      22.291958832928376      2.2005897552961353
   350   3      5.9735692178540161       20.22273534714579      2.1495541801955809
   351   4      4.3970857100288505      20.324118145528828      3.9028239798001767
   352   2      6.2284913072065278      22.303662492481493      6.0742740947057241
   353   3      5.9889978972622764      22.334664106426079      4.1149185075141821
   354   3      3.9416418031112639      22.391306611113428      6.0606543920460911
   355   3      5.8626665096356962      20.297471770604044       6.087203880070347
   356   4        4.42501730900113      20.295885466991717      8.1613025249343334
   357   1       6.138579691627319       22.27295990197598      10.081178376275192
   358   3      5.8515327458663604      22.286237818983363      8.0560982019243124
   359   3       3.974205293967358      22.336804011153649      10.225441370257325
   360   3      5.8976321598786585      20.235197873281628      10.127920674843626
   361   4      8.3387690069812077      11.976101642709425    -0.25951324888430383
   362   2      10.156979651602157      14.050328680374417      2.0411796438225034
   363   3      10.143581402528158      14.478602636312329    0.048059666015324035
   364   3      8.1312439463697679      14.428461756259267      1.9434017048716115
   365   3      9.9528226411800329      12.151075785979083      1.8520686056661471
   366   4      8.2902994715154357      11.946288951396046      3.8509816236280714
   367   1      10.129292117882745       14.13971325041819      6.0275925202024903
   368   3      9.9449360655405545       14.00621579163187       4.001012310217873
   369   3      8.0432194471513707      14.164003104901241      6.2360704582344049
   370   3      10.128853108915662      12.121631090736129       6.413219037235768
   371   4      8.4388442484267454      12.006550402825319      8.0018399628859065
   372   2      10.162455064057323      14.036408628148719      10.157110083707517
   373   3       10.14917238854998      14.471655143449073      8.1442884003733464
   374   3      8.1580121796877432      14.384635984251119      10.051638408260658
   375   3      10.069291294565575      12.153048209362339      9.8683100701371824
   376   4      8.2956114365452009      15.929693191612508    0.067120334611119353
   377   1      10.137567438697868      18.187925186456226      1.9947813501851199
   378   3      9.9483814781631938       18.05552877017103    -0.04184654996808914
   379   3      8.0443721443523497      18.189845779306637      2.1959233143293027
   380   3      10.146859063789682      16.192081571893208      2.3254204991846961
   381   4      8.3263165095576159      15.983469764425928       3.834456616863994
   382   2      10.234337114571341      18.109243450397635      6.0918471232077618
   383   3       10.12049779023131      18.562667532320663      4.1300582556634495
   384   3      8.0153425043402233      18.411758002477921      6.0030664102094287
   385   3      9.9931580286065618       16.23435363480375      5.8625859714639983
   386   4      8.3499889241197423       15.96412133044532       8.159480802612384
   387   1      10.152606961021045      18.198521321678928      10.085367993387315
   388   3      9.8804036974923299      18.058637338121788      8.0389419384575493
   389   3      8.0738700480035082      18.236054895173854      10.237437296576569
   390   3      10.134929375147388      16.196615618689581      10.428546358710744
   391   4      8.3672194357135456      20.048376547247166    -0.21220945545627765
   392   2       10.17319689401358       22.14674167661742      2.0236344253665739
   393   3      10.156919487740035      22.594289393466209    0.047616127469717225
   394   3       8.145057621863689      22.519367686103951      1.9548620975417252
   395   3       9.993103604156893      20.251437789891312      1.8392380553267489
   396   4      8.3812390858613064      20.122152912575253      3.9731787461128198
   397   1      10.161423411549043      22.230891301814488      6.0413468525576555
   398   3      9.9558322165679076      22.076427734353349      4.0057914623732058
   399   3      8.0902798769868749      22.244021491677643      6.2057480608727937
   400   3      10.121694551826154      20.215808245477536      6.3981908219340156
   401   4      8.4163818211707522      20.094225360651702      7.9997055354981823
   402   2      10.160512765634991      22.138641761537063      10.152921644282868
   403   3      10.172243465864247       22.58766291095824      8.1494172136578999
   404   3       8.158848924765735      22.508451783354708      10.024527680275735
   405   3      10.061138581353653      20.259306763090013      9.8663628479942176
   406   4     0.11682009729503945      12.006011108174071      11.905772629518916
   407   2      2.0460984949343239      14.099429934407752      14.140726331012141
   408   3      1.8425974745611502       14.20301308998248      12.252152171336375
   409   3   0.0010817729933452216      14.209798221992074      14.434665677715515
   410   3      2.0106676717770271      12.197696264401729       14.38125744252849
   411   4   0.0084045371438054555       11.97531275050634      16.030159275362681
   412   2       2.115640894980511      14.074539393890291      18.259300006235716
   413   3      2.0151762479986979      14.409797790122749      16.274964806524824
   414   3   -0.016781333169261507      14.442257303556708      18.200543954755176
   415   3      1.8772859651256242      12.174173970062377      18.210547501360423
   416   4     0.14990032661375235      11.917530207654993      20.211691737855617
   417   1      2.0273280721555449      14.157216022499957      22.224819367046599
   418   3      1.8074816017512418      14.206297513957185      20.196263467903936
   419   3   -0.048290921103506378      14.189946098127898      22.493133782128144
   420   3      2.0541380889134047      12.112804309928222      22.459280513580723
   421   4    0.071597220857264596      15.944797030207736      11.936206647418665
   422   2      2.1066999953158216      18.197411421545521      14.077459288343727
   423   3      2.0205810776332656      18.425558940529527      12.171389696658784
   424   3  -0.0078687498158662231      18.482070321630328      14.186701875295761
   425   3      1.8362456007692847       16.27058731455876      14.206033963846586
   426   4    0.077278172170530804      15.952194842871879      16.115981559263464
   427   2      2.0576831665722262      18.159274918200524      18.155591524900903
   428   3      1.8580035775894745      18.229851638773027      16.261895814990051
   429   3    0.019856249186116108      18.290106263164812      18.457009547037931
   430   3      2.0397779530073459       16.28186504504578      18.392775399803746
   431   4    0.088542208541889766      15.896319899817476      20.144211793871783
   432   2       2.068311896142581      18.149092414301673      22.221569286525593
   433   3      2.0254289279644828      18.438670036941385      20.315282916265012
   434   3    0.017647392882222061      18.477514360169305      22.341525461862098
   435   3      1.8866761608158016       16.28272105908334      22.303218129148412
   436   4    0.066190669956084802      20.053518445278783       12.05046348606856
   437   1      2.0705281829118731      22.258019964714155      14.127093525243534
   438   3      1.8035601472122391      22.319691840560818      12.094091102453522
   439   3     -0.0499336874267984      22.287771788516888       14.38999248605748
   440   3      2.0644621550099753      20.215067318746016      14.408224476393295
   441   4     0.18295939125127553      20.214000972106746      15.880394883907833
   442   2      2.0981916534208533      22.224233816433202      18.162831862910622
   443   3      1.9986977476929033      22.459270502244728      16.295612254269141
   444   3  -0.0014396924879606125       22.51124469909665      18.273907823432062
   445   3      1.8529312725837934      20.332777762482177      18.265008092052497
   446   4   -0.010594436806430728      20.047128360110047      20.088302923733565
   447   2      2.0504234365218914      22.238599104472705      22.205343793341228
   448   3      1.8256643127031218      22.341293223568155      20.316711049539684
   449   3   0.0027905535918034759      22.345158445213528      22.537907855976581
   450   3      1.9966245115168555       20.34954408264954       22.47475007971984
   451   4       4.446934300817718      12.147435615255789      12.136085335544877
   452   2      6.2486938340931708      14.222717632478361      14.182687275128778
   453   3       5.972196412813596      14.213271802190823      12.205929490083125
   454   3      3.9400160925220074       14.34412395464072      14.164874129068686
   455   3      5.8475188862202279      12.227683660502652       14.15322850238074
   456   4      4.4589480043049274       12.08469608307648      16.124252231276905
   457   1      6.1284603661534005       14.14293216436411      18.188107600546722
   458   3      5.8447940463361077      14.156265508436061      16.154688313373917
   459   3      3.9861301688384745      14.212926765777496      18.347974960714023
   460   3      5.9487928138065458       12.10922697020818      18.274933187916258
   461   4      4.4430536245674652      12.108931647460452      20.198425038088498
   462   2      6.2097511655859892      14.196811215889378      22.235826424001683
   463   3      6.0252146286653954      14.251599136375891      20.274521029715306
   464   3      4.0458392515041268      14.234577696293156      22.350385311416648
   465   3        5.90038625042357      12.203470099958629       22.22329719559967
   466   4      4.2556647077946455      15.868752886289188      11.909854655488218
   467   1      6.1044072675870655      18.176524718588482      14.155871124104973
   468   3      5.8921670950980429      18.315524137269929      12.092465312726958
   469   3      3.9830842471597987      18.215065168170863      14.326222672563651
   470   3      6.0167248442721331      16.154406273014903      14.283293689396071
   471   4      4.3478506622910782      16.050865191332242      16.088623591227698
   472   2      6.1555031684226424       18.17317778981214      18.190309286054454
   473   3      6.0167982784090688      18.382742599909548       16.27795236662314
   474   3      3.9519259588565347      18.428354444000611      18.222741625046318
   475   3       5.874782006863791      16.271819558258816      18.216147499485732
   476   4      4.3832146122749807      16.033794865229879      20.234358799843527
   477   1      6.1193749121011543      18.200828012021621      22.246479224730013
   478   3       5.826799236053688      18.277533488342893      20.206468174920424
   479   3      3.9512810926045536      18.313924989320459      22.417856448345511
   480   3      5.9655723023526779      16.177121435985679      22.308108646280431
   481   4      4.3811229762006008      20.158452480355891      12.048950232195805
   482   2      6.1047367151637886      22.302620830283075        14.0414985130838
   483   3      6.0616266670713612      22.378240786817837      12.142618038612706
   484   3       4.088099772909465      22.419900180986019      14.270842174924677
   485   3      5.8829321149903135      20.321778571006767      14.166885696065396
   486   4      4.1896363054428596      20.190830833391374      15.848882255483842
   487   2       6.128455514164922      22.248008211027145      18.201978535124706
   488   3      5.9247318218043441      22.297456360042627      16.290125847352446
   489   3      3.9866246528510767      22.304813654678743      18.375000524859427
   490   3      6.0255246480589735      20.333332382689065      18.375683413183708
   491   4      4.3319389016995951      20.051682820500666      20.307942006792953
   492   2       6.212168627294183      22.310883362927761      22.308919383782275
   493   3      6.0116098656100974      22.413317406741946       20.27812047518076
   494   3      3.9381113723840171      22.422467259075425      22.261148374374084
   495   3      5.8553233396426272      20.357747192209398      22.250347662056949
   496   4      8.3811848415999552      11.964114816681869       12.29692087419077
   497   1      10.166822210639827      14.157027939065927      14.152212733071616
   498   3      9.9840658052889619      13.978375873172805      12.110665249354234
   499   3      8.1071770584344236      14.102109235243024      14.279126192346537
   500   3      10.136586117773588      12.142460022465958      14.466951787177143
   501   4      8.3669820707911207       11.93793392522859      15.986364566541967
   502   2      10.136646429540789      14.021507591657565      18.230436174033276
   503   3      10.152907276506834      14.505941866793727      16.237746750652565
   504   3      8.1429734593786467       14.41297729192814       18.13161876876616
   505   3      10.058396183910533      12.149845652282476      17.967186432871628
   506   4      8.3753656779682437      11.943769129748105      20.348433403406485
   507   1      10.157311223464854      14.155793244238522      22.231977073594599
   508   3      9.9728725466945356      13.994698627767109      20.192527253661172
   509   3      8.0992386194626267      14.132885385567267      22.412590334931952
   510   3      10.136568421033063      12.146669128828997      22.550515671217745
   511   4      8.3663128322347831      15.992840893596004      11.947219643761693
   512   2      10.124281816110669      18.069379033950813      14.194922445922264
   513   3      10.140730929580938      18.553559460521438      12.187360207399262
   514   3      8.1336653266678294      18.467885448916316      14.084708445153556
   515   3      10.025272316462386      16.199812730949017      13.904138935967344
   516   4      8.3734186075934183       16.02274894927784       16.31980633013081
   517   1      10.123208948827312      18.233056124082108      18.184836470968076
   518   3      9.9854638755276728      18.010869619235674      16.147254305550405
   519   3      8.0335574957017588      18.203505815106517      18.369829596207811
   520   3      10.112417016710815      16.214880628572452      18.504043721122699
   521   4      8.3572571328375229      16.009821750189282      20.034110752987736
   522   2       10.12552057802195      18.071249713877695      22.297993115569518
   523   3      10.140487803279527      18.544713397684337      20.292881072855611
   524   3      8.1368266715828206      18.462433351881014       22.19269250756145
   525   3       10.05045405287261      16.199784683244239      22.032644851391673
   526   4      8.3370130794496387       20.03330965434586      12.245968236686847
   527   1      10.121405044208643      22.236665702728175      14.149109030266128
   528   3      9.9578699912336219      22.092084388639758      12.110359713220674
   529   3      8.0257577391806549      22.212641032108063        14.3889306773993
   530   3      10.122043223056043      20.244495417063078      14.479762902811171
   531   4      8.2574157071533172      20.109241441621538      15.919090973736358
   532   2      10.227944679783525      22.158652736610133      18.243311616029757
   533   3      10.119830555193131      22.618302763422893      16.272185386209728
   534   3      8.0296228086571091      22.461599104358939      18.173407806274909
   535   3      10.000269399877938       20.29022561159627      17.978217560628874
   536   4      8.3336820215039378      20.020022446117824      20.314800229569958
   537   1      10.154093400369288       22.24865091041411      22.233965223405029
   538   3      9.8979930958867985      22.094229829772967      20.188945748103908
   539   3      8.0749112829401373      22.266135553237639      22.403999929113596
   540   3      10.136713183809599      20.252778722842255      22.574882595841235
   541   4      12.215678300763557    -0.35943483059921894   -0.074262347916037516
   542   2      14.163764424865665       2.039813082690797      1.8654785899831565
   543   3      14.244635972547494      1.7607417097456222   -0.002375131797443867
   544   3       12.21538418722354      2.0256699809818515       2.173471092414113
   545   3      14.145150739793953     0.04053904185043837      2.3550705770383389
   546   4      12.145421008415198   -0.024147460912477034      3.6982897149161511
   547   1      14.165005334492037      1.9986764710831209      6.0757411114741933
   548   3      14.181683073034183      2.3168480686754052      4.0578824468358592
   549   3      12.107317903821281      2.1571107560657174      6.0993211546889743
   550   3      14.330559463902871   -0.049876317592644721      5.8802786829804985
   551   4      12.200057693547533    -0.36157735812381642      8.0317519349276072
   552   2       14.08095658421588      2.0452409895059613       10.00872230862872
   553   3      14.301502717562348      1.7684607874208094      8.1412506781853651
   554   3       12.18870706668578      2.0536568900787446      10.223479101588902
   555   3      14.181013363357071    0.076683262676704167      10.488256464869066
   556   4      12.141407371424727      4.0313914437708869    -0.35077031533364095
   557   1       14.13105428127346      6.0531767417164497      2.0034858821332127
   558   3      14.162215784750348      6.3755241130582041  -0.0065095075163649034
   559   3      12.090512656663812      6.2325832865172641      2.0171195947050808
   560   3      14.330676556387992      4.0025382333801671      1.8291562410854336
   561   4       12.19595343253685      3.6831061296414518      4.0156722358026613
   562   2      14.153370602423049      6.0942555975186705      5.9147623341802031
   563   3      14.235666796044015      5.8159397449604437      4.0441809048561765
   564   3      12.198973652312212      6.0895692604866909      6.2204805140568222
   565   3      14.148708129216866      4.0979001372962101      6.4002048146670232
   566   4      12.112825378201263      4.0329722459951052      7.7185421705864936
   567   1      14.151324059917293      6.0449070714869597       10.09907661805112
   568   3      14.174760657999258       6.377483474185075      8.0950627028090398
   569   3      12.108235523940161      6.2005477315395234      10.126180996452623
   570   3      14.403529512133087      3.9871510215603063      9.9490292941010399
   571   4      12.164963656959168      7.7197402993658519   -0.031296831857036134
   572   2      14.139010195621562      10.132832389907707       1.865798097659201
   573   3      14.242058385938364      9.8653518540296652  -0.0029817405607180706
   574   3      12.179429865839627      10.148830483636582      2.1643213203756719
   575   3      14.126460139793384      8.1547808779885553      2.3652953763868245
   576   4       12.08294385637484      8.0505462976640434      3.6776194033684928
   577   1      14.151236182001634      10.107140556570982      6.0485813234441066
   578   3      14.142621850798935      10.452080436776697      4.0436024541565914
   579   3       12.11648870264705      10.207280725819237      6.1099078138407226
   580   3      14.332959279801099      8.0571575806543727      5.8737134308784587
   581   4      12.187366748780807      7.7248262811862682      8.0595144852491494
   582   2      14.153669552550499       10.13711368946335       9.962315157038141
   583   3      14.264702940234301      9.8666185598284404      8.0934363778089562
   584   3      12.205964559079005      10.126525761288672      10.251334064168049
   585   3      14.154746537292167      8.1438225323804119      10.453777249215401
   586   4      15.949911882105667    -0.21460006183827707    -0.21885912993888837
   587   1      18.181249324511594      2.0162749135889126      1.9926538036189181
   588   3      18.352527525953331      2.0872556496069201   -0.036512827492219402
   589   3      16.157896484346022      1.9411399745331996      2.2586710307707802
   590   3      18.441223851675289    -0.03646486460038402      2.0380771614626165
   591   4      15.948268607425424     0.12213717185569282      3.8369938309956684
   592   2      18.122358656754521      2.0328794987945442      6.0186744388267153
   593   3      18.400542504813039      2.0176752693266824      4.1215656634195836
   594   3      16.250321748190792      2.1629166074976345      6.0681205878073579
   595   3      18.289250630791603    0.087850092269312091      6.2359464199451731
   596   4      15.972307551882947    -0.21927149503915053      7.9103969363291711
   597   2      18.183228155504537      2.0007288132865306       10.10313381341315
   598   3      18.273835407206359      2.1477893225988818      8.1821433232029808
   599   3      16.277843202507881      1.9576907408252429      10.302767464101521
   600   3      18.418014350361492    0.070330099797952697      10.147591033766846
   601   4      15.942392603550367      4.1719607072880986    -0.21292080962512724
   602   2       18.06008911238515      6.0847171955063279      2.0438356634708867
   603   3      18.400799541995269      6.0744461653602704    0.075879625462267078
   604   3      16.195397629061436      6.2142988729607751      2.0032875439340372
   605   3      18.288620279586063      4.1139600349843333      2.1042330536529859
   606   4      15.927419458888762      3.8595968045902453      3.8399639423561736
   607   1      18.168148716161777      6.0732565187324532      6.0439685733282849
   608   3      18.374899073802169      6.1284828786468903      4.0170527603951145
   609   3       16.15089412815248      6.0005332308949724      6.2845031605031618
   610   3      18.444040028579789       4.017808442663668      6.1251483034708496
   611   4      15.954642175885143      4.1580253944187646      7.8818002446540394
   612   2       18.08717867074607      6.1159492064707388      10.151593452834589
   613   3      18.399634606719552      6.0569137268978075      8.1974229434089647
   614   3      16.220153860000085      6.1905122715592933      10.129689798572498
   615   3      18.267683947036382       4.066368835495199      10.262278637986741
   616   4      15.928287356666523      7.8953422845446024    -0.21859604469793859
   617   1      18.170417728251714       10.11236837647313      2.0053449122701581
   618   3      18.343170670181824      10.167401898568087   -0.029238738959656712
   619   3      16.139455890488236      10.043863342889781      2.2606789180706577
   620   3      18.444876471297039      8.0629273663423557      2.0441338427258984
   621   4      15.932213913575159      8.2123776072477668      3.8507892091310501
   622   2      18.065534354334897      10.129093395915781      6.1012498897603367
   623   3      18.427529805228644      10.109143232113018      4.1287305067719968
   624   3      16.202110110014402      10.244764476675662      6.0189321147418404
   625   3      18.314900699108012      8.1537716014098738      6.1500242487117465
   626   4      15.931423414606439      7.9019381822617314        7.87993216381357
   627   1      18.179139274625637      10.115513530204195       10.10874161663873
   628   3      18.331174471249579      10.171414405052213      8.0702933864278883
   629   3      16.155537704720068      10.047222860031173      10.360351030384857
   630   3      18.416072906075954      8.0582932681555217      10.182506034737013
   631   4      19.839865979978637   -0.067830409855668558   -0.059371883336148713
   632   2       22.19291690856026      1.9873324021954442       1.946998203480115
   633   3      22.419322137100785      2.0756533681929543    0.056865169066083632
   634   3      20.333352980465001      2.1892071460133979      2.0716801179925457
   635   3      22.278661322584988    0.083285374583608907      2.2052746974792119
   636   4      19.913823629132022    -0.10700710366055427      3.9250156182217246
   637   2      22.242327150355116      1.9660663111233632      6.0094941656466423
   638   3      22.257454096364651      2.2016829555633812       4.129308611095702
   639   3      20.333920781899284      2.0400461296431058      6.2847808804832335
   640   3       22.40967049755146    0.076772852460073232       6.141455523097747
   641   4      20.000658389632513     -0.2046388439635492      7.9150951747318299
   642   2      22.202433550312083      1.9492410074365971      10.075513573509674
   643   3      22.432718181820569      2.1047094965204809      8.1877598369998559
   644   3      20.314253188515643       2.204157786736046      10.155681885509916
   645   3      22.257881250232511    0.082431702724461361      10.282166866787236
   646   4      19.843322103674172      4.0337808108982482   -0.061338739683964673
   647   2      22.246966861305413      6.0364464701413896      1.9213858965029371
   648   3      22.306329001792832      6.2015311912049018    0.045702219096313002
   649   3       20.35162707548664      6.0157479123873996      2.1264885112130552
   650   3      22.466404928417642      4.1042015725540422      2.0864254779394833
   651   4      19.888950289451387      4.0630739786570071      3.9187337973177323
   652   2      22.238034717616259       6.043660636302902       5.976668316997837
   653   3      22.360959663146076      6.0717811278536384       4.110392230825803
   654   3      20.354929479401118      6.1835070719627065      6.2059564637455562
   655   3      22.271751065939828      4.1284353192811105      6.2976670731416649
   656   4       19.98736464861112       4.149106468503053      7.8896162852871381
   657   2      22.228385620703161      6.0159028909457515      10.071668338016357
   658   3       22.33093700360595      6.2444849535283087      8.1897076627379999
   659   3      20.339897318302711      6.0307104979410049      10.238245300260328
   660   3       22.46882473220511      4.1236567432530897       10.20080209512715
   661   4      19.831945268110534       8.056055936096099   -0.062552026499877039
   662   2      22.230949125865305      10.045049358627056       1.913880032654284
   663   3      22.421979422839637      10.123171964944067     0.02984717395962154
   664   3      20.352023588215271      10.262962714056776      2.0710415380808809
   665   3      22.266893024078055      8.1249475985764654      2.1985037789417445
   666   4      19.860310291202229      8.0918366094947913       3.969971703346137
   667   2      22.252874931012297      10.050798343152291      5.9990155118239015
   668   3      22.278111337481175      10.263074481949632      4.1230536902202042
   669   3      20.368047325172622      10.088142855417026      6.2291154672851476
   670   3      22.456826013393133      8.1393544344978466      6.1616543738622189
   671   4      19.864649480876601      8.0473320644612993      7.9909131848089014
   672   2      22.189549084322547       10.04612386693295      10.059870069995172
   673   3      22.468998402482161      10.161114694429642      8.1754323986119015
   674   3      20.330850940100305      10.256950491325172      10.143667190115075
   675   3      22.275335066782787      8.1462597393360365      10.319991369632799
   676   4      12.118729504309732   -0.092560937604467347       11.81595486480523
   677   1      14.159586239358584      1.9930152942413186      14.134670044981254
   678   3      14.191391329253882        2.35042214356436      12.118683512064377
   679   3      12.110805180570967      2.1200946982324052      14.169926243943204
   680   3      14.339670596149846   -0.051603055958988488      13.967676304613462
   681   4      12.177940868758627    -0.32194916832511633      16.114815930284468
   682   2      14.163730422628404       2.033513837179949      18.052171174508356
   683   3       14.23098302420656      1.7586846834862306      16.183853595105489
   684   3      12.203261636720907      2.0034401850694348      18.369074702823049
   685   3      14.142603416257721    0.038664771306168778      18.549739960009223
   686   4      12.158623699883735    0.020050815035961657      19.914216976392492
   687   1       14.14855335173544      2.0003615547217568      22.253442067916488
   688   3      14.165859340707053      2.3160439412186555      20.239300758797246
   689   3      12.111739848712125       2.135973996608771      22.276520937944593
   690   3      14.334352371114246   -0.052208693658242898      22.070158241550249
   691   4      12.160630460862047      3.7259864102129026      12.146967784864026
   692   2      14.138773286426373      6.1201086836603293       14.03226370105771
   693   3      14.229469208320678      5.7959523522192615      12.154735562651558
   694   3      12.199057334438535      6.0686059359733164      14.316628705680246
   695   3       14.14359704325679      4.0918821307444126       14.48323527041534
   696   4      12.140114860799397      4.0124557190445929      15.847957238480884
   697   1      14.136175644720318      6.0447250256290337      18.203309468667079
   698   3      14.170001963260043      6.3686537676758599      16.189774280095779
   699   3      12.096364035455194      6.2125813246395882      18.213518803843343
   700   3      14.308497477740767      3.9962477330295854      18.014405515192671
   701   4      12.182095187031424       3.675501498499695       20.19079364648227
   702   2      14.149285344557718      6.0921669560451459      22.109433705246996
   703   3      14.235720164263565      5.8061400524167412      20.241940726098729
   704   3      12.204053045227189      6.0753068792334251      22.416442225474466
   705   3      14.142684066365939      4.0945987810978455      22.600242938653857
   706   4      12.121266888801488      8.0545201094422723      11.772929867002567
   707   1      14.138378140429367      10.106084329966347      14.152344491546186
   708   3      14.167584489824195      10.428018968998341      12.141806376867283
   709   3      12.098806046973992      10.260971050700558      14.181301909792117
   710   3      14.321942893347465      8.0613236306474523       13.96635286345337
   711   4      12.161689913266448      7.7347296712919986      16.185805914692924
   712   2      14.149040166208373      10.144129970109629      18.062438994634359
   713   3      14.252615214775059      9.8579240789173337       16.19367337671822
   714   3      12.202731478158215      10.124967799003663      18.349659346957989
   715   3      14.142254372105116      8.1444687544116352      18.545944856080098
   716   4      12.111025834088265      8.0535532268707186      19.873015573827217
   717   1      14.131797487045892      10.098631759797808      22.252210490764469
   718   3      14.161728900853042      10.426101481953339      20.241852766393556
   719   3      12.094525563218211      10.262854351401501      22.283381889919355
   720   3      14.331745503594259      8.0530976349752255      22.067883796270699
   721   4      15.912694007412041   -0.076175715018970441      12.065848976811392
   722   2      18.081686126538681      2.0372131874766599       14.22322215905332
   723   3      18.424901624231595      2.0618933424986534      12.185785377604354
   724   3      16.220167430673619      2.1521607041249666      14.132351604492698
   725   3      18.307900756617794    0.074220223602362079      14.227481345397422
   726   4      15.946934195944063    -0.21817714901924917      15.994601081519489
   727   1      18.181540733828285        2.01109653400726      18.202465455641963
   728   3      18.341170641859751      2.0969772100114912      16.158236862365641
   729   3       16.15036571567104       1.945075863856536       18.43956887500784
   730   3      18.442160868721206    -0.03766910039567891      18.225530123746591
   731   4      15.942040425542805     0.11574724276879989      20.047408077561972
   732   2      18.068681335810791      2.0280652748965324      22.297501321319295
   733   3      18.411074895597835       2.025103848868627      20.321612534009731
   734   3      16.202395395052569      2.1558644322376188      22.234487602033155
   735   3       18.29476989105385    0.060282636914922978      22.349626807365244
   736   4      15.884667781488181      3.9613912525416453       12.02486427333017
   737   1      18.167724658190949      6.0838817153003992      14.179653674810821
   738   3      18.376048526378309      6.0962576841182683      12.138774319311212
   739   3      16.145101391064532      5.9934129096216173      14.390569173754265
   740   3       18.44159181965134      4.0266822882855324      14.187333021194091
   741   4      15.927891085780406      4.1887245263755908       15.99657187360104
   742   2      18.058885409737094      6.0831247081109119      18.254639612770106
   743   3      18.408559312169409      6.0776783345072589      16.280190863979357
   744   3       16.19419953874689      6.1893180659637501      18.186413430558495
   745   3       18.31235288781631      4.1120667316505868      18.282039054219435
   746   4      15.933539613827614      3.8390108478895857       20.04716244634114
   747   1      18.169191352403164      6.0664797129188948       22.25384145101528
   748   3      18.350076050746939      6.1196712993293811      20.218347759444313
   749   3      16.146101845476419      5.9898488826998273      22.498220098218635
   750   3       18.43318245990779        4.01709048187797      22.288745546638474
   751   4      15.946789621150161      8.2434857510644122      11.949362270550703
   752   2      18.063859296778098      10.141117630122022      14.212878162901701
   753   3      18.427385479347809      10.126173645341034      12.238415431596321
   754   3      16.200396322313864      10.242234300862645      14.136109447157049
   755   3      18.316991451657767      8.1638005173519677      14.234676404981361
   756   4      15.931828049787974      7.9123855818709732       16.01017258339278
   757   1      18.169640374942041       10.11766879382709      18.215499075105512
   758   3      18.338108203570879      10.163462814112536      16.179502359335242
   759   3      16.146944464221633      10.046612337930158      18.453771794704075
   760   3      18.422635658891927      8.0637695819231272      18.252570628179903
   761   4      15.926981440887797      8.2305610667742091      20.050469762666861
   762   2      18.060807660334433      10.129110038717281       22.29928349118147
   763   3      18.410216748238135      10.124918054915597        20.3274627483549
   764   3      16.194839028959457      10.259257641476676      22.238590140298417
   765   3      18.282364817811093      8.1555350738646073      22.341218774558342
   766   4      19.932067671305525    -0.18794457234323222      12.271033480143439
   767   2      22.238154794950056      1.9521967203415753      14.101504992491215
   768   3      22.329834496067502      2.2317748550352543      12.208502957335778
   769   3      20.354923436305132      2.0299166433248939      14.254021041846425
   770   3      22.461242222334402    0.072149602012213918      14.200089937105147
   771   4      19.871229801753355    -0.11299613588309966      16.152392658726228
   772   2       22.20485721116976      1.9552612623789334       18.13130635564325
   773   3      22.435231769907148      2.0944459522480927      16.240727961926684
   774   3      20.349826807038252       2.162586728377295      18.246975150916882
   775   3      22.306325791477068    0.064845761290279011      18.393167063231402
   776   4      19.842946248909143   -0.037189750859314197        20.1928667785755
   777   2      22.233307857482242      1.9729644768260339      22.196029871920697
   778   3      22.322542731412831      2.1953291991610309      20.301836136552282
   779   3      20.353929737366514      2.0176452789613348      22.372100892603967
   780   3      22.469808922270381    0.070385589081570193      22.326977742741477
   781   4       19.87563439811132      4.1141254906425697      12.207751160777162
   782   2      22.207972420999806      6.0345858122477596      14.111451715710894
   783   3      22.420084117539592      6.1103377138413997      12.223292427177352
   784   3      20.345061101619521      6.1984988443948446      14.219356436049933
   785   3      22.311562225184286       4.127829519003881      14.357338299282473
   786   4      19.843773087876865      4.0445422827123245      16.184814235827591
   787   2      22.240161952467457      6.0125642244241035      18.162113281142595
   788   3      22.327363846767842       6.237846688695428      16.268323849237731
   789   3      20.357646521855404      6.0667163859172986      18.328592848566192
   790   3      22.461532252263471      4.1045223657983092      18.274868996738928
   791   4      19.834800691989191      3.9939577974234197       20.19798885768471
   792   2      22.203709826002193      6.0364196834463124      22.198891782567785
   793   3      22.432435682161803      6.1053820340538927      20.303926212942752
   794   3      20.344071940840475      6.2180734710496273      22.309766019963241
   795   3      22.296193567532558       4.116009290428007      22.445238778904773
   796   4      19.839460899188104      8.0931063045622125      12.153104184531074
   797   2      22.245864822347716      10.065130309484578      14.100047787715312
   798   3      22.259866214836052      10.262621476121751      12.220916607487348
   799   3      20.362547520607521      10.101459470314603      14.328914210407728
   800   3      22.469325189741916      8.1510426899979667      14.257505878801089
   801   4      19.836283474703691       8.066675860392456      16.166111934859586
   802   2      22.202519590472889      10.062434969352198      18.171098917760474
   803   3      22.461919435744452      10.161701881924209      16.277050808512218
   804   3      20.339843345256426      10.247334084618529      18.243333673814401
   805   3      22.313788208487299       8.152480043075407      18.401251831748446
   806   4       19.83166447248248      8.0740927036042471      20.211402370482318
   807   2      22.225426421006066      10.045119081080212      22.189235031652842
   808   3      22.277837613529996       10.27086437311238      20.297036003466193
   809   3      20.335665700571038       10.06129915346094      22.383890888251365
   810   3      22.485283995982495       8.136516145246306      22.308579632585662
   811   4      12.108179712842214      12.116117952154685    -0.38084473611865804
   812   1      14.137702392521019       14.15327370169148      1.9961725637239933
   813   3      14.157708141871129      14.490822628702487  -0.0074451479246205781
   814   3      12.097043960736954       14.27091526121664       2.048010716599006
   815   3      14.315145870782725      12.102341813147628      1.8220869311392214
   816   4      12.187856895417484      11.816669555898445      3.9430105120393164
   817   2      14.153083895718861      14.193488483918349      5.9094360259344025
   818   3      14.234040035491745      13.907709642210376      4.0421734884704703
   819   3      12.193470308821906      14.186643221753064      6.2159362879939044
   820   3      14.131444154769257      12.199116295881382      6.4092584952774425
   821   4      12.141544757181819      12.171668164836028      7.7620076801248237
   822   1      14.143372043139532      14.153801154567001      10.103173471509404
   823   3      14.160007258964347      14.478204115334307      8.0911859613171355
   824   3      12.106518715549088       14.31907807867859      10.119061336754095
   825   3      14.330131824199372      12.103739884674287      9.9184395971411821
   826   4      12.175211618342809      15.838823237137124   -0.073995673312987939
   827   2      14.155548119708964       18.23057613082235      1.8579868101081947
   828   3      14.226676221888322      17.957541728906598  -0.0083063755806132913
   829   3      12.194259136826973      18.244323674244548      2.1762734801341597
   830   3      14.125478102265371      16.247052023206656      2.3641294487686713
   831   4      12.110065326223454      16.170561540514743      3.6885382092522208
   832   1      14.162584732396871      18.202289645157602      6.0557041475974946
   833   3       14.16411681227528      18.534689529137836      4.0489006374446594
   834   3      12.123069048080557      18.301245409495749      6.1170199803888368
   835   3      14.330697911174083      16.153223596850268      5.8689919684735097
   836   4      12.178190290317712      15.830134811315059      8.0502095448731357
   837   2      14.156903215841645      18.243847723937694      9.9697244192019028
   838   3      14.262589674384413      17.970102414471953      8.1021697090090772
   839   3      12.201393954623411      18.234758469716557      10.257799402044341
   840   3      14.147035574656089      16.252071224990466      10.457141046517517
   841   4      12.115391352926524      20.198566679859699    -0.38149582511231711
   842   1      14.150942076265599      22.247379188190227      1.9981066255318962
   843   3      14.167144438449865      22.579913398455748  -0.0086132783143762597
   844   3      12.110155913449379      22.367383319896877      2.0531154833630048
   845   3       14.31933396541422      20.195278506898724      1.8349632982268216
   846   4       12.22279115218244      19.921195240604256       3.933140390688127
   847   2      14.174512708126979      22.293348970366495      5.9162402654952695
   848   3      14.246547021209501      22.004430018232082       4.049506929329608
   849   3       12.21163429426842      22.265087591778542      6.2271308504572609
   850   3      14.146874761373924      20.292676915432789      6.4157724647587848
   851   4      12.164792049939942      20.277391128912157      7.7631057551700193
   852   1      14.168215974194979      22.251667005459556      10.105701200484091
   853   3      14.166836869109165      22.577225544415537       8.103095226157059
   854   3      12.116393100594546      22.414949027575663      10.154451091483505
   855   3      14.343316613325905      20.210206487050673      9.9321429713276981
   856   4       15.92463624432124      12.263811878134506    -0.19641771817754838
   857   2      18.062962634491448      14.181976143708599      2.0542283167632589
   858   3       18.42564546471667      14.163995008696508    0.081928285869070319
   859   3      16.197272795402306      14.299499640318944      1.9871846029864029
   860   3      18.306035752742069      12.206153620680594      2.0925481728129394
   861   4      15.933804014657511      11.942002939665016      3.8327866575330747
   862   1      18.181772839126101      14.147428205428389      6.0510031571318557
   863   3      18.348038046188275      14.225225507201705      4.0184644515617753
   864   3      16.148530851289919      14.092844373865782      6.3007996204014036
   865   3       18.44094065462237      12.099716789968483       6.094741377771137
   866   4      15.932472161433921      12.267790009907173      7.9033708224637227
   867   2      18.071796524504855      14.175060178709257      10.149841145182828
   868   3       18.42820405953897      14.166187129012579      8.1755033494924287
   869   3      16.205402941532885      14.302730563643316      10.075392915691165
   870   3      18.302721503819164      12.207079039454898      10.195518668737236
   871   4      15.945635326842355      15.989563463432473    -0.22601791679524783
   872   1       18.18868551464978      18.193670485537229      1.9995584871581416
   873   3      18.359007808989563      18.284274890203182   -0.029870089720923216
   874   3      16.149593543409207      18.136795394190624      2.2492702542052885
   875   3      18.442143228732682      16.152750256240246      2.0501910292093983
   876   4      15.937722643215407      16.313248661756045      3.8473523087914776
   877   2      18.078975896955768       18.21800552756104      6.0988090758042555
   878   3      18.427560478437787      18.213244892748918      4.1280955719571084
   879   3      16.214053367091729      18.347137564907563      6.0381487163747547
   880   3       18.32247697852241      16.254277938011114      6.1448712846574498
   881   4      15.938854244683247      15.987520057003072      7.8970918000213519
   882   1      18.184613856362084      18.191440511183401       10.10802304211701
   883   3      18.363433140101371      18.281575997119823       8.069959786015124
   884   3      16.155875912655794      18.145351541101014      10.369615319033203
   885   3      18.441743477820761      16.156512120917345      10.141554159696254
   886   4      15.953485516151169      20.361328665015428    -0.21797458842510389
   887   2      18.067878799467849      22.268505379708806      2.0526961957564653
   888   3      18.426724553068997      22.268550513451157    0.084056613885912193
   889   3      16.204114771219306      22.392535886189734      1.9888611933481664
   890   3      18.312530201577484      20.305198166109378      2.1041199092949694
   891   4      15.950188242896898      20.033691939416073      3.8337441844254441
   892   1        18.1844583003809      22.258156686912166      6.0524043623456762
   893   3      18.347953825288268      22.353513572153169      4.0219158810545874
   894   3      16.160921076644247      22.187975747418854      6.3143435210628214
   895   3      18.444157985951293       20.21051371222093      6.0972045271020026
   896   4      15.953874909239067      20.348505111785109      7.8943087835741261
   897   2       18.11913082969965      22.197957932179047      10.160275990570282
   898   3       18.44704400864773      22.289120037254172      8.2057270515693244
   899   3      16.252157552137724      22.442821447296751      10.076915536854147
   900   3      18.263679040976342      20.295285911647596       10.24290512789867
   901   4      19.842513994064539      12.102238591559043   -0.032652384434770039
   902   2      22.242397740355027      14.067490797628388      1.9529199084946782
   903   3       22.29875675179645       14.32717293946286    0.065438130024157576
   904   3       20.36830472053358      14.148676210902163      2.1508246251424183
   905   3      22.460621164383426       12.17731947273988      2.0706579620881613
   906   4      19.858601200183237      12.054340722632478      3.9631881068483894
   907   2      22.215757490758087      14.071365305956409       5.996412262202691
   908   3      22.459925157922072      14.213929213208948      4.0979742484507833
   909   3      20.355671777791244      14.296879535178986      6.0931648817561559
   910   3      22.310166726555668      12.182468521682939      6.2586494635787062
   911   4      19.842470006106623      12.099064885924406      8.0541967297942527
   912   2      22.244412545421664      14.071249223694691      10.042807217289472
   913   3      22.292553041690308       14.31900561842096      8.1483439507433424
   914   3      20.352596339378216      14.161663690471396      10.264527374017819
   915   3       22.45370922249116       12.17666137825308      10.189300662648622
   916   4      19.872162553647279      16.089279960144196   -0.091913261832360246
   917   2      22.229245233796405      18.126062963876883      1.9573329207334134
   918   3      22.449953293865985      18.295455083910671    0.059999151029436315
   919   3      20.371303211978184      18.375962051712595      2.0756280007394801
   920   3       22.31234888385508      16.244670314969394       2.178052642750969
   921   4      19.856337779960665      16.136314190408747      4.0102061139128473
   922   2      22.269463570902865      18.113171338310451       6.015144084057126
   923   3      22.335802457742517      18.393769612119684      4.1137370188625972
   924   3      20.374549410806832      18.247432640550645      6.2000329545613138
   925   3      22.430106733222459      16.237622436427721      6.1014234486633185
   926   4      19.861663417747728      16.100075395952032      8.0398735181921612
   927   2       22.21691956654151      18.136852480791067      10.067120930638239
   928   3      22.442539955529373      18.293012940596583      8.1609165995314701
   929   3      20.354942016024832      18.402350966206715      10.169925568111786
   930   3      22.274323287544135      16.255706644159993        10.2854974636642
   931   4      19.853521654470558      20.193707963776706   -0.047401508112134505
   932   2      22.250075806371701      22.210936562985339      1.9546924129581715
   933   3      22.301909377290034      22.457211537580442    0.062631292848767811
   934   3      20.362186695620199      22.294691746280929      2.1711460139458407
   935   3      22.461939371718636       20.32371251652512      2.0776759371685385
   936   4      19.872504606317609      20.134232727192774      3.9747884497866175
   937   2      22.233425580373858      22.201670222869154      6.0003843014977098
   938   3      22.422028865477238      22.345829169255907      4.1107401483597599
   939   3      20.345173704574222      22.469375808492561      6.1307660125247976
   940   3       22.27788012282587      20.321232239478288      6.2450525354101973
   941   4      19.915457516891134      20.137921081352236      7.9822836258143974
   942   2      22.230344390957985      22.200408318633798      10.077549231123088
   943   3      22.243955829433141      22.459800940928588      8.1710204276887861
   944   3      20.326548889839163      22.317703582619224      10.290426091001848
   945   3      22.427872868044197      20.321705776188526      10.177021355199949
   946   4      12.187569830916944      11.780880121648464      12.106740002943571
   947   2      14.152468356721023      14.193657681604948      14.015523597030279
   948   3        14.2524728745207      13.919266400036463       12.14450225859737
   949   3      12.205444276207672      14.187872530846095      14.309395597318559
   950   3      14.142858783983186      12.199140756671904      14.502962846251481
   951   4      12.114181267674406      12.111772787249381      15.830032727670819
   952   1      14.131828704532824      14.154853643030831      18.204178231772097
   953   3      14.166219492274257      14.479482277742173      16.196378350426567
   954   3      12.087854135476036       14.33107144059313      18.223447515997467
   955   3      14.323742281583979      12.106425831825392      18.018890823260516
   956   4      12.176484661243551      11.782183381963456      20.199021712534819
   957   2      14.152777057416019      14.191481747853494      22.110053896858304
   958   3      14.240780194324183      13.911652895557399      20.242906491020445
   959   3      12.199797995801175        14.1880894400025       22.41307949913746
   960   3      14.129696463123796      12.200359824596161      22.610447231267923
   961   4      12.127978846399575      16.173610729063302      11.788372359593616
   962   1      14.131817396964976       18.19268774020545      14.155362860643161
   963   3       14.15535907927082      18.530643119400459        12.1503610635762
   964   3       12.08335676610446      18.373755751358011      14.175163256364597
   965   3      14.330262477647734       16.15550607014054      13.969376021156975
   966   4      12.181504747043942      15.837173885412897      16.163865473177353
   967   2      14.142282018725842      18.247379994429796      18.065931803475003
   968   3      14.240366658648975      17.968594794767807       16.19411194423985
   969   3      12.189404011980898      18.260076159011579      18.345456678608919
   970   3      14.134405233758274      16.255083453105645      18.554477097459046
   971   4      12.091306885488374      16.168157688574258      19.870327763770074
   972   1      14.134596812407104      18.196989715505872       22.24421707530248
   973   3      14.163862981323447      18.534222984033381      20.236869421333516
   974   3      12.087457159006185      18.366282403862268      22.272451274120122
   975   3       14.32913179231385      16.153665894111022      22.071824856148787
   976   4      12.161221750300777      19.866752904458682      12.112037608354429
   977   2      14.123556826550921      22.255776565851956      14.060772752907294
   978   3      14.316803885399681      22.080375993173924      12.163788187818813
   979   3      12.177650240071653      22.317243376652115      14.277545769545622
   980   3      14.135905153555511      20.297044362974336      14.509970113384346
   981   4      12.060085917297899      20.161472656864429      15.852793743544352
   982   1      14.159072034451375      22.246519378172842      18.192577428981572
   983   3      14.133752181695442      22.604888528700812       16.18541349057778
   984   3       12.12096996361441      22.355817291054347      18.248145429967465
   985   3       14.34961928271262      20.205393006606403      18.004508158908504
   986   4      12.161300648193746      19.872053330209472      20.219547924864013
   987   2      14.158484453259106      22.278087311601588      22.104858549196557
   988   3       14.27086652355405      22.015560168906251       20.23771017433161
   989   3      12.205685221392802      22.286479814777987      22.396639476382166
   990   3      14.142350809370363      20.294431927495271      22.604790370869381
   991   4      15.934133593638926      11.949259268881145      11.941098478028783
   992   1      18.175268863111715      14.158396300369203      14.167110208913368
   993   3       18.33542708551353      14.222068925325519      12.124243176059441
   994   3      16.151705797672765      14.097678320495646       14.41215863423276
   995   3      18.438120912149266      12.110709933799873      14.208568566969365
   996   4      15.927720764233509      12.283981346282266      16.008810874265727
   997   2      18.069323287302282      14.179939218085375      18.255663244811974
   998   3      18.427623006965387       14.17236886398344      16.284881005897226
   999   3      16.202591410348372       14.30438548952425      18.188163452307244
  1000   3      18.302617301920399      12.208127033519371      18.294120676774163
  1001   4      15.931484387847892      11.946460521220754      20.039501339533327
  1002   1      18.181811076455197      14.156980064869137      22.261253474323997
  1003   3      18.352209944418497      14.216362164719728      20.225397460667587
  1004   3      16.148771082833431      14.090447560425913       22.50625259486791
  1005   3      18.444401395761126      12.107850500308265      22.299771375996908
  1006   4      15.944441877095235      16.305011025759153       11.94863703206684
  1007   2      18.076546607765749      18.206270054386454      14.209190318648043
  1008   3      18.429837045920159       18.20404327640777      12.233634536591968
  1009   3      16.207911874730307      18.355002388127925      14.145047261397423
  1010   3      18.300573073666285      16.248474453874842      14.258748625645692
  1011   4      15.934597990616478      15.993485028240491      15.999023517778804
  1012   1      18.187090632675847      18.197893946431797      18.216682446450541
  1013   3      18.368024104223579      18.274189632628282      16.176534029340001
  1014   3      16.153812113172588      18.141972996482544      18.446726362700893
  1015   3      18.447345545307826      16.157613081379015      18.251149770088908
  1016   4      15.935358623441138      16.326201850368921      20.040750554075135
  1017   2      18.070228941853866       18.22969329067331      22.302515203837761
  1018   3      18.423604905414155       18.21911146044911      20.331533195728117
  1019   3       16.20159247542113      18.351557166653635      22.242161779628219
  1020   3      18.296457393709183      16.258559513244631       22.35255270526898
  1021   4      15.941763573764112      20.019347223542308      11.966660810540729
  1022   1      18.181804227288072      22.233151130362746      14.176542041716838
  1023   3      18.293888863299443      22.415927565599002       12.12463462832264
  1024   3      16.153511611261646      22.200944496963597      14.431296072582377
  1025   3      18.451575237292602      20.197557672571527      14.191961499435179
  1026   4       15.96452043586156      20.333142846774791      16.006083385656883
  1027   2      18.078389297553134      22.273315927810035      18.254541234746917
  1028   3      18.455266641061773      22.268874735426706      16.274286879199664
  1029   3      16.212781782923244       22.39459247616394      18.144819039564887
  1030   3      18.309015622216226      20.305035231848201       18.28973114750411
  1031   4      15.947816095377078       20.03563506736258      20.031147313372141
  1032   1      18.186730215671815      22.254033758716417      22.249320407649002
  1033   3      18.325793649196864      22.347560709067352      20.212509458543678
  1034   3      16.156270162116186      22.187685056076269      22.509563585183283
  1035   3      18.434242458433118      20.210469441476445      22.301141320029846
  1036   4      19.843837836890259      12.093146657537128      12.094353725979861
  1037   2      22.203752769811789      14.092005720415592      14.111660193921255
  1038   3      22.454377995354967      14.207184240149099      12.217069141168071
  1039   3      20.344661915286746      14.308472358164655      14.198180635902693
  1040   3      22.297914830187562      12.193966416308204      14.362792535119826
  1041   4      19.847491269941592      12.109964540761904      16.175509557485341
  1042   2      22.245230923906295      14.081573833939485      18.160933669835767
  1043   3      22.281372176613345      14.328067036127095       16.25884003925945
  1044   3      20.356334530366357      14.154110481988049      18.349000976566252
  1045   3      22.454760711824687      12.193091091345966      18.263775710718637
  1046   4      19.837461965710649      12.094004109917632      20.203547769600672
  1047   2      22.234192912139946      14.057198849503983       22.20567946410349
  1048   3      22.443629743923655      14.231473241913749      20.296386834796991
  1049   3      20.357339762846738      14.356525480106512      22.313513492571257
  1050   3      22.225330748032373      12.171726453363755      22.422124845691759
  1051   4      19.861570603429726      16.120458338031764      12.107443003513104
  1052   2      22.261288255415362      18.114923244359428       14.11355240890229
  1053   3      22.321255841920184      18.404242980295628      12.205209202816093
  1054   3      20.363197469923268      18.202009000896336      14.254490359652367
  1055   3       22.45791876181227      16.232807008976696      14.208314920426572
  1056   4      19.864598623118102      16.113081826471742      16.160575925942037
  1057   2      22.239932455602059      18.136320326962949      18.135642899510451
  1058   3      22.410940123236635      18.261974533543921      16.242757457561424
  1059   3       20.37443630823044      18.403486465633399      18.280574250117755
  1060   3      22.265036285801536      16.259469840453779      18.374702829251188
  1061   4      19.869922964346344      16.131293546659009      20.219195215128661
  1062   2      22.247270035392084      18.136579293272412      22.208096278269526
  1063   3      22.340673607380882      18.404044440975103      20.320784716919892
  1064   3      20.368161213275467      18.221332547833388       22.38333968953895
  1065   3      22.466910353139145      16.258366877032785      22.330562562528591
  1066   4      19.915123517888826      20.061462824642103      12.142574344395713
  1067   2      22.239278695295528      22.168955443350669      14.116656913172005
  1068   3      22.444681960464909      22.353476594803922      12.197397631966641
  1069   3      20.345723169147679      22.485749067592334      14.142651506734632
  1070   3      22.234045579126203      20.293650122024786         14.308611041895
  1071   4      19.865243360030753      20.171390841385016      16.175848280419498
  1072   2      22.249239889807985      22.194967624361698      18.140400877150746
  1073   3      22.252245030666316      22.448181562448177      16.245243654205915
  1074   3       20.36693567574045      22.268838516607488      18.360328072533832
  1075   3      22.468587589347667      20.316134437436794      18.288975030602138
  1076   4      19.875551301207203      20.135618664106008      20.166472046564284
  1077   2      22.201376349971973      22.219591516074676      22.197964479884831
  1078   3      22.455387236031068      22.339036236911941      20.307963237522621
  1079   3       20.34652471459718       22.42810422456327      22.297876452649884
  1080   3      22.316995512382746      20.326444672342628      22.444469730809804
