(written by ASE)

1080 atoms
4 atom types

0.0      24.299999999999997  xlo xhi
0.0      24.299999999999997  ylo yhi
0.0      24.299999999999997  zlo zhi

Atoms # atomic

     1   4  0.00026271845988570569    -0.18772825510561539    -0.16028999188081516
     2   2      2.0704215454363606      2.0149286775658957      1.9435266847372705
     3   3      1.8578342866773117      2.0688999063064708    0.048159338247606792
     4   3  -0.0058930299230224199      2.0600935879552789      2.2524742959336135
     5   3      2.0118723333366861    0.088363338024321988      2.2044641786004893
     6   4    0.018346143609419798    -0.10649917906496831      3.8373129165448443
     7   2      2.0967146970427604      1.9693572447883274      6.0053854128776338
     8   3      1.9964360640383705      2.2133440999711178      4.1121528262442935
     9   3  -0.0010321528039170045      2.2698270315720896       6.151691172816447
    10   3      1.8605503434530302    0.079344670858838229      6.1227648606847422
    11   4  -0.0066448367319484197    -0.17792191959084819      7.9523993298740008
    12   2      2.0616112648421603      1.9808635364605889      10.042466791338979
    13   3      1.8660467187220839      2.0860558406292746      8.1542239392944307
    14   3    0.015827627901636224       2.109944654042601      10.369169158361238
    15   3      1.9889704693760264    0.093704457973476693      10.311146076295753
    16   4    0.015951819675171328      3.9413426673911029    -0.19862172528571242
    17   2      2.1480409835810574      6.1048000561699522      1.9657361449941859
    18   3      2.0072607671825309      6.2227612375639891    0.046230059948116548
    19   3    -0.03170539710034509      6.2625738015712411      2.0782147601784806
    20   3      1.8195430538757909      4.1017921681627687      2.0642260826229584
    21   4    0.047553087405163771      3.9278304532547681      3.8218592639571187
    22   2      2.0578900767764154       6.001281370120803      6.0042364765427134
    23   3      1.8599320427618189      6.0388053538154258      4.1089641319762702
    24   3   0.0064916456664155962      6.0949877091517104      6.3282889251895442
    25   3      2.0007655094700199      4.1080088171070015      6.2745204186659764
    26   4   -0.022377824120480946      3.9372570529120949      7.8752127339646369
    27   2      2.1136468419206209      6.0134744547430614      10.054853673014335
    28   3      2.0136415834540835      6.2465984156144021      8.1619570372761512
    29   3    0.015367544496569923      6.2904551664652608      10.195420075545918
    30   3      1.8769469013553957      4.1151097470938804      10.180824873604454
    31   4     0.10491994256391125      7.9128763114685068   -0.097640012467193588
    32   1      2.0703957142077734      10.084609116786103       1.987094133548255
    33   3      1.8491872411077583      10.200840163921107   -0.046873329184898664
    34   3   -0.041485141683517426      10.114933565929965      2.2700642144248531
    35   3      2.0021808600609203      8.0486229310353661      2.2084215630476227
    36   4     0.13609296639915391      8.0796523163764142       3.705183489483368
    37   2      2.0844298825999248      10.038423476678405      6.0417242247982186
    38   3      2.0567208768406404      10.285012424143355      4.1490202830758562
    39   3 -0.00095157741550297307      10.338442957185688      6.1096387141736566
    40   3      1.8713131957430316      8.1352860695803351      6.1169372943344822
    41   4   -0.026006281837752731       7.882051493780736       7.963003033005239
    42   2       2.058697144255206      10.036170465225837      10.064292614438781
    43   3      1.8217677482306642      10.165269408039924      8.1636247878273753
    44   3    0.041197845240986707      10.109949985287331      10.379329821112066
    45   3      2.0163050386579564      8.1388756088409355       10.29814356364875
    46   4      4.4568667493045462    0.012901768450062207   -0.047275918359645258
    47   2      6.2506585010802489      2.0387016625170595      2.0407377288342023
    48   3      5.9811722070163675      2.0591607517164356     0.06091623874769346
    49   3      3.9524820382465045      2.1508856095992224      2.0241280395231258
    50   3      5.8551700265914928    0.071745781713539333      2.0368906523049102
    51   4      4.4294853604340236   -0.041047502382839066      3.9613143226019254
    52   1      6.1270630271625066      2.0038670946924406      6.0635230070281532
    53   3      5.8797284025826899      2.0400771018265682      4.0147150837680625
    54   3      3.9600277415490455      2.0600660059199831      6.2107173433159577
    55   3      5.9687707624095205   -0.040231140433433815      6.1493379330711706
    56   4      4.4357860788884143   -0.029359751778326039      8.0699717845253254
    57   2      6.2398503389993012      2.0585440066483556      10.125697855526761
    58   3      5.9983162670545136      2.0964973168668259      8.1600270357938793
    59   3      3.9521670390425263       2.138718436612645      10.127799603428254
    60   3      5.8782265818553663    0.083578633353045106      10.117090294216339
    61   4      4.4719167477823039      4.0047473277636811   -0.048284992420669651
    62   1      6.1413132243661206      6.0271741465984583      2.0152072866447441
    63   3       5.866490032438703      6.0736411210916668   -0.038103215531909151
    64   3      4.0047608902265601      6.0279881584192765      2.1334113289986218
    65   3      5.9857816587327637      4.0003301112305278      2.0659310087247795
    66   4       4.463177364252493      4.0078269583720827       4.011005522066494
    67   2      6.2458405039760532      6.0934715560603676      6.0810215799668219
    68   3      5.9889476033893203      6.1399327691379648      4.1091617569130845
    69   3      3.9438792233083819      6.1845627644860413      6.0570779242299073
    70   3      5.8913926556383371      4.1258351766961434      6.0758373992894246
    71   4      4.4592228417105213      3.9914041576871853      8.0235099549297395
    72   1      6.1349098729488682      6.0552568766038162       10.10960929901916
    73   3      5.8779415630199967      6.0977370114537566      8.0579271433613595
    74   3      3.9743734799113919      6.1047492810596458      10.261023926705867
    75   3      5.9655758767418741      4.0216858054824653      10.179696919223545
    76   4      4.3887698001504605      7.9543761247781921   -0.097503820377953854
    77   2      6.1134016939549474      10.034065169500835      1.9971446120624461
    78   3      6.0820825514095729      10.293369091884736    0.053327642041846646
    79   3      4.0848797335791769      10.406121499583044       1.968840069288089
    80   3      5.9141530225477554      8.1309852805550094      1.9925833856070916
    81   4      4.4283250504174099      8.0142207987375773      4.0522811321228529
    82   1      6.1146484185774197      10.099889553203615      6.0563806110266851
    83   3      5.8362221790762474       10.12782827152461      4.0175260450322341
    84   3      3.9557744514943551      10.155911440331462      6.2425820028943484
    85   3      5.9262092104030568      8.0636185083759742      6.1097094239721947
    86   4      4.4652006310958567      8.0458568554458836      8.0751770425340599
    87   2      6.2457018809277942      10.139811510397594       10.13610022880253
    88   3       6.005082247449292      10.189396792358187      8.1599712365880066
    89   3      3.9551058495463063      10.226127014192199      10.073428536450068
    90   3      5.8965871923019675      8.1747171845794604       10.12978539561427
    91   4       8.327733676989185    -0.22768294772513259     0.12105998988243975
    92   1      10.170993896594142      1.9812343308456142      2.0003590230366517
    93   3       9.984152113705516      1.8050755402296583   -0.038419627127067216
    94   3      8.1123227575471279      1.9453337071882075      2.1319882304886808
    95   3      10.162692135598082   -0.031348494252201535      2.3391744909070411
    96   4      8.3675489936640073    -0.22540145401177866      3.8526287955011229
    97   2      10.155071525374527      1.8502212507350979      6.0861482649999274
    98   3      10.157870842188014      2.3268351231462425      4.0971321218794454
    99   3      8.1516793824871971       2.244019533726251      6.0032262288932925
   100   3      10.043819063411261   -0.021864440597749266      5.8406818826557299
   101   4      8.3705346341001299    -0.20400141392638921      8.2034228657833452
   102   1      10.166487858697073      1.9976038519262551      10.098885326886526
   103   3      9.9797517692051887      1.8189802955505252      8.0552993718473278
   104   3      8.1051843287565699      1.9730608983470785      10.253125407920633
   105   3      10.144930034149118   -0.012812762686556973      10.423925408265685
   106   4      8.3758558655781403      3.8390416005197268    -0.19662614045919816
   107   2      10.138983168317452      5.9011365718046704      2.0424363541163548
   108   3      10.156009277853498      6.3802810430719008    0.044976557686008063
   109   3       8.150999154171096      6.2955615006264392      1.9456200207090002
   110   3      10.055211318505586      4.0311982346462889      1.7702878011286458
   111   4      8.3781371826547968      3.8416520327571981      4.1944438435865772
   112   1      10.161960390957757      6.0527315374044122      6.0420059191445921
   113   3      9.9807170623473382      5.8798811624991085      3.9998128000523412
   114   3      8.1066050178402644      6.0324309809213377      6.1877946274430569
   115   3      10.131881141432981      4.0362320588729439      6.3575483704936051
   116   4      8.3758670874036572      3.8322356215365541      7.8928769776853223
   117   2      10.148912588440959      5.9081961938898591       10.13574633355474
   118   3      10.156661192634353      6.3894732445319464      8.1414004445608796
   119   3      8.1518157446379167      6.2954318106522837       10.04550046736394
   120   3      10.058796174697466      4.0357614490154949      9.8766160576170456
   121   4      8.3913682897738049      7.9059535389793014     0.12848445897869676
   122   1      10.124087408675958       10.12958077986046      1.9944937201645192
   123   3      9.9382617957035695      9.9592747338218466   -0.039294415152451849
   124   3      8.0290528730440656      10.132138171895381      2.2026193275671457
   125   3      10.113927747240306      8.1066608126314694      2.2973721701252288
   126   4      8.3661983923050727      7.9152565329054099      3.8333152627214919
   127   2      10.119310538761368      9.9728153419551262      6.0751975514314012
   128   3      10.142430633766114      10.440660601778418      4.0847194999989966
   129   3      8.1345872390300027      10.347844992896453      5.9882346050087722
   130   3      10.050927718949252      8.0983349947843628      5.8131414767207623
   131   4      8.3802958613020468      7.9024985411398694      8.2286263278431644
   132   1      10.159824760652757      10.102802662953117      10.092451681603713
   133   3        9.96123139990436      9.9306885803384422      8.0464948460260928
   134   3      8.1056430494771821      10.094851014044718      10.253922137587622
   135   3      10.125832595257759      8.0906854782312454      10.411522670056261
   136   4   -0.017343657329529472    -0.12990906099771343      11.942196321020269
   137   2      2.0827484709115915      1.9858502502650874      14.090689365421245
   138   3      2.0208548153974193      2.2215062002589607      12.209564889669426
   139   3   0.0055410104557712921      2.2850691896047839      14.236857816753572
   140   3      1.8588500170300839    0.090132576426994557      14.224937060768388
   141   4  -0.0069377816334411993     -0.1880123907731967      16.034367972681306
   142   2      2.0645688450927113        1.96301859715169      18.141342181718478
   143   3      1.8503822828378151      2.0808477904734524      16.256077635461548
   144   3   0.0030610081462683894      2.0824416295434842      18.458220539493141
   145   3      1.9744651370537865    0.070193989252094774      18.394264767342989
   146   4   -0.010157839569236608    -0.13286466442786349      20.008641595619668
   147   2      2.0851079893522759      1.9717529118787085       22.19869132520293
   148   3      1.9868007107377568      2.2022231068639071      20.307875990685094
   149   3  -0.0080065947111868374      2.2591162659574198      22.347651991786368
   150   3      1.8487267226094768     0.07081489359675476      22.318369871749724
   151   4    -0.01800894432496335      3.9095141640496833      11.966817928986732
   152   2      2.0707732878545935      6.0263475105733786      14.086924738692213
   153   3      1.8808822951699182      6.1099306097560788      12.203841637924539
   154   3    0.022651891163220448      6.1180273467522621      14.424131457373802
   155   3      2.0102022219883517      4.1209356384435525      14.368466519080076
   156   4  -0.0015902405047279859      3.9534445258630662       15.97101243296679
   157   2      2.1064025339683772      6.0079342584773121      18.145627294748962
   158   3      2.0146034815571863      6.2388163221875628      16.265487794689804
   159   3    0.006640637527967337      6.2890123030688629      18.307243418988268
   160   3      1.8619230667792159      4.1057740733326753      18.280844847886243
   161   4  -0.0065813125601673211       3.871382216959796      20.061113868547054
   162   2      2.0567975831129979      5.9903451739205451      22.186625658802924
   163   3      1.8681096101600532      6.0922818275747739      20.303189380853659
   164   3    0.024293603120083163      6.1159536759818547      22.520331555315494
   165   3      1.9936823994958215      4.0955627815498188      22.456025986644761
   166   4   -0.059089063486590501      8.0171616894403943      11.904791113048427
   167   2      2.0985711595120713       10.05899363524524      14.086973854562313
   168   3      2.0676231164173835      10.256241366563586      12.205664340521428
   169   3    0.025932718576661348      10.304187750498022      14.266717093270577
   170   3      1.8760369712206462      8.1468616490367918      14.246693750412492
   171   4   0.0012125401486242217      7.9491148405178578       16.00166797002078
   172   2      2.0633129939236552      10.043436648727386      18.165715647577837
   173   3      1.8788320064877622      10.145081415036087      16.281088273643991
   174   3    0.023363845911679181      10.150282289303901      18.496605969676487
   175   3      2.0029413586507459      8.1398195586475541      18.423860157541316
   176   4    -0.00128217392576946      7.9633691029421856      20.035265315290236
   177   2       2.099393312359191      10.030889145762899      22.285397109826516
   178   3       2.032383147672336      10.316764401215545      20.325814130541161
   179   3   0.0016886606242716216      10.372390357283242      22.262637918739767
   180   3      1.8791673503464157      8.1277421262087994      22.304268072946673
   181   4      4.4049468241402554   -0.024418521607404514      12.011117270317177
   182   1      6.1274308460390348       2.023393115511845      14.151156281212714
   183   3      5.8722263557354095      2.0433161641885653      12.111552034236686
   184   3      3.9555290721469794      2.0326760983976855      14.343385608511916
   185   3      5.9841416450017197   -0.022401721459253857       14.29058985154605
   186   4      4.3870256441956101    0.083976512804254819      16.043486827639352
   187   2        6.22528951139713      2.0574855435761186      18.227169357492635
   188   3      5.9841731884825871      2.0766989308519657       16.26579393974993
   189   3      3.9471099479996714      2.1295201436465963      18.226258413203986
   190   3      5.8598480641570045    0.041628547556316876      18.230829657487511
   191   4      4.4336138352541719    0.056302588384420281      20.314333382774251
   192   1      6.1378348649414711      2.0218003204613915       22.27036310683356
   193   3      5.8657240159200184      2.0334955477450172      20.214695488438522
   194   3      3.9503529545621086      2.0418929907123382      22.386437920039949
   195   3      5.9201691574893909   -0.016393191852442361       22.26583609552781
   196   4      4.4662454383341643      4.0243537205707556      12.098777232281808
   197   2      6.2442582996580933      6.0994813662144844      14.183113404783516
   198   3      6.0025542988188221      6.1345889872825117      12.212260836363507
   199   3      3.9559751796302676      6.1917307561275967      14.181591303618932
   200   3      5.8745644290601131      4.1256111820821282      14.179167179399107
   201   4      4.4497177430236352      4.0220412041486284      16.113717260463925
   202   1      6.1322537668132195      6.0554603775664546      18.207795368235427
   203   3      5.8815187499150197      6.0872301683600467      16.163908316292702
   204   3      3.9665380142005349      6.0892735053188982      18.372302357735155
   205   3      5.9660834141347889      4.0070131398479063      18.285577499629678
   206   4      4.4651222054404371      4.0299953931646222      20.211395931503674
   207   2      6.2530900303268542      6.0948089742054457      22.276242834519284
   208   3      5.9956896008746758      6.1291188834030992      20.313682618533537
   209   3      3.9453816711428336      6.1950440615106643      22.301783281438706
   210   3      5.8883883330135491      4.1226889830623881      22.270889885489829
   211   4      4.4655587964296881        8.03827077046639      12.087230001431704
   212   1      6.1360563487126925      10.101524409690027      14.157070593906193
   213   3      5.8597911036559172      10.147407283662758      12.109471156415324
   214   3       3.964712132168323      10.143810765795131      14.347755762373898
   215   3      5.9660718432319566       8.065921539812285      14.225085575124968
   216   4      4.4652954670821101      8.0690224112216118      16.147664960377547
   217   2      6.2430929853416446      10.152241845404427      18.228203629667302
   218   3      6.0107805793712439      10.192799040271609      16.260674932721475
   219   3      3.9573746919930342      10.230719978459478      18.243843890990817
   220   3      5.8936699754722079       8.172918269558954      18.224330399632109
   221   4      4.4614636553720288      8.0389240297048179      20.158427578360655
   222   1      6.1393013568348476      10.104380633684258      22.260819165362832
   223   3      5.8645507446318028      10.126444804481807      20.218144424569427
   224   3      3.9950385463628946      10.172018645632175      22.430904783433661
   225   3      5.9523524485824426      8.0599737159382823      22.350751150769735
   226   4      8.3670863099145354    -0.16965322562345814      11.945954570450242
   227   2      10.168457985891743      1.8902510606426954      14.173325259295058
   228   3      10.150860691259695      2.3388718303315259      12.198219350309571
   229   3      8.1478122816555363      2.2639352694547177      14.104899801908941
   230   3      10.000448594258739 -0.00055360099727085835      13.968394591901545
   231   4      8.4135602189632319    -0.10086359866103597      16.199097679142596
   232   1      10.160213812519659       1.975111370040646      18.197412623416557
   233   3      9.9606181064335981      1.8202508015968495       16.15612473731429
   234   3      8.0861750940827015      1.9749091672279568      18.334003798599397
   235   3      10.094585131685953   -0.049085553387696469      18.521164643419002
   236   4      8.4257194043759025    -0.15396541765592908      20.169979641781175
   237   2      10.169661650285361      1.8669834277996371      22.318565579728926
   238   3      10.152786904198685      2.3050616829996278      20.296423268151301
   239   3      8.1573597260663711      2.2337122913617735      22.201238970684432
   240   3      10.066749133757483   -0.013487162136701624      22.014621677348426
   241   4       8.355285794582592      3.8574537518200107      12.267659987393722
   242   1      10.166330814175508       6.043449490724643      14.148340737926937
   243   3      9.9716579883240577      5.8701165145349732        12.1026416763287
   244   3      8.1077900698351737      6.0112117162524141      14.291142082764768
   245   3       10.15329831551569      4.0302628766123556      14.477204073997671
   246   4      8.3754688012834784      3.8441897121967363      15.998067743856783
   247   2      10.148035143864162      5.9009034983443023      18.243091876366655
   248   3      10.155038251760395      6.3789888082420845      16.249584110851252
   249   3      8.1525708459213035       6.293321567060346      18.153713695395371
   250   3      10.057439938301078      4.0282428478983956       17.98770755732286
   251   4      8.3909174658665684      3.8344536557466729      20.379740926062333
   252   1      10.167880936177651      6.0463822068824307      22.249384463128766
   253   3      9.9800941758234831      5.8826401265189192      20.207041037604043
   254   3       8.111577694346467      6.0216518263266039      22.396157393258562
   255   3      10.138051126095442       4.027256736916951      22.566592823595482
   256   4      8.3760294800953741      7.8811031710840496      11.948282983741453
   257   2      10.153419120049683      9.9584433268022501      14.188936949580002
   258   3      10.160698033876852      10.439893006546109      12.195778731694986
   259   3      8.1506860612895817      10.357100564878412      14.088916678399489
   260   3      10.047460959781551      8.0874738658439203      13.930310412326136
   261   4      8.3802391111856522      7.8973868432137904      16.334164629681052
   262   1      10.161587571872515      10.105227941202468      18.197842086497797
   263   3      9.9563559119925866      9.9388030287179525      16.154109684419105
   264   3       8.105654679338377      10.087594408568489      18.360869825463364
   265   3      10.130037801058135      8.0918437302837152      18.511409132707072
   266   4      8.3734028774465994      7.8929805704361788      20.039352858700557
   267   2      10.142835564311245      9.9712782512392568      22.290514638970574
   268   3      10.157527935892602      10.440647046852636      20.300310720790321
   269   3      8.1459504819622754      10.355424327797635      22.179455948208073
   270   3      10.052000650293241       8.097573387378004      22.045804818579388
   271   4     0.16479747495811412       11.90381351315999    -0.14180853483095271
   272   2      2.0548469882071267      14.094151941205705      1.9658597425594315
   273   3      2.0305419091545818      14.293066689635703    0.097044430455769354
   274   3    0.032161695333664544       14.41393661469295      2.1100485001531286
   275   3      1.8591430989059763      12.229083833089508      2.1050048726449324
   276   4    0.084861972453265683      11.860248906307714      3.8496296656564044
   277   2      2.0474841151734458      14.089519004467292       6.041926982673079
   278   3      1.8650983107520387      14.248757062439644      4.1353367853446548
   279   3    0.023960009529458436      14.239195348439521      6.2875349662507993
   280   3      2.0175826848734153      12.207356101359915      6.2498601464532033
   281   4    -0.11382457372881825      11.971179282068135      7.9660898899785133
   282   2      2.0481820438319964      14.075014035630064       10.06408006679985
   283   3      2.0558843402084981      14.359608521234765      8.1476529533581559
   284   3    0.049800581501021714      14.365760032288886      10.121991228934215
   285   3      1.9119676474928444      12.182719316550562      10.158928419221233
   286   4     0.12247390897045367      16.092429836583818    -0.26978073812864212
   287   2      2.0493798274739365      18.168679757438799      1.9905106691762644
   288   3       1.855729664472098      18.302184710767087     0.11671249156071566
   289   3    0.004332629340914539      18.290716231031372      2.3065741392309671
   290   3      2.0405269201971903      16.278290874756102      2.2285465948149956
   291   4   -0.041423862149433076      15.994952623450184       3.956793675899779
   292   2       2.073786867246783      18.151015651382249      6.0608315497155001
   293   3      2.0058542077266708      18.441453111117106      4.1529253208363821
   294   3  -0.0089366649337380855      18.492936206025622      6.0980633065465586
   295   3      1.8859966688382208      16.278982203634943      6.0965633921528584
   296   4    -0.16728268691099202      15.882998433988034      8.1283327100073972
   297   2      2.0376873267418629      18.144802828325009      10.069378263176093
   298   3      1.8172729766636289      18.307816103053355      8.1529623686589421
   299   3    0.013493653505988079      18.335637593240026      10.306827099357866
   300   3      1.9942254876464667      16.267662008353192      10.269306801758999
   301   4     0.06619797271688338      20.064100991284864    -0.26107767625391304
   302   2      2.0814001791347252       22.23306315779088      1.9465692050582577
   303   3      2.0058964990734043      22.473244076443404    0.058712791318111669
   304   3  -0.0056558662859494211      22.551379200994973      2.0739698111579483
   305   3      1.8471896440359814      20.341566341684455       2.103727166765438
   306   4  -0.0019867233621149016      20.037837935432091      3.9864246685152449
   307   2      2.0454057423775773      22.213853578919611      6.0157132185920865
   308   3      1.8404125897198209      22.358643281736462      4.1131986778636245
   309   3  -0.0050412102969342324      22.370755427288618      6.3040843103437796
   310   3      1.9775086149990697      20.336258044203849      6.2459559726493961
   311   4   -0.048819305432924349       20.04915308538629      7.9906695847205267
   312   2      2.0671994533868721       22.20900112929159      10.067936525230035
   313   3      1.9980683459718604      22.489874072834994      8.1641886416607345
   314   3   -0.001492025010690464      22.544500056871858      10.167247628911303
   315   3       1.916361118830548      20.331292194469583       10.14025356254195
   316   4      4.2212912811893872      11.866178736648131    -0.12101769350448552
   317   2      6.1124887400160102       14.17482790310372      1.9530501676315712
   318   3      5.8803899157948774      14.171230997009985    0.065611414066916382
   319   3      3.9820290288888978       14.20491587085829      2.2672704481602999
   320   3      6.0866995534501083      12.270773129668324      2.1963980399164238
   321   4      4.1811033933788684      11.832411440952949      3.8972563564761367
   322   2       6.150497415471694      14.099118707747582      6.0775590481981077
   323   3      6.0259837326238292      14.393096649446989      4.1055402863580612
   324   3      3.9625538763514787      14.374661556576925      6.0413219473760709
   325   3      5.9054758567914245      12.218326675237796      6.0813529404180651
   326   4      4.4210112359000604      12.009727770012365      8.1121038236376339
   327   1      6.1384199045811298      14.142900972334086      10.107004437299475
   328   3       5.835010285060215      14.224891604689308      8.0519020049122574
   329   3      3.9529150790462859       14.28705717191923      10.236603433285469
   330   3      5.9257135899882218      12.115920790118389      10.162018172190388
   331   4      4.1213986927300423      16.368992378951777    -0.43754887732083131
   332   2      6.1769251953620588      18.260432685783861      1.9665323978538798
   333   3      6.0408345304739735      18.327213912439362    0.068106740829644047
   334   3      3.9534007002039004      18.397107957402621       2.062184383544257
   335   3      5.8314027480453152      16.261128331374259      2.0952473261631797
   336   4      4.2352654134014518      16.082333381556346      3.9498413617589478
   337   2      6.1183885520151264      18.206804245866866      6.0656764364075544
   338   3       5.832388393917463      18.224234544472527      4.1295075728580128
   339   3      3.9652963024448939      18.267946602671621      6.2498513855496398
   340   3       5.988767743209892      16.287991604976181      6.1970601110115977
   341   4      4.3095694753899885      15.996450785129319      8.2115063594229358
   342   2      6.2031242345557178      18.251813173322311      10.166200755706946
   343   3      6.0124426142659546      18.367779201527849      8.1190726485016231
   344   3      3.9439577439487681      18.351385677501629      10.067272278326453
   345   3      5.8875049082120752      16.297502390851612      10.095823751179758
   346   4      4.2179716972654413      20.019679173967912    -0.29068297263136295
   347   1      6.1110766034554098      22.250707734633494      1.9922243346714397
   348   3      5.9217698367672691      22.372752392873881   -0.050858606384537125
   349   3      3.9532031077038639      22.266059010461348      2.1954630992421906
   350   3      6.0323021374318886      20.197896177530019      2.2167951769168761
   351   4      4.3572769748652389      20.335510763276787       3.894171509739738
   352   2       6.204946263860001      22.316525982267397      6.0848328288472464
   353   3       5.974937799651034      22.331823601059618      4.1246735775072967
   354   3      3.9387130401053714      22.391542124472689      6.0738411509949364
   355   3      5.8522014137574265      20.284294364432007       6.094486416149751
   356   4      4.3920915358585244      20.299564858080064      8.1716542070530167
   357   1      6.1231553220794277       22.27843473867026      10.119414041179649
   358   3      5.8436851755967876      22.277509654225277      8.0740694868718403
   359   3      3.9443687040656772        22.3547828273351      10.268115656503319
   360   3      5.9027354465670392      20.239182013250744      10.162805796792394
   361   4      8.3230564097933435      11.917776587318022    -0.18960060176383151
   362   2      10.225957263735468      14.084382862100583      2.0555750714327927
   363   3      10.114605907778488      14.533260945863866    0.089207226846438364
   364   3      8.0087159922274118      14.409223169897373      1.9606107700939952
   365   3      9.9666663463120262      12.208759102145912      1.8113557772400961
   366   4       8.297577323835549      11.889738547790051      4.0426569976970015
   367   1      10.124267151855687      14.166666101111252      6.0327758057118581
   368   3      9.8704277554955286      14.034862416689277      3.9936806634057409
   369   3      8.0220680234053692      14.204128236313281      6.2263791928304286
   370   3      10.131629309472302      12.158527914115894      6.3808875515379295
   371   4      8.3612796388524497      11.936291717121708       7.873391567610879
   372   2      10.125868913273443      14.015947638699322      10.123873513054548
   373   3      10.151787629667187      14.507537063242754      8.1356369377612427
   374   3      8.1478756094363067       14.39040385096235      10.041339835065989
   375   3       10.06645256663697      12.146085575387128      9.8638077904295294
   376   4      8.3932734555220065      16.113264554565035   -0.099532010365782006
   377   1      10.139805227784292      18.191885246294344      2.0040196607838676
   378   3      9.9361720391878698      18.062500419602852   -0.036305606535022246
   379   3      8.0362253212789945      18.159573146872116      2.1987812469805759
   380   3      10.123648288583334      16.189077087555866      2.3542270258368596
   381   4      8.4171086531399002      16.079721251938846      3.9621733447085083
   382   2      10.268749503213598      18.157987679959671      6.1149608191146392
   383   3      10.114956753154901      18.544803388459677      4.1421161103509885
   384   3      8.0084386521684685      18.389817105047804      6.0170369801719525
   385   3      9.9878245078693073      16.264446291234197      5.8579866890352283
   386   4      8.3611672343990566      16.001513775051247      8.1564582913347969
   387   1      10.145844876911289      18.202720152366343      10.105200105601796
   388   3       9.881597632302789      18.057916967707889      8.0503264090879565
   389   3      8.0678228530381269      18.243330545528469      10.253971041997364
   390   3      10.126994283079322      16.202394924188216      10.432905652680066
   391   4       8.364015730426388      20.033498488138793    -0.21067416912715795
   392   2      10.183220090354606      22.151945781346999      2.0227267394669037
   393   3      10.148745539016458      22.573190352600324     0.05068549191448319
   394   3       8.139142396068916      22.516431559253142      1.9632564957719707
   395   3      9.9697423572622608      20.250304212888025      1.8657592360954165
   396   4      8.4054761974870065      20.161741625533182      3.9757633030804178
   397   1      10.139864301377505        22.2250035631827      6.0536915757435299
   398   3      9.9438761454313163       22.06992819924157      4.0125443344119098
   399   3      8.0679842386199674      22.224527593014887      6.2070990309300758
   400   3      10.099525093677483      20.208768669304412        6.39620453764506
   401   4      8.4277011515076161      20.127871358890324      8.0261648125970932
   402   2      10.154693141698463      22.142113490469118      10.171601534392224
   403   3      10.148720095413463      22.578698296414476      8.1463272281985226
   404   3       8.151144409819306      22.493360720603473       10.04946155510248
   405   3      10.078268775392258      20.261053168758004      9.8536316794777612
   406   4    -0.17814986675445713      12.037529862975024      11.902471255508695
   407   2      2.0454778873211157      14.075872960635706      14.078742555795367
   408   3      1.8666445289307498      14.214368636212654      12.183244463539788
   409   3    0.043379321789769873      14.144132218632324      14.413175721506978
   410   3      2.0222349686853422      12.181133897529548      14.344109305968031
   411   4   -0.051521762677228737      12.040027521352211      15.944475188256803
   412   2      2.0824510054796979      14.078370572629119      18.109516638784054
   413   3      2.0746400148120201      14.309560424394819       16.23567380778438
   414   3    0.034979689746848168      14.404831655624745      18.286068113401328
   415   3      1.8941791537810619      12.191504184230126      18.278523917957759
   416   4    0.064102353717050142      11.882925472749934      20.182662942103288
   417   2      2.0600762469905396       14.17663272607237      22.165372095041764
   418   3      1.8676301601832779       14.24896383442524      20.284344317646372
   419   3       0.014737860586947      14.226367687092468       22.51456465562207
   420   3      2.0148642835539725      12.234536572020739      22.423494474948217
   421   4    -0.18242570316390125      15.963879157514139      11.943071779286557
   422   2      2.0416306793356007      18.113476072420887      14.085251668181019
   423   3      2.0595571598734814      18.408719150017909      12.184940595655549
   424   3    0.052741907622539851      18.444751979031732      14.144129351188949
   425   3      1.8843424338793617      16.225777332821462      14.217849288583244
   426   4    -0.14548843350698373      16.075237610294653      15.940526188458319
   427   2      2.0672880931479898      18.139737729024681       18.18074520888787
   428   3      1.8350394156336063       18.29931670628638      16.235600633346191
   429   3   0.0027745675150966484      18.263790102988555      18.445571217089931
   430   3      2.0222411778760754      16.253421291454419      18.358779140596663
   431   4    0.024294608015915632      16.060675605548969      20.029390729686686
   432   1      2.0046313550513069      18.196386605821889      22.235089714577082
   433   3      2.0493285396370058      18.467913108884719      20.195836869053714
   434   3   -0.041363963206473314      18.447313727102827      22.305340225154286
   435   3      1.9248658080825702      16.175706354015308      22.432444125054445
   436   4    -0.14099339743555828      19.946340901697837      12.151774144658248
   437   2      2.0510516727316763      22.217193837258684      14.093293773583392
   438   3      1.8672213085899225      22.367003967560709      12.199003247229886
   439   3    0.017553556092006217      22.363641259083852      14.370522427816599
   440   3       2.033600348958378      20.331019657139166      14.315747768263016
   441   4   -0.071487401280805607      19.991644935716756      15.957029760649691
   442   2      2.0867060304769116      22.206010980643921      18.124093816134426
   443   3      1.9881797836223289      22.489679477653322      16.243520914838619
   444   3  -0.0052285483633129235      22.531476074443276      18.253932842353947
   445   3      1.8316537127742407      20.342056780364548       18.20544378649263
   446   4     0.13907625798650292      19.932389086239422      20.180150141414106
   447   2      2.0567998262526657      22.231421753835797      22.169002889999891
   448   3        1.83195008149779      22.336096324840998      20.280639391899722
   449   3  0.00055647026781995544      22.342804152640198      22.506394947418961
   450   3      1.9955549546133202      20.354404482992798      22.438620949045148
   451   4      4.4602460516973039      12.099917899201534      12.113171333800143
   452   2       6.242388803498609      14.194858727765215      14.173897720308663
   453   3      5.9877425051281117      14.240036614528677      12.196375014505856
   454   3      3.9448094565610905      14.304494156947626      14.144786664786411
   455   3      5.8751848856635034      12.224716546472845       14.15674388747181
   456   4      4.4401308648810014      12.054391741392397      16.096257835993868
   457   1      6.1165495030829424      14.134168488279125      18.188123828631181
   458   3      5.8479126723824617      14.181654370486578      16.145749256623059
   459   3      3.9475467346454267       14.23782512292955      18.416747174137502
   460   3      5.9522104666644724      12.110873224097771      18.296122211277169
   461   4      4.3823098103589908      12.000575174837158      20.185411841843166
   462   2      6.1860299757102757      14.183705003912465      22.214401082353884
   463   3      6.0314775237299738      14.313490370710619      20.297736878299595
   464   3      3.9768969507401808      14.312935749340376      22.298667796710109
   465   3      5.8707030952397581      12.250821663122819      22.254120960518314
   466   4       4.416123713878954       16.06005928298174      12.064060038947714
   467   1      6.1273977714149357      18.201177980151499      14.157326425858363
   468   3      5.8494651457362359      18.270799577796311      12.106211773613772
   469   3      3.9445257743941045      18.281442457068319      14.361573302170578
   470   3      5.9495796191795254      16.165196300287086      14.223392141741007
   471   4      4.3813987771187071      16.082744688448784      16.063304389369915
   472   2      6.1937447052548853      18.177903474885444      18.201878088898688
   473   3       6.018893563326956      18.372880454043113      16.256651916900413
   474   3      3.9698978185442817      18.414468483293621      18.157080329646259
   475   3      5.8659022465508714      16.274000032045709      18.184912855645614
   476   4      4.3510662435886287      16.076872156934499      20.111129707266787
   477   1      6.1342232963250964      18.193159383936546       22.22113493685605
   478   3      5.8408487109378751      18.245121517870729      20.175216483209802
   479   3      4.0180255109790934      18.316168601049966      22.422557598412848
   480   3      5.9638401608889078        16.1636052126909      22.397748511273832
   481   4      4.3838260014432722      20.176807717732341      12.091349221027981
   482   2      6.1937164443972215      22.311371808407589      14.130973535118148
   483   3      6.0035032383928266      22.384039059000784      12.210537731595476
   484   3      3.9486589698441601      22.443664585610446       14.20295506890416
   485   3      5.8435900488154848       20.35476943407388      14.166741614641852
   486   4      4.2855945999753695       20.03562089673613      15.986238398496557
   487   2      6.1071531276616087      22.218296809161192      18.223452019035971
   488   3      5.8695683505167562      22.319734302922051      16.252076261969307
   489   3      3.9694604032301721      22.301003465891313      18.341716830488458
   490   3      6.0440407163982695       20.31329945208693      18.290769057872232
   491   4      4.1369915741580412      19.847587372925059      20.426174737221377
   492   2      6.2015187779767755      22.277870346290314      22.322746285710501
   493   3       6.033357912679989      22.429836871130107      20.236258766062758
   494   3      3.9467170276112475      22.397871349409918      22.235970562391305
   495   3      5.8857201095188003      20.348084733397872      22.244755701522038
   496   4      8.3872126047848585      11.951915388435042      12.285680960198903
   497   1      10.167351952278345      14.156585191063559      14.144446210702077
   498   3      9.9818858580911964       13.99178990003584      12.096380053520654
   499   3      8.1037096345878652      14.138692566436072      14.283765773098152
   500   3       10.13003304128579       12.14563107905318      14.458485397323022
   501   4      8.3779717895759056      11.932750831416872      15.994609999809411
   502   2      10.140278936887784      14.025151823037591      18.238269113781474
   503   3      10.159192219233933      14.499523507813448      16.243716214588694
   504   3      8.1396873703046388      14.418569948225873      18.136330457091347
   505   3      10.051176607584772      12.154007046348823      17.990587833128835
   506   4      8.3653894435834832        11.9441436743036      20.375105364036752
   507   1      10.139238481494802      14.156686369333672      22.257171697914995
   508   3      9.9449652597555609      14.023175655897182      20.208963364581102
   509   3      8.0518330383693044       14.15936561626352      22.442389689198205
   510   3      10.116858082790085      12.156246839252786      22.565759054871013
   511   4      8.3793450282652397      15.986362757591841       11.95003071486582
   512   2      10.160919647747795      18.077664376979918       14.18129092140313
   513   3      10.160026293355168      18.564375440401061      12.187655910717009
   514   3      8.1495050606622392      18.455348957755319      14.073858435331141
   515   3      10.061342666265469      16.205232131036301      13.911529243012652
   516   4      8.3872516721874568      16.011649759849202      16.315297774365771
   517   1      10.155116575055512      18.228782803636882       18.18365020743596
   518   3      9.9631719026349987      18.042484282964434      16.143694507998376
   519   3      8.0605206733296395      18.204428671726589      18.344529071727841
   520   3      10.122214643491873      16.215734890108429      18.496947477896239
   521   4      8.3787090879802939      15.997509110041003      20.044560319177819
   522   2      10.173376502749568      18.122928364123496       22.26016623394456
   523   3      10.152237830489842      18.542031090199817      20.293741104983742
   524   3      8.1374307765136091       18.46299220318058      22.205813117589408
   525   3      9.9887609524548271      16.220328688185202      22.112095404801227
   526   4      8.3650968012070486      20.053946162512862      12.295781941180515
   527   1       10.15538644225375      22.250303501077664       14.16274734536378
   528   3      9.9788008119930396      22.080939118383856      12.118202712551373
   529   3      8.0575748869629873      22.227527482023195      14.314161957090739
   530   3       10.13622994787748      20.248980646237808      14.468440788095144
   531   4      8.3703413568121441      20.048603140998928      15.998105240340067
   532   2      10.252672235799082      22.164184175834517      18.235113216711447
   533   3      10.117455334405623      22.605459082497159      16.274030499192907
   534   3      8.0074024846253629      22.445161327434963      18.143732341090203
   535   3        9.99233395860443      20.287927329999498      17.990065778412106
   536   4      8.3444859951025414      20.056525320658768      20.327707353484787
   537   1       10.16609750158597       22.24181255584465      22.233199020669364
   538   3      9.8791725086848476      22.091362956492976      20.181074429181933
   539   3      8.0756627683381481      22.262155855849205      22.367132116958359
   540   3      10.143484533222615      20.245193666514634      22.569369744828379
   541   4      12.232869154136846     -0.3643461942581307   -0.075658163340101836
   542   2      14.164204267195386      2.0344947965139619       1.865661559539292
   543   3      14.234811817744088      1.7347663476537951  -0.0025562835252204196
   544   3        12.2102362098192      2.0056560899212381       2.179004782598073
   545   3      14.148608897411485    0.029722151555387162      2.3639633434338618
   546   4      12.148890841970244   -0.013128845523410171      3.6990944424427998
   547   1      14.153183819992039      1.9848682587686726      6.0530069688427677
   548   3      14.172686113651423      2.3203010603723326      4.0459536842007315
   549   3      12.103936571893408      2.1397507730331262      6.0773719118351455
   550   3      14.374736530578742   -0.065136228504787896      5.8546805690082833
   551   4      12.147733421037136     -0.3253569554596662      8.1080800036203993
   552   2      14.150679740594086      2.0664340261943601      9.9725454788230028
   553   3      14.242066947239234       1.745384800236558      8.0990378598944481
   554   3      12.203766221904583      2.0081122108581226      10.270387366148505
   555   3      14.163012585685006    0.043456588039716568      10.424812678832746
   556   4      12.140228294919284      4.0213182354542791    -0.36113129263845845
   557   1       14.12912026903423      6.0468553155656295      2.0014928874920268
   558   3      14.157556281092976      6.3775921835293783   -0.004399225078724151
   559   3      12.088286094194917      6.2177742763336523       2.025553278824332
   560   3      14.314806622471709      3.9951044018883541      1.8150388943221099
   561   4      12.189375521686092      3.6753362107847489       4.002050968477719
   562   2      14.147405249479194       6.090422836010859      5.9035112445265669
   563   3      14.233551589184737      5.8014317505498925      4.0364595205863392
   564   3      12.200697664398129      6.0701062993533466      6.2111247247612384
   565   3      14.146784940675733      4.0889685155098814      6.3958839723953593
   566   4      12.119196805071807      4.0129584310056661      7.7169815734560272
   567   1      14.130431305643004      6.0537556163259687        10.0986069680926
   568   3      14.166238012026152      6.3700826530073273      8.0854058513478666
   569   3      12.093719575778897      6.2064318808862424      10.129510451760728
   570   3      14.298098933679476      4.0101572594922867      9.9107051223261102
   571   4      12.173602678265413      7.7294951891435906   -0.035718565323080424
   572   2      14.127127114419901      10.153000741380284      1.8681872256755034
   573   3      14.249312090630914      9.8699351089786926  -0.0019094425901020973
   574   3       12.18118905950918      10.160166922071507      2.1458930851129416
   575   3      14.128406389810424      8.1547103800972103      2.3503067993402191
   576   4      12.094738044073789      8.0623666220921493      3.6709203337218752
   577   1      14.121311141179561      10.096263079248784      6.0402970522946617
   578   3      14.146086301767598       10.43947659644288      4.0349003567392216
   579   3       12.08041285523119      10.268656996597185      6.0639941470332248
   580   3      14.316033526033038      8.0489529156698616      5.8612480054826657
   581   4      12.176166283281082      7.7332106160061826      8.0435741995188135
   582   2      14.145304027145952      10.133271655468572      9.9506572632983943
   583   3      14.234378919888186      9.8511683430293466      8.0811452395412768
   584   3      12.197692876318246      10.115149590597383      10.256994071384444
   585   3      14.139052445074142      8.1384763435504137      10.446832666486209
   586   4      15.942702942288502    -0.19826424216500135    -0.20619284086312897
   587   1      18.167171039355264      2.0172563000689721      1.9973389517630027
   588   3      18.366183058754245      2.0640441524337239   -0.033060781350116662
   589   3      16.150167249146993      1.9424035881245703      2.2425064705952367
   590   3      18.448431712121167   -0.036423588767505503      2.0725021709221694
   591   4      15.954056868243482     0.10630041164223443      3.8517602195969092
   592   2      18.087160014169569      2.0596471764437352       6.102210465839633
   593   3      18.415664194586086      2.0220864110196604      4.1348688523420964
   594   3      16.222280561345809      2.1446068000669634       6.051791158533228
   595   3      18.301573584349441     0.03717152143233849      6.1576636614763336
   596   4      15.903016221534321     -0.1283935953724589      8.0300220896860939
   597   1      18.165692952767699      2.0392076272605166      10.121991587848335
   598   3      18.368009354812941      2.0520995440734118      8.0772410753993817
   599   3      16.144392578474704      1.9537707066036423      10.346334779127528
   600   3      18.437269603978951  -0.0085951830998899324      10.129013862375917
   601   4      15.942660152658172      4.1775132017708785    -0.20804747783119426
   602   2      18.057807233071212      6.0738273045407833      2.0476204925860491
   603   3      18.401270545596844      6.0784595658525156    0.075240831293738986
   604   3      16.192322598889014      6.1964090377698184      1.9914529614936005
   605   3      18.299869497376825      4.1028719432540104        2.08494821901379
   606   4      15.927418662638194      3.8482710303499799      3.8456524229477838
   607   1      18.171735837208285      6.0690818872412633      6.0532393462294376
   608   3      18.356397999696533      6.1052483215628479      4.0158033746015898
   609   3      16.146644379220888      5.9918873966263693       6.288899688049022
   610   3      18.417168167740837      4.0135966328226331      6.1153883199936132
   611   4      15.934215225604689      4.1991348361754834      7.8933662405795415
   612   2      18.047585153868916       6.082295818418034      10.160417310740495
   613   3      18.394392184591329      6.0798148456101311      8.1818650916634397
   614   3      16.184467693416924      6.1786980909396414      10.096385875751343
   615   3      18.312783417246369      4.1132824985334349      10.179593243197784
   616   4      15.917403393642871       7.903550024821838    -0.19750358862630396
   617   1      18.167587831983678      10.109572106396216      2.0074581235938544
   618   3      18.342726744974417      10.163190800177306   -0.029011170094194228
   619   3      16.140684146799511      10.045956756441646      2.2560169021456362
   620   3      18.428506184427398      8.0571536888054975      2.0526530736146773
   621   4       15.92852918560461      8.2270799558032799      3.8346017782071855
   622   2      18.055147034115016      10.120388658109636      6.0874892240611524
   623   3      18.426616901824104      10.114271475272997      4.1207443997658428
   624   3      16.191156545638801      10.236110227612425      6.0173336308291629
   625   3      18.307924572051029       8.150726711427696      6.1166616664982447
   626   4         15.924148010922      7.8966708949050242      7.8833725918672002
   627   1      18.156869714459685      10.087119327040085      10.107353078381847
   628   3      18.341491648068203      10.136299293056839      8.0614406071019094
   629   3      16.139735317489837      10.038832823005276      10.344124825838868
   630   3      18.401900180750911      8.0532984187540855      10.168942745161063
   631   4      19.870338580985081   -0.022119923114907257    -0.10320838931068563
   632   2      22.214441944224482      1.9810763305846495       1.940353772723296
   633   3      22.414506268037929       2.066556020549561     0.05139959815891644
   634   3      20.342082833719726      2.1455962884650996      2.0962458748242221
   635   3      22.286859213430233     0.07754556368594856      2.2101873791136741
   636   4      19.941659336341836    0.085005012869473831      3.8840604530454703
   637   2      22.243662864075731      1.9803811250258145       5.991965401149729
   638   3      22.310141218454053       2.205410610230186      4.1083689966427812
   639   3      20.356137468186947      2.0174294415103509      6.1844515327074321
   640   3      22.465132323896224    0.085280511630476369      6.1251480923488923
   641   4       19.87788460747424    0.063100815999719256      8.1781804613815243
   642   2      22.208940342085846      2.0087449925185354      10.058985422254594
   643   3      22.434281921199229      2.0919624958738767      8.1680318397324765
   644   3      20.344280190145017      2.1580874188651449      10.163442431595801
   645   3      22.317150542819483     0.10548734866263515      10.305373369434433
   646   4      19.833770360670464      4.0251959389024252   -0.049381430364780314
   647   2      22.234561926084719      6.0142508717689749       1.941862878315288
   648   3      22.319523610696148      6.2378351045045219    0.049820519790526395
   649   3      20.341199110954374      6.0359023832222105      2.1153382476004201
   650   3      22.453461362514094      4.0957558271879284      2.0588707631062881
   651   4      19.851422087249055      4.0140653442968288      3.9664492666010362
   652   2       22.19942066517379      6.0148530102894258      5.9725439331239363
   653   3      22.385762407343531      6.0654886300473985      4.0968633072534164
   654   3      20.341857972682867      6.1935024080738375       6.133638478901279
   655   3      22.300834411619245      4.1137187744478512      6.2801151547357499
   656   4      19.844353319393676      4.0558208166367056      8.0738186263754663
   657   2      22.224441884429933       6.059335482150761      10.057140806166185
   658   3      22.324517210184883      6.2475867393061195      8.1661116419743163
   659   3      20.346841969840799      6.0686081830799417      10.227967423262271
   660   3      22.461314850238679      4.1313889619154809      10.190195641368136
   661   4      19.824445219324705      8.0425766656935842   -0.042392511870057846
   662   2      22.226824805307029      10.036580581361235       1.935312779628408
   663   3      22.458612734957565      10.161918529733585    0.037104655688379277
   664   3      20.351186684710136      10.278610099069439      2.0416028345383794
   665   3       22.25793026074621      8.1323934186241154      2.1870158846986461
   666   4      19.840916361597408      8.0623461657922455      3.9961930378821591
   667   2      22.240569907398605      10.015193970605317      5.9809703476049201
   668   3      22.267148853604422      10.260563328471003      4.1028522030841623
   669   3      20.364739845978242      10.088905931590604      6.2134843672720494
   670   3      22.462069655289337      8.1199432398715228      6.1197948171342453
   671   4      19.827009315851569      8.0373371093150787      8.0408154892039256
   672   2      22.169052968943358      10.130345580735087      10.040858913594924
   673   3      22.472724773044735      10.101581186975956      8.1370864059562358
   674   3      20.310701509687487      10.168596503409731      10.126540119073768
   675   3      22.340460255867974      8.1406926999168778      10.322436306602601
   676   4      12.176344834274861   -0.049757893655121795      11.788325091431991
   677   1      14.151109816269447      1.9943155993990827      14.148412639734444
   678   3      14.162811506150232      2.3316086533845652      12.138592101795979
   679   3       12.10830887911181      2.1210770723677692      14.189378523041576
   680   3       14.31121380312511   -0.051899519973635566      13.959085176531556
   681   4       12.26020182191848    -0.31827813311294068      16.049904619115935
   682   2      14.165152424460194      2.0350056014074962      18.058096288871944
   683   3      14.226314190378979      1.7495695527930666       16.19175454819062
   684   3      12.204110464574006      1.9947890517688367        18.3732308194271
   685   3      14.149837487872368    0.036277197281151724      18.562070685620302
   686   4      12.191791797376029    0.026806203373406556      19.910142066843729
   687   1      14.149820219696265      1.9950626713879094      22.250708900474088
   688   3      14.148948284538157      2.3300796903034828      20.243218727872279
   689   3      12.109900573555317      2.1382261992248082      22.280185018704632
   690   3      14.308407178907283   -0.057489283390068743      22.083027601411569
   691   4      12.192000299834747      3.6993684187167788      12.091768186042929
   692   2      14.147227889830425      6.0924330143699148      14.010566481897353
   693   3      14.227547757669226      5.7964403935045103       12.14479578699475
   694   3      12.201868488882571      6.0677891365156205       14.32179393126308
   695   3      14.137756316346348      4.0897183089819489      14.501769156835755
   696   4      12.140678902822234      4.0179685875044076      15.846374145504516
   697   1      14.134060812587235      6.0443264069374951      18.206619919981261
   698   3      14.164602079410265      6.3678123580941977      16.197080769352223
   699   3      12.095604506866684      6.2084424442472157      18.228668506255865
   700   3      14.312161156495943      3.9941533194142056      18.017986935293337
   701   4      12.183990868930518       3.679978891241928      20.195920510590618
   702   2      14.149417950034692      6.0940853607435814      22.113497936648397
   703   3       14.23517704983575      5.8030453415895797      20.246919199853359
   704   3      12.202619842408184      6.0674637711743316      22.421178963402358
   705   3      14.143788247767986      4.0914478389232576      22.609688810295406
   706   4      12.113223808184612      8.0642369901710413      11.771669174817882
   707   1      14.130318510449197      10.097183887589853      14.152380846906057
   708   3      14.161945938507323      10.408806262487412      12.139224254847688
   709   3      12.093700010238676       10.25264952840682      14.184638772156214
   710   3      14.319528074134954       8.049246334797763      13.975454572994158
   711   4      12.179721030985602      7.7258164923766071      16.161505894712597
   712   2      14.142197403400147      10.139586254126064      18.066947624200985
   713   3      14.239937733507862      9.8607123718750493      16.199065585978406
   714   3      12.197552003337606      10.127127803166262       18.36777630320362
   715   3        14.1392266749932      8.1463257980974504      18.557273728402564
   716   4      12.107676926382311      8.0562001820696434      19.879854626823121
   717   1       14.12450162823836      10.101499971559502      22.258112283224744
   718   3      14.151880488421018      10.433002962800812      20.251809006229337
   719   3      12.087653711306402      10.276485028165276        22.3007187486233
   720   3       14.31927554131695      8.0534711223653801      22.071324055113227
   721   4      15.936747735806721     0.09612316319903931      11.947779185492994
   722   2      18.064220592125501      2.0359118738991793      14.209379171609791
   723   3      18.412848000139739      2.0544704093311141      12.230740143258286
   724   3      16.199684743997405       2.158015267324636      14.135250583458545
   725   3      18.317555408661214    0.075968668053236835      14.221255278203223
   726   4      15.962883642221881     -0.2499787435524928      15.991558605401435
   727   1      18.181151488251142      2.0176049850482771      18.211098040192326
   728   3        18.3579103874747      2.0692218657365533      16.173407677271125
   729   3      16.150372584229128      1.9403983585518481      18.452690882207804
   730   3      18.428658629246961    -0.03202616209078675      18.272090418867769
   731   4      16.002050947145783    0.072728529610448775      19.988271085029687
   732   2       18.06402048692366      2.0294325968374065      22.291526662415524
   733   3      18.408032836486516       2.038892096224667      20.329218044973377
   734   3      16.199393900978365      2.1469291708955027      22.248792866473106
   735   3      18.309035177536202    0.059392147522358447      22.342578127783725
   736   4       15.94442559753152       3.846903044093708      11.964890604644154
   737   1      18.168398995601045      6.0725711443136428      14.167074239956014
   738   3      18.349609125085575      6.1025420949266831      12.127775227966437
   739   3      16.143401034304013      5.9901319099801738      14.399731532766717
   740   3      18.421991522367232      4.0235443601885121       14.21705655609717
   741   4      15.937252370922725      4.1828759234767068      15.992602215741028
   742   2      18.055982340677673      6.0815412790639103      18.258879737725579
   743   3      18.405301290086925      6.0873671299535062      16.287576474673298
   744   3      16.191861732131496      6.1905997898416212      18.199323258745636
   745   3      18.307906839292183      4.1131792845293127      18.286441342103814
   746   4      15.927757262250417      3.8367382712126044      20.054304886311559
   747   1      18.166162887681299      6.0670979480369231      22.260158220999912
   748   3      18.352699986211029      6.1127038124284017      20.226166403351883
   749   3      16.142998330554899      5.9923512387554423      22.502960609323075
   750   3      18.425120338010121      4.0147679191746395      22.306500312066479
   751   4      15.921257543316161      8.2374353309813646      11.949924602886149
   752   2      18.050999196818847      10.120268440653431      14.212538642719549
   753   3      18.414933433067251      10.130945747022606      12.236356753773544
   754   3      16.189960015448598       10.23624396301345      14.142071465782761
   755   3      18.302267649137239         8.1545757386336      14.238501786883671
   756   4        15.9233280307106      7.8959560282882268      15.997656654142661
   757   1      18.169052236209513      10.114190053347416      18.218291316383258
   758   3       18.35439412952385      10.150628411338397      16.178968156308898
   759   3      16.143214354822657      10.050047823362041      18.465040137672972
   760   3      18.420557013010264      8.0631407130595765       18.26863417684126
   761   4      15.929857795704882      8.2230397968215048      20.050337983324493
   762   2      18.055672065986446        10.1287924235801       22.30295843992176
   763   3      18.416737291705132      10.130942679990845      20.335048416714756
   764   3      16.191379974074717      10.256420340239391      22.239380410195061
   765   3      18.297720558822203      8.1600982393391952      22.336249122814081
   766   4      19.841473342352881    0.016761303348714781      12.101406621375171
   767   2      22.235293005271533       1.984444155484598      14.106636316329253
   768   3      22.324546649904292      2.2337688889271727      12.215281040334213
   769   3      20.357569455936822      2.0454326711225068      14.274804158449449
   770   3      22.458876611283628    0.088618918034441482      14.207732885274346
   771   4      19.840207623705972   -0.044047760521908862      16.174160485910825
   772   2      22.198897051460953       1.963490625807135      18.144989395058392
   773   3      22.432998977956135      2.0904615380780114      16.251815561551826
   774   3      20.343673426732231      2.1664587337703121      18.257773610744295
   775   3       22.30686771183527    0.071736134865375084      18.382725091078793
   776   4      19.848295150761114   -0.054971960938444246      20.183412091105264
   777   2      22.243074358680232      1.9616495686661757      22.192681427809056
   778   3      22.320337919857419      2.2008455442248449      20.302644997667265
   779   3      20.360577468696416      2.0172215338977662      22.386611989459798
   780   3      22.457884103420575    0.063446654859841106      22.325507794958845
   781   4       19.83004926541355      4.0229476087644649      12.118004448193362
   782   2      22.193931828162132         6.0456751374483      14.112296621280544
   783   3         22.432677133479      6.1169886955304937      12.220552679010565
   784   3      20.339475567816827      6.2095089686772127      14.222596774654544
   785   3      22.315575316101754      4.1365922392486656      14.363147019995242
   786   4      19.834967273277389      4.0340131433288784      16.167239497371451
   787   2      22.239688878211144       6.014372419621127      18.159202728465679
   788   3      22.323970612261657      6.2473457513586244      16.270050407734065
   789   3      20.360332095120473      6.0717470697097378      18.340424043436776
   790   3      22.461650536798309      4.1109440055801967      18.282480933437039
   791   4      19.835840354514954      4.0000616563229228      20.199843223861709
   792   2      22.200723782906113      6.0169214639722206      22.214093561225958
   793   3      22.440649034916376      6.1173920183150914      20.317672325949484
   794   3      20.345153635594137      6.2091758438001081       22.31345384851782
   795   3      22.308990375067239      4.1140797746948472      22.450089560959967
   796   4      19.830979652284491      8.0876673035949445      12.110858865671531
   797   2      22.233354754321198      10.097627029867903      14.119943886159058
   798   3      22.323222472144231      10.236333025564242      12.214958667088636
   799   3       20.35897264498022      10.086730910917819      14.285530709799399
   800   3      22.479442501927689      8.1569791615623597      14.248341543581883
   801   4      19.828701241697058      8.0564204271124726       16.16669056256772
   802   2      22.199978837951029      10.059388172891955      18.177458696115398
   803   3      22.444517183028076      10.145437698703489      16.280976481423178
   804   3      20.345869028907742       10.23970018378839      18.266605127772891
   805   3      22.321630326183151       8.152773931997082      18.416603855187073
   806   4      19.833170314179817       8.067237302758242      20.220228419279525
   807   2      22.234863413936168      10.035676041882221      22.221055516744705
   808   3      22.310302310073496      10.273507512056016      20.317449789633823
   809   3      20.355556147632466      10.094704832851571      22.392108142631958
   810   3      22.479867740890739      8.1447968554641754      22.324211860198204
   811   4      12.082478374573155       12.12009913655293    -0.36920902885926304
   812   1      14.149383645053371      14.159313914627624      2.0048544887511857
   813   3      14.149129691648438      14.503378883864931   0.0034126619789170923
   814   3      12.115130946630398      14.268439645809513      2.0797973790165503
   815   3      14.337615747467854      12.113276175546847      1.8120343493088034
   816   4      12.157637432179666      11.783280173006265      4.0305135726375472
   817   2       14.13688640313068      14.191512184628877      5.9150395484671758
   818   3      14.271023675164054      13.925754463122296      4.0442350165992016
   819   3      12.187408295049835      14.213545687615747      6.1841418761138618
   820   3      14.125557030857292      12.197271170765481      6.3890623659878401
   821   4      12.093100849807859      12.093115654927555        7.72563531093913
   822   1      14.135293668143701      14.129855500446512      10.087972751427033
   823   3      14.158819485370733      14.465871661586281      8.0813718837933237
   824   3      12.092044270533011      14.337616540638459      10.109386670908302
   825   3      14.304167690939298      12.090112302322879      9.9162885733400845
   826   4      12.210948828233231      15.884911330058655    -0.11475788472692276
   827   2      14.183992322098801      18.244156260389271      1.8768295737779186
   828   3      14.239287738154285       17.94818618240145   0.0099385257020118186
   829   3      12.201284653474062      18.235751047210371      2.2008843392862407
   830   3      14.134103058517384      16.251352555707957      2.3829794253575174
   831   4       12.15374032898435      16.242670077322067      3.7156332046488991
   832   1      14.200805025781033      18.202768766754737       6.065188466621195
   833   3      14.161560311800573      18.555825028426597      4.0640710603941219
   834   3      12.153175662696372      18.305974980008731      6.1502330117511459
   835   3      14.358478021212548      16.159533176386269      5.8643532311359321
   836   4      12.178984600293949      15.819471382989521         8.0712023395151
   837   2      14.137387986124519      18.224602222619662      10.015136754575606
   838   3      14.366131249393243       18.00106050341665      8.1074404150649162
   839   3      12.190200727659807      18.213020492454291      10.203967005823793
   840   3      14.193484239557092      16.236426829215706      10.417069269342079
   841   4      12.151344216339139      20.232425520022765    -0.36067603231484219
   842   1       14.18026715601764      22.240345390112974      2.0313915380339869
   843   3      14.184457601136828      22.569240840545962    0.012162064351584283
   844   3      12.120679719682359      22.340827507475154      2.0705007440568246
   845   3      14.283496303474717      20.197112694574979      1.8128008094198784
   846   4      12.259671400160322      19.951226792463604      3.9127346882770149
   847   2       14.08102505757167      22.296167733935132      5.9606705166845364
   848   3       14.27900954074982        21.9822956011085      4.0945168708547284
   849   3      12.184353749636958      22.276077614122794      6.1820566102896892
   850   3      14.192550388718214      20.324763650414646      6.4615450892805706
   851   4      12.227772741348046      20.231756027451791      7.8746930450731112
   852   1      14.172805013573166      22.217702570856073      10.086148262478323
   853   3      14.170591538853534      22.624590387776031      8.0638647586696628
   854   3      12.110745357001178       22.42014269872022      10.095788068281717
   855   3       14.22285606098133      20.197644655156282      9.7820366474874501
   856   4      15.923641004159279      12.251106339087121    -0.18604511271908875
   857   2      18.069375491642138      14.178930638117169      2.0424024524843625
   858   3       18.43952433193963      14.171730292912137    0.076956096436758381
   859   3      16.205742013378131      14.309537598611175      1.9768324490617455
   860   3      18.313154121456979      12.208980797323845      2.0711881614950638
   861   4      15.924278692525011      11.948598551765503      3.8410440580193246
   862   1      18.177613533476396      14.132146112978104      6.0492896186912146
   863   3      18.348042176995499      14.205281955139714      4.0082634826394639
   864   3      16.146148384693689      14.074686020032765      6.2999769459900525
   865   3      18.445108567583027      12.087184318287703      6.1038602994061826
   866   4      15.924954919776122      12.267299691517328      7.8827174870653502
   867   2      18.114823271361288      14.102004637897014      10.108518598218257
   868   3      18.396422756597875      14.152296849132409      8.1407164637317848
   869   3      16.205805323430738      14.249401921269689      10.081304208597798
   870   3      18.305312384485639      12.150413474923397      10.146312719280223
   871   4      15.942973807962808      15.986708422098223    -0.21266263790618661
   872   1      18.190578968538976       18.20089641514982      2.0165373208455541
   873   3      18.348039019017641      18.295749637747846   -0.018054135874239471
   874   3      16.158120631724007      18.149412295980788      2.2763238815146654
   875   3      18.457971645107378      16.156920100799805      2.0521440120714876
   876   4       15.94922705207579      16.265511813278664       3.871291411227253
   877   2      18.149479476000948      18.093801376889061      6.1175365991115367
   878   3      18.451065792189524       18.27715437641848       4.143548522321665
   879   3      16.274504311306142      18.416821174666829      5.9879907586043677
   880   3      18.226444243231573      16.221743280835156       6.093705781081951
   881   4      15.953310757769183      15.958396533516694      7.9172813839534069
   882   1      18.191441125438789      18.192441666975657      10.093369680752852
   883   3      18.256071593444894      18.386969821980294      8.0482060394098855
   884   3      16.166214556862787      18.209232880466153      10.348041795725422
   885   3      18.250073036996945      16.156809084935812      10.269376221598428
   886   4        15.9491548774514      20.368619812671806     -0.1992978862282363
   887   2      18.117746852351345      22.268617804506217       1.986476932427357
   888   3      18.408443597125256      22.279561772381765    0.077683763363198155
   889   3      16.249108823483237      22.396300771901593      2.0106135225968957
   890   3       18.31762666054107      20.332844237270564      2.1645786209936055
   891   4      16.023952635960971      19.981767995737449      3.9273343438185626
   892   2      18.178860453152776      22.245434924000524      6.0686831184710464
   893   3      18.294815108909294      22.408130846479068      4.1174943726890509
   894   3      16.274209455104025      22.233396259777145      6.2381444625365008
   895   3      18.426998825959412      20.341006676654018      6.0870401845829871
   896   4      15.958574661683656       20.10927364453751      8.0293111700847906
   897   2      18.101317923444995      22.256739287991596      10.198817951549149
   898   3      18.434386213672219      22.364942501086752      8.1000108225489651
   899   3      16.236075184660567      22.410436938468305      10.029664212954346
   900   3      18.326145073008256      20.339654044077513      10.080835352195374
   901   4      19.848749952728692      12.090617151453193   -0.018059153480378749
   902   2      22.274227941908528      14.081201314793477      1.9631778283618446
   903   3      22.311669899860551      14.318110123024052    0.077516999798404915
   904   3      20.385183358400987      14.178371697162282      2.1763134484755962
   905   3      22.466614301657014      12.190853809840679      2.0809543205211831
   906   4      19.862363871091759      12.055890803983994      3.9618894074642039
   907   2      22.197485711718699      14.061347330238791      6.0585364058243947
   908   3      22.475636930155805      14.231371909396396      4.1199380812402051
   909   3      20.327976844380629      14.323784761915697       6.067650473602809
   910   3      22.296101650987726       12.16501431020628      6.2576553671634683
   911   4       19.85814549611236      12.038207257059627      8.0647289692587414
   912   1      22.243664601458814      14.093602680340005      10.101353395782693
   913   3      22.262368346188847      14.407110691517609      8.0561154340044681
   914   3      20.240889328283441      14.324173835709034      10.165285252367653
   915   3       22.48455297465577       12.06834239336372      10.142581697751872
   916   4      19.885190754027626      16.098134613529346   -0.082337263894905338
   917   2      22.256267522109795      18.144742082061587       1.964629165676387
   918   3      22.453571172556298      18.285623637565028    0.081308150557312692
   919   3      20.373772626408378      18.408639888364725      2.0861703089346904
   920   3      22.305707832664517      16.261739199441987      2.2175969425288771
   921   4       19.92188925373932       16.06020428304528      3.9564482618878394
   922   2       22.23479128342332      18.152675256342739      6.0732145417073271
   923   3       22.28711648571732      18.443074643686312      4.1446025443018701
   924   3      20.327112660330503      18.284811899438751      6.2170650762624087
   925   3      22.425512454651834      16.274290885636145      6.0549832092635514
   926   4      20.154882698989134      15.794423433960601      8.2028167458351273
   927   2      22.184452258717364      18.153323674688288      10.166157434427813
   928   3      22.461896684988819      18.294291464540091      8.1417688487785593
   929   3      20.301090599156268      18.335461052209148      10.048972170734007
   930   3      22.335798582786282      16.264810102579769      10.249505898896551
   931   4      19.926527299936886       20.12399491018628    -0.11124835994938273
   932   2      22.247799980944464      22.207758421624909      1.9587573474078628
   933   3      22.300811501444336      22.461755954731476    0.070633666859695701
   934   3      20.355327272815867      22.287693154956855      2.2050472932959493
   935   3      22.456715418785002      20.324813012456463      2.0934779705345878
   936   4      20.008512707797955      20.027215180832592      3.8928289743607212
   937   2      22.211746011386886      22.236447131410575      6.0145470114044297
   938   3      22.461911585780189      22.351695771179958      4.1224781603688738
   939   3      20.327510947460667       22.45141933109203      6.0770597614151347
   940   3      22.301551590030464      20.353504221417634      6.2507894524043479
   941   4      19.934924842410773      20.068424964724532      8.2079409809695587
   942   2      22.226203591391091      22.232491578001945      10.058138635978672
   943   3      22.321299768153981       22.51566150973095      8.1554811945935679
   944   3      20.345929557070079      22.330066006459695      10.188623832859307
   945   3      22.408598798628162      20.345219530138031      10.069663965237167
   946   4      12.186421186840505      11.779799881474025      12.097852797039812
   947   2      14.160829807797485      14.203988310021524      13.992478891121825
   948   3      14.222471659396257      13.897470272384256       12.12886983319884
   949   3      12.206628335613116      14.179049847527228      14.310111567374999
   950   3      14.133267392447937      12.190616382222291       14.49306003715974
   951   4      12.124914868494962      12.124241201305512      15.816077352555617
   952   1      14.133916518013802      14.150850319639151      18.205072388677866
   953   3      14.176856669708462      14.455100422209034      16.194751205485947
   954   3      12.089729981483616      14.321397075083137      18.233007119944883
   955   3      14.314330383717929      12.103508725859868      18.033625649705499
   956   4      12.174508485918016      11.787348626252717      20.201863140452048
   957   2      14.148637345658086      14.182058829534073      22.119988484858073
   958   3      14.228525574939905      13.922694268010071       20.25095724571494
   959   3      12.188349660851447       14.20126775028613      22.429890221366637
   960   3      14.125230821359748      12.205273251318559      22.618988116558324
   961   4      12.116354081276564      16.121396233748328      11.768151079990206
   962   1      14.170402463961356       18.17337534040999      14.110063669416419
   963   3      14.155935616634745      18.566416148889335      12.106159877571095
   964   3       12.11129968169845      18.378864011962886      14.162607103662214
   965   3       14.32758065056764      16.141928365871181      13.984141809792119
   966   4      12.199868505314665      15.825134740704121      16.145128290630723
   967   2       14.17685606401978       18.25890793709598      18.028359138279608
   968   3      14.245073994027225      17.966727987032808      16.169206564350745
   969   3      12.210836579754876      18.242980644542286      18.360348854993003
   970   3      14.136317567896569      16.251246249620504      18.543918657207382
   971   4      12.126220100403009      16.181771456072109      19.848029816749744
   972   1      14.152448550333935       18.20192839387559      22.262203397848033
   973   3      14.190371934935941      18.501934000280997      20.254702358687176
   974   3      12.110220143983256      18.327842187567981      22.309067521338012
   975   3      14.314502660872854      16.153803632813599      22.093187524219037
   976   4      12.196401177755599      19.905331641370832      12.122046033977099
   977   2      14.181270105124081      22.259482995322344      13.994359217517768
   978   3      14.237383548243898      22.050308910966216      12.124101969358621
   979   3      12.208092725448793      22.278156363681425       14.31083674407129
   980   3      14.165954828721143       20.29284494721071       14.46682192735277
   981   4      12.166853325715664      20.213809638124651      15.808937364053111
   982   1      14.179847755823287      22.235373524332985      18.173635293173099
   983   3      14.145790235087402      22.619781672502675       16.18442494363606
   984   3      12.134531373758088       22.33749174956057      18.274771718341697
   985   3      14.305085197367951      20.194389959349895      18.074624856427029
   986   4      12.253935518623656       19.88472940658891      20.153283571969467
   987   2      14.176479387109755      22.286686150995056      22.106606733487393
   988   3      14.249872998006063       22.00253058103311       20.24497995981347
   989   3      12.214577505865542      22.268933097580184      22.424671832363526
   990   3      14.144303010969724      20.289267746111882      22.619619188408532
   991   4      15.920793347164109      11.943536141936347      11.937981422091461
   992   1      18.170817496042588      14.118895140803867      14.162270679734887
   993   3      18.344897218753466       14.10539790842143      12.122118640999377
   994   3       16.14807586665362      14.068591561343009      14.390841650199711
   995   3      18.444992223937444      12.087877205993641      14.218039058816176
   996   4      15.900463768597922      12.279915560784788      16.002934073081981
   997   2      18.055330273257571      14.164971817236513      18.266323504301869
   998   3      18.430398484034317       14.17123713019452      16.291774010459015
   999   3      16.197658767708127      14.286630803539365      18.203837146041273
  1000   3      18.319508520561065      12.204977491757724      18.296894418019757
  1001   4      15.923147060306482       11.93921966721105      20.041636194972487
  1002   1      18.176060830453753      14.150697838739312      22.266976714312136
  1003   3      18.371648983142158      14.213617172600994      20.227756707892226
  1004   3      16.143999737578195      14.097567527641077      22.511809403128336
  1005   3      18.444622780442046      12.107900687375793      22.304929055096533
  1006   4      16.123474725352214      16.208638113206739      11.789720620417198
  1007   2      18.199120409653741      18.088268465147433      14.165340977953303
  1008   3      18.308905532557663      18.347628431247422      12.182886013436837
  1009   3      16.243510029755651       18.40968416291123      14.108843474854856
  1010   3      18.231411924296442      16.176027565975023      14.205991318013231
  1011   4      15.937184292655145       15.99095181690862      15.968379669284204
  1012   1      18.190854693517831      18.198448029451093      18.205884961053151
  1013   3      18.301104068736972      18.220307944391717      16.167589627798183
  1014   3      16.158022482417568      18.136429835373175       18.43957867561204
  1015   3      18.459401115995991      16.142680529963862      18.247675430749069
  1016   4      15.899436315888391      16.343885507566814       20.06068712517936
  1017   2      18.072824755960937      18.220238352748535      22.310523650393506
  1018   3      18.428860598329479      18.216385374537143      20.337182539204349
  1019   3      16.209398330782115      18.344139404840242       22.25673814482121
  1020   3      18.319619007041322      16.255535959183007      22.349176545414238
  1021   4      16.122782666580477      19.897008083501415      12.072930132643119
  1022   1      18.208117111842117      22.285214243406724      14.151993883145758
  1023   3      18.308929879785637      22.366951900370999      12.105544604145129
  1024   3      16.166642018757468       22.21344810448765      14.386788214440386
  1025   3      18.317520596706522      20.252353014974524      14.271271503340948
  1026   4      16.168716251855592      20.224923684273826      15.795962065446103
  1027   2      18.091945362413309      22.245614883843889      18.219100128859683
  1028   3      18.406058835281506      22.332650063332622      16.274941760379676
  1029   3      16.221177115239449      22.423617332199822      18.214089177753756
  1030   3      18.292280827064964      20.295861739872475      18.299405881854703
  1031   4      15.959447969974807      20.037471290517885       20.01542746497655
  1032   1      18.191888918098375      22.259058593707987      22.243949312211399
  1033   3      18.379835531463772      22.312687304501825      20.212758495233441
  1034   3      16.161650756755321      22.187191124398321      22.507505722630444
  1035   3      18.451151104268519      20.210656245895631      22.291344993497439
  1036   4      19.835648782826159       12.10360901589029      12.115677466383861
  1037   2      22.173561846096245      14.192713086972027      14.094139261431673
  1038   3      22.460423397720277      14.121573864940453      12.204206221656623
  1039   3      20.309640890453366      14.228901382186347      14.179557455976544
  1040   3      22.341811728899049      12.167712655069874      14.361354005358157
  1041   4      19.846044060597684      12.116174574136192      16.171263487116619
  1042   2      22.261433751082752      14.079842639277064      18.190705955373581
  1043   3      22.332032589023996      14.281840035895808      16.282090312147496
  1044   3      20.381114508808899       14.16735479258946       18.33226511605713
  1045   3      22.466906666932978      12.182822426878964        18.2914445262935
  1046   4       19.84454712324062      12.086949934630736      20.227028589924704
  1047   2      22.231573239786602      14.072516607633073      22.232984824596873
  1048   3      22.461649558759717      14.239300240972337        20.3232972235296
  1049   3      20.369503569677875      14.335008774455128        22.3131681973883
  1050   3      22.277587835525633      12.191627573143625       22.41524791547339
  1051   4      19.953700721698681      15.932695954995848      11.947320852347703
  1052   1       22.22237929368125      18.173213658383148      14.150541814196369
  1053   3      22.261565170318857      18.464585758761274      12.098388068564946
  1054   3      20.209262471150105      18.334007866079315      14.189470632303118
  1055   3      22.485911123433734      16.126025185253251      14.193903521674969
  1056   4      19.859079914009868      16.113399060603438      16.217614721224248
  1057   2      22.198743369224768      18.148767246595863      18.133180560531219
  1058   3      22.473975741076579      18.218280739652215       16.25777500396023
  1059   3      20.335377121003212      18.318970766214473      18.207806961892185
  1060   3       22.33033129097581      16.241520118126061      18.384508380565812
  1061   4      19.856473571835956       16.14158586015877      20.227561952655531
  1062   2      22.259482938193681      18.135490030859408      22.179934780942197
  1063   3      22.270672154130139      18.375491787707411      20.297312758761951
  1064   3      20.364254362981324      18.239008871605812       22.45362944961332
  1065   3      22.462229299266017      16.253539069519544      22.351020202291664
  1066   4      19.987953972349455      19.994336320916279      12.300281315188384
  1067   2       22.19904166849291      22.219861125311763      14.104818731356055
  1068   3      22.438338111440256      22.344555164349533      12.186004202981648
  1069   3      20.338572585478591       22.40805405280884      14.179191473206831
  1070   3      22.316226841740246      20.347105211338427       14.29749116855575
  1071   4      19.892770290256482      20.094202624007082      16.020698686961854
  1072   2       22.24871538039832      22.169540805166122      18.141652717756521
  1073   3      22.325594244304657      22.462342605328274      16.242204343345186
  1074   3      20.367811335211922      22.281640844797586      18.318414204754774
  1075   3      22.433681010835652      20.287821931473118      18.228226154866245
  1076   4      19.839932135580781      20.186041475979199      20.203623904759457
  1077   2        22.2113947255217      22.205249621028006      22.185867272388318
  1078   3      22.431988124913612      22.332534820319538       20.29108229025849
  1079   3      20.354513565662035      22.428119819360933      22.317491406925267
  1080   3      22.280164177774921      20.319363516848078      22.450091333885979
