(written by ASE)

1080 atoms
4 atom types

0.0      24.299999999999997  xlo xhi
0.0      24.299999999999997  ylo yhi
0.0      24.299999999999997  zlo zhi

Atoms # atomic

     1   4     0.12265031081505053    -0.28851096035226448   -0.014612462200495715
     2   2      2.0521772939336071      1.9088555934326483      1.9348733717414317
     3   3      1.8213733583213358      2.0707994271292653    0.015631908115822258
     4   3    0.045802227040555019      2.0447438819101134      2.2211383834744582
     5   3      2.0143244386421353    0.046809646075915194      2.1118458792977992
     6   4   -0.064483186643355089    -0.10196505285914481      3.6967412807021902
     7   2       2.075538500249869      1.9487565505572022      5.9847496502742512
     8   3      2.0442225996613685      2.1814442152637055      4.0900708452361174
     9   3    0.010347404015623653       2.264757377503102      6.1377697653824681
    10   3      1.8675177285253841    0.059699338313457785      6.1222976190772194
    11   4   0.0077649353212104564    -0.22161499588840053       7.979944178913958
    12   2      2.0518877404640476      1.9598764899214365      10.049969569400462
    13   3      1.8598464760781475      2.0939375736373811       8.158786911764393
    14   3    0.029730279584394555        2.11208728658336      10.381553478870726
    15   3      2.0070996170638837    0.081698698950797649      10.314585989671382
    16   4    -0.11988173325181813      3.7531988377796268   -0.088361579533756923
    17   2      2.0946173909685331      5.9919178533309054      1.9446475324367523
    18   3      1.9939983646636672      6.2755545000140422    0.047156964413797277
    19   3   0.0075114909181292315      6.3337408442778154      2.0725336304423623
    20   3      1.8763799854160039      4.1189552713153184      2.0448053689522236
    21   4   -0.088247973374273245         3.7723942735203      3.8146695340693935
    22   2      2.0490385103115938      5.9961646025589026      5.9725899663012196
    23   3      1.8630897007825951      6.1569735516999033      4.0845765728419332
    24   3     0.02916955007080254       6.141144076902064      6.3076573084555294
    25   3      2.0065544422980968      4.1142350439525943      6.2300340894469111
    26   4   -0.022823591068526869      3.9025071876873998      7.8952745521448069
    27   2      2.0742678385944653      6.0084428894973385      10.037931610374613
    28   3      2.0369692376214847      6.2572024709777283      8.1518521699612609
    29   3    0.049387776623141443      6.3208128027701331      10.185266078214658
    30   3      1.8910630389264733      4.1216274186144659      10.186141536012594
    31   4    0.017425717495189254      7.8976334700002493    -0.14285132320659691
    32   2      2.0678055682238186      10.073805990023965      1.9549191284188585
    33   3      1.8482837106893348      10.192576460329287    0.060032139138929588
    34   3   0.0090390697304948333      10.198804172896912      2.2569076239519443
    35   3      1.9922585915469515      8.1839581227329425      2.1853496335717035
    36   4   0.0017677615451785044      7.9628730993994861      3.8191648278599977
    37   2       2.097308270709092      10.063408493014043      6.0088812520973027
    38   3       2.001646567612462       10.31311190638344      4.1103685424741236
    39   3   0.0026403347148945748      10.352005445121451      6.1335802671359811
    40   3      1.8762359115985854      8.1703515987105533      6.1259347816871959
    41   4  -0.0093729040206789252       7.928554190120229      7.9464924943283384
    42   2      2.0705881730243973      10.079224502700185      10.044059714842176
    43   3      1.8762633797180253      10.182531132604465       8.153205993769209
    44   3    0.056774891609161722      10.098117774596099      10.357172085662548
    45   3        2.06465458826532      8.1717413289980332      10.293941474945276
    46   4      4.3993030064705341    0.073872139886628801    -0.10521305765589195
    47   2      6.2140740137519721      2.0641391705733403       2.034476360764113
    48   3      5.9803431216584491      2.0663141208018749    0.060343880137302339
    49   3       3.955917543249619      2.1492093035166895      1.9725056753791657
    50   3       5.893315758077196    0.056758496759134983      2.0273412100791233
    51   4      4.3920768926725584   -0.014195870120919125      4.0515277754842804
    52   1      6.1166645153687575      2.0100782548286769      6.0642356845206677
    53   3      5.8207376840603784      2.0237564976660178      4.0107000671174111
    54   3      3.9387765020179883      2.0564289746218662      6.2175085214518653
    55   3      5.9002742113385125    -0.02587059943638979      6.1074628989530844
    56   4       4.411742647900442    -0.04608121109449171      8.0609721585083385
    57   2      6.2329642381381918       2.045238525502012      10.124444997204519
    58   3      5.9850136250383805      2.1040369694826415      8.1570884450959689
    59   3      3.9442254114533171      2.1794703641269804      10.139436539327379
    60   3      5.8705719135947634    0.079421472421168843       10.10722960763723
    61   4      4.4415415212740239      3.9996333505310253   -0.065145788048095191
    62   1       6.125734944064158      6.0610091825575916      2.0070452749310146
    63   3      5.8644198955131523      6.0844315068270962   -0.041391055971683063
    64   3      3.9562524566463879       6.123248163678559      2.1479968035410839
    65   3      5.9662950134661452      4.0168688231767682      2.0816250442755346
    66   4      4.4290535787581611      4.0048570247710407      3.9997579128978824
    67   2      6.2317273426123636      6.0969346549896368      6.0680239359496069
    68   3      5.9872403759490762      6.1482059313358075      4.1048325908203829
    69   3      3.9384375414945829      6.2152504599634577      6.0755192279823902
    70   3      5.8616149239772088      4.1276429186406034       6.053453747520245
    71   4      4.4418782500903697      3.9759469855279548      8.0072817627708641
    72   1      6.1240115094035712      6.0520416511676105      10.110516262591464
    73   3      5.8571564333410731      6.0898646007198449      8.0587924665621102
    74   3      3.9640154770138087      6.1363279522058756      10.306353046540645
    75   3       5.957159778923093      4.0216259572466582      10.194744815711548
    76   4      4.4556166888899087      8.0498734948186232   -0.047331947418856844
    77   2      6.2394114113492467      10.153720820250257       2.026879134953123
    78   3      6.0066240358922265      10.205203138721387    0.059721733573682337
    79   3      3.9490258598253587      10.256229950117765      2.0197233377356043
    80   3      5.8881704094678531      8.1816472041894936      2.0183575203477897
    81   4      4.4552505453597284      8.0402371131137222      3.9631060472949513
    82   1      6.1271119991262575      10.103471597172122      6.0459664987777284
    83   3      5.8688203268271213      10.145685760541184      4.0107238437295329
    84   3      3.9610031047256755       10.18250786707762      6.2282038488688318
    85   3      5.9554472787028452        8.06858303031796      6.1391051841388249
    86   4      4.4070894613304086      7.9846173113648362      8.0025385181335444
    87   2      6.1913227517925726      10.160904219443347       10.05697881410156
    88   3      6.0349258755740056      10.242079546101234      8.1471530920035455
    89   3      3.9775839603894361      10.288573731354298      10.156361736654194
    90   3      5.8593160107640472      8.2053563628035455        10.1333050454157
    91   4      8.3827623534921738    -0.15024682192384556    0.052628305488662014
    92   1      10.145979601425376      1.9919343200101642      2.0044547696695116
    93   3      9.9540676140636446      1.8188548204223438   -0.040472223563413824
    94   3      8.0789258030538793      1.9808857603516128      2.1542362298884248
    95   3      10.132449173640708    -0.02049248947812933      2.3506693334662603
    96   4      8.3588707814122802    -0.18952622346298731      3.8921918298864329
    97   2      10.145822220790468      1.8688793079164157      6.0963856146968887
    98   3      10.163580767698946      2.3519094366196276      4.0939316864240007
    99   3      8.1462679014790886      2.2504620868461478      5.9959577116824132
   100   3       10.05604702458149  3.4832699304707845e-05      5.8031624431050606
   101   4      8.3555593744758987    -0.19897884438503216      8.2298150356829716
   102   1      10.154892977427643      1.9981237838898915      10.106621689273464
   103   3      9.9842639953910961      1.8128022162096749      8.0549874427177706
   104   3      8.0966708217867271      1.9728643916827144      10.239885640138588
   105   3      10.134515947364862   -0.015562119274194767      10.421032124491491
   106   4      8.3765813506896727       3.834461431454844    -0.20126559851638373
   107   2      10.152258082679984      5.9059668966491525      2.0348933081468421
   108   3      10.153203557954889      6.3895572225901827    0.045506439518186191
   109   3      8.1487777119409071      6.3001666932967186      1.9498787573100107
   110   3      10.042426174162667      4.0350354167514917      1.7719961579900092
   111   4      8.3741401919808958        3.85706617291325      4.1642714573813064
   112   1      10.154443110408957       6.048142018688007      6.0503331541975083
   113   3      9.9754279867354008      5.8631160915570542       4.003005575673436
   114   3      8.0941805273290264      6.0160106325891807      6.1955992174593915
   115   3       10.13750802548752      4.0366282738533572      6.3734052980720826
   116   4      8.3627946937490272      3.8510652623891186      7.8980245259616506
   117   2      10.132086119079727      5.9150409277724867      10.145846808424968
   118   3      10.143872765347663      6.3909660022797929       8.146837321705716
   119   3       8.136682066421054      6.3072540709375495      10.038003992789074
   120   3      10.037883017067486      4.0441820312971961      9.8761292743061002
   121   4      8.3691861038185529      7.8980714665736782     0.12496750356671002
   122   1      10.163762074539576      10.097034024240704      1.9945716591041434
   123   3      9.9661096204895454      9.9258951637742037   -0.049254925653347978
   124   3       8.104293314088947      10.084644776579525      2.1498792690936082
   125   3      10.133730608840283       8.085656988532623      2.3187665392050385
   126   4      8.3635624597035605      7.8879528715452487      3.8327852384791354
   127   2      10.139975796262446      9.9611882762610424       6.089407479904704
   128   3      10.156600771508723      10.439092023015876       4.096857165700313
   129   3       8.145502375785858      10.360623611868613      5.9912343599051692
   130   3       10.04421626254803      8.0911040669192467      5.8336730323713146
   131   4      8.3621531234157889      7.8949930135894162      8.2210406695248395
   132   1      10.137929271231608      10.104008173750429      10.105117187805503
   133   3      9.9491558269335894      9.9511903069675611      8.0591060393591523
   134   3      8.0537583671109179      10.084738683988679      10.283723104920115
   135   3      10.116821417875061      8.1005754435524242      10.416635279446268
   136   4   -0.001331710941062684    -0.15962240461249649      11.959870195272831
   137   2      2.1020093880292858      1.9622742562038833      14.118094077866367
   138   3      2.0282029332804949      2.2204462018829481      12.226476506802841
   139   3    0.017951856479460425      2.2841804647474326      14.238140924014564
   140   3      1.8791795204364021    0.070639166584777688      14.241643549032567
   141   4    0.018104062139817266    -0.20936235076351722      16.058280247384719
   142   2      2.0448808332579382      1.9479940703523475      18.162936729718904
   143   3      1.8338191534709622      2.0815616944630486      16.262492850888194
   144   3    0.015696456197604458      2.1059715070186744       18.46097408384971
   145   3      1.9692198661074229    0.050435013322186681       18.40248975397337
   146   4    0.028392426563660748    -0.22824588225085654      20.119319142147056
   147   2      2.0817391934859999      1.9586504235497468      22.196233568930378
   148   3      2.0429571197603211      2.2047328646056661      20.295672239263578
   149   3   0.0052474895474612223      2.2978961785936707      22.222282713931136
   150   3      1.8373221806541713    0.061476944160526084      22.258267861110166
   151   4   -0.019135265952613372      3.8792487657587027      12.025447145723088
   152   2       2.063981748103664      6.0272435247100162      14.100395352666601
   153   3      1.9098682514836851      6.1409931623981011      12.213646854780299
   154   3    0.046917275467950999      6.1429589226166676      14.412627325767499
   155   3      2.0363480815271076      4.1368516092812575      14.361996727166767
   156   4   -0.028306416114149566      3.9035994383679578      16.018489875593012
   157   2      2.0688361721422353      5.9934634180679796       18.17504371477494
   158   3      2.0342536643944085      6.2836984113118479      16.277752952740514
   159   3    0.017655177397005895      6.3190846002500587      18.295719408656719
   160   3      1.9314589657047996      4.1115677874703609      18.253706704021514
   161   4    -0.08342004096108549      3.7861313158085577      20.191748291323563
   162   2      2.0553186740161422      5.9883899641748339      22.210467590309403
   163   3      1.8787676691913291      6.1573757137735647      20.307360693897575
   164   3   0.0062872716144291695      6.1647209142932837      22.477224117151277
   165   3      2.0492938514041916      4.1099433781562009      22.411642950230558
   166   4   -0.046479426336545726      8.0568291070159823      11.901231953839307
   167   2      2.0970062427125766      10.089193599567556      14.082072359221167
   168   3      2.0481893494418153      10.271260455830957      12.212865646274704
   169   3    0.032146219003739054      10.298769160440454      14.273674897207909
   170   3      1.8790452649824694      8.1834648936108003      14.252005988822321
   171   4    0.019779767777586939      7.9753457324199193        15.9909888580046
   172   2      2.0660941374794146      10.085058509976925      18.142499039398281
   173   3      1.8727227563838653      10.172603565185749      16.269174075969339
   174   3   0.0058373223734640876      10.175843166568106      18.489546621716759
   175   3        1.98237930593933      8.1904969369823188      18.421787508252795
   176   4    0.032967586796288979      7.9974363015766379      20.026704146060492
   177   2      2.1101383284090733        10.0618452954094      22.215222064794013
   178   3      2.0025287047568239      10.314021744242851      20.328246530179253
   179   3  -0.0070989953420763051      10.363753921881829      22.347729446860566
   180   3      1.8638259764918654      8.1766350783930211      22.327891515155144
   181   4       4.437924943444048   -0.088824630343692021      12.058779929844048
   182   1      6.1171551036860503      1.9888075890567412      14.156463932091112
   183   3      5.8604625469658513      2.0397228239916063      12.110029185262054
   184   3      3.9630854174463335      2.0774772496710332      14.351848563040175
   185   3      5.9543691054251342   -0.037882480981808568      14.241314705035569
   186   4      4.4467553669246156   -0.064005149395469529      16.146563931480788
   187   2      6.2392451489255896      2.0459989493163508      18.225898599174574
   188   3      6.0096425119658043      2.1106578071619131       16.26078426480024
   189   3      3.9410984901099102      2.1053580367991462       18.19253287565887
   190   3      5.8808332583126353    0.076416390117698935      18.214482391532442
   191   4      4.4234547798926211    -0.02799788735734126      20.119639147036953
   192   1       6.131405378628104      2.0094843645666072       22.25213540780171
   193   3      5.8455003382759676      2.0353103358897879       20.20998990592415
   194   3      3.9511100626822873      1.9969084508550858      22.444786487337069
   195   3      5.9616542074290377   -0.042221632965582845      22.378451119224376
   196   4      4.3906887888287045      3.9289873322652196      12.030546439940233
   197   2       6.181094463974941      6.0206156301967209      14.180120891226446
   198   3      6.0093774138031693      6.2326387428384704      12.235829105475297
   199   3       3.973181618994035      6.2815926930726409       14.19213944521648
   200   3      5.8953178813202625      4.1212044309635214      14.171950939406102
   201   4      4.4135327595755323      3.9247562220276588      16.177768636543632
   202   1      6.1313180074082316      6.0469960380004677       18.21577952504412
   203   3      5.8560883785487343      6.1261609462105922      16.165009457383764
   204   3      3.9521908023767125      6.1958831006269257      18.343723758421998
   205   3      5.9217664726812869      4.0155300477020113      18.281011654521258
   206   4      4.4524456136739934       4.008017810945975      20.215898389539284
   207   2      6.2341470119782088      6.0998701000309081      22.281773380949375
   208   3      5.9751572651221263      6.1386303494675856      20.306973708204342
   209   3      3.9398351607973088      6.2280493854027785      22.265962639424004
   210   3       5.856438394951855       4.122285150046153       22.26910692151888
   211   4      4.3042561144737794      7.9186560704200604      11.938658460628842
   212   2      6.1145375876731061      10.103413902474088      14.150829307285644
   213   3      5.8863284265669504      10.152401483837323      12.212930481631229
   214   3      3.9928073594257549      10.149849510213315      14.340764965885819
   215   3      6.0265846712454048      8.1793537819333455      14.294569061978455
   216   4      4.3220773134324535      7.9039628957122696      16.284036876604596
   217   2      6.2097147007687994      10.152007462557705      18.269720658218066
   218   3      6.0221106202683305       10.25794307798461      16.216527633106288
   219   3      3.9565704322864206      10.249143315208935      18.214572215696521
   220   3      5.8925145131841061      8.1983443620695606      18.207537909014153
   221   4      4.4208526474966643      7.9913372550393129      20.189031701524705
   222   1      6.1224648480370014      10.107996023552385      22.262761249365713
   223   3      5.8912285075446142      10.181498635708438      20.210069286296122
   224   3       3.968068095182979       10.16061536244815      22.421287082450831
   225   3      5.9740156837624543      8.0663814432098881      22.328265846390622
   226   4      8.3591624045223316    -0.21342216488954968      11.942984791710163
   227   2      10.133672082248188       1.857009705438931      14.184455746611613
   228   3      10.143150225799518      2.3459677625140438       12.19343639659852
   229   3      8.1393051975004838       2.253255359312571       14.08892993700187
   230   3      10.049804408096326   -0.012068406327073003       13.91079975977267
   231   4      8.3678063283885145    -0.21823511053982608      16.317637865997543
   232   1      10.168235091542702      1.9966196172869899      18.193564678420824
   233   3      9.9591644352306261      1.8354181503869917      16.147292659426299
   234   3      8.1014669593515425      1.9889652018165256       18.36037031769024
   235   3      10.143328149909131  -0.0093691426142955194      18.513341763985487
   236   4      8.3909498181569866    -0.20205121848496077       20.02846731057252
   237   2      10.171607263395156      1.8713952315850397      22.286103849801108
   238   3      10.164711100116923      2.3362420174103793      20.302904274516624
   239   3      8.1501982366498176      2.2542430815177452      22.196188404799777
   240   3      10.040720558612302  -0.0080555192089690128      22.055480266422212
   241   4      8.3596823504218296      3.8458606651426308      12.270316923644341
   242   1      10.133396530584994      6.0740808361463792      14.149582543463229
   243   3      9.9515504847020058      5.8909016167319965      12.106207102494677
   244   3      8.0505982571015284      6.0616482470424602      14.308912353214035
   245   3      10.116591699098173      4.0530669088395817      14.457940858082068
   246   4      8.3717747369783488       3.833604618574233      15.998248625675155
   247   2      10.134103155554286      5.9090249648792472       18.23570737681257
   248   3      10.141618814331729      6.3933843537649384      16.244850224971586
   249   3      8.1440076762726861       6.284978887052457      18.156795065195382
   250   3       10.06045258793587      4.0378825890479364      17.971236982384497
   251   4      8.3735228476871431      3.8456761833746951      20.380022691515084
   252   1      10.163228203332176       6.043450594563291      22.247839380784644
   253   3       9.974410919783768      5.8794824204458429      20.203202570798535
   254   3      8.0975803069326258      6.0116431716187346      22.384891753584704
   255   3       10.14443711739537      4.0322526096714943      22.578478508020211
   256   4      8.3435345607417997      7.9037126850836597      11.945421691423499
   257   2      10.234316182554689       10.01660339492247      14.198447787593441
   258   3      10.112542614468786       10.46580683464833      12.230962081847551
   259   3      8.0152354112047668      10.301371204239366      14.111910205635796
   260   3      9.9849255488630817      8.1440679667777118      13.942565521085035
   261   4      8.3574334854819714      7.8984767597595793      16.301341614507955
   262   1        10.1505942998223      10.103333733397665      18.194138332732816
   263   3        9.88393605238738      9.9572749361725741      16.141616935460846
   264   3      8.0766698897446592      10.129068485107153       18.34004051099306
   265   3      10.119970948330119      8.0970751720604319      18.518608526318946
   266   4      8.3696966128292569      7.8815185296442083      20.048164822988937
   267   2      10.145040937161065      9.9598567219269007      22.286901305453203
   268   3      10.148604194301232      10.447407246423335      20.292881817943975
   269   3      8.1465410183478344      10.356096210420258      22.193881325391871
   270   3      10.047998692841576      8.0890059341174627      22.018890192740216
   271   4  -0.0067613965528571093      11.993326015386771    -0.18454121743138802
   272   2      2.1088300593726355      14.141086831701674      1.9821988605364818
   273   3      2.0086445376871311      14.382716181769826     0.08075278841450359
   274   3     -0.0159827914843516      14.456918363135287      2.0608072700074436
   275   3      1.8547606190362598      12.238181732506176      2.0741775762140722
   276   4  0.00028429989142191785      11.958915765198755      3.9057076023587478
   277   2      2.0373622211516973      14.101119447497663      6.0060537702260479
   278   3      1.8179140438250747      14.220176126637122      4.0999588953723496
   279   3    0.012986233725889642      14.224112520867163      6.3205938031083724
   280   3      1.9877378665814678      12.208132756661564      6.2457289614851517
   281   4   -0.095764836433873665      12.021065011184639      7.9314682311705704
   282   2      2.0598742395759535       14.11917026630538       10.02268603914475
   283   3       2.079912841070986      14.333400495765117      8.1342010473397544
   284   3    0.051330772571963126      14.388616795680678      10.117590501319071
   285   3      1.8695787493238796       12.20192928649197      10.180552609925623
   286   4   0.0021311375130554006      15.973416306049671   -0.083764428646827663
   287   2      2.0839106418137652      18.232597344341062      1.9578492710024595
   288   3       1.825635823888144      18.248250019259576    0.050682511702282267
   289   3   -0.049175522822237541      18.189574186290645      2.3141933205421097
   290   3      2.0021015405099511      16.285108100771964      2.2301278292032181
   291   4    -0.01621856580847256      16.090142613748441      3.8419077503787422
   292   2      2.0309265778152832      18.130478280872428      6.0318187262287521
   293   3      2.0219488352338519      18.430439924825684      4.1209082855218266
   294   3   -0.011799224974851521      18.454527515112453       6.125189026881662
   295   3      1.9246724745036656      16.252159740100559      6.0767453968963903
   296   4    -0.19420271536868411      15.897830442060506      8.0994147567811101
   297   2      2.0495356101449356      18.140674218774315      10.055061264038907
   298   3      1.8609350488631757      18.276269680507831      8.1448271521777809
   299   3    0.015560968522387912      18.275800755172046      10.323105821895975
   300   3      2.0491923376715802      16.247433684470138      10.283087721574789
   301   4     0.21433278598254288      20.241476651847883   -0.029610428596922117
   302   1      2.0869096320683593      22.249591911000383      2.0151183727115285
   303   3      1.8892499065034036      22.408965056976637   -0.058345557500279269
   304   3   -0.079451516084759019      22.482627643082942      2.0048022718292096
   305   3      1.7004035562653768      20.206045176814133      1.9967120865709846
   306   4    0.088214409413521336      20.190199133431364      3.7775644117227012
   307   2      2.0308406514154465      22.205691456439975      5.9629013846365693
   308   3       1.809304496757167      22.258340218372744      4.1108132556631691
   309   3   -0.013874390545125573       22.33279873772516      6.3563366786812132
   310   3      1.9706654834389474       20.32394614911383      6.2691076564284822
   311   4   -0.029017130380461095      20.067254649098558      7.9503280528903524
   312   2       2.086187746744963      22.181203117349398      10.065995256835627
   313   3      2.0133990599346228      22.486198273628204       8.183177247064787
   314   3 -0.00034582469641449351      22.557969338255695      10.159894675769666
   315   3      1.8865972709751901      20.304428260053054      10.140764759628393
   316   4      4.4633514462519068      12.091909612365562   -0.066915808292481643
   317   1      6.1344086556991257       14.15043953657651       2.011422787367839
   318   3      5.8606605192744885      14.202159166824892   -0.034743664182916238
   319   3      3.9656958022511164      14.221036707438317      2.1830757769658282
   320   3      5.9590833279547031      12.123947356592526      2.0822276729159821
   321   4      4.4593372753361873      12.100625256812325      4.0059000133632274
   322   2      6.2384104001533016      14.208527524578473      6.0745958458432536
   323   3      6.0078948958324991      14.265702774302733      4.1078584701534373
   324   3      3.9398326376330517      14.268117223344166      6.0163420541997548
   325   3      5.8869572370007681       12.23902470702399      6.0656084583222922
   326   4      4.4108738379609749      12.128527344053907      7.9494352638319965
   327   1      6.1316972614129961      14.175762968095777       10.09140826938795
   328   3      5.8387523543604809       14.19802347148887      8.0524123862820449
   329   3      3.9577163761714771      14.157115183962201      10.325321410195549
   330   3      5.9945950688624245      12.127934786346625      10.246572951472199
   331   4      4.3937277581555216       16.08825482745592    -0.10495667751498682
   332   2      6.2148985626098563      18.153808885580535      2.0356875444249836
   333   3      5.9988142572223664      18.377951999789683    0.089701613634081079
   334   3      3.9686187821812986      18.429836208521465      2.0078339161984307
   335   3      5.8839448541937225      16.265808439508124      2.0156000430070389
   336   4      4.4073308893758405       16.08722190560179      4.0471881295096663
   337   1       6.129135990014988      18.205436336347528      6.0569654960409602
   338   3      5.8283393414276281      18.270035664247303      4.0004479061857792
   339   3      3.9273543501917509      18.358909668939411       6.163224171739107
   340   3      5.9111417774118893      16.178920355381749      6.1208444264505619
   341   4      4.4413663673485182      16.167393644667055      8.0624043226878364
   342   2      6.2286385039499512       18.26021221906786       10.12124832845527
   343   3      5.9698533209442184      18.297946724074077      8.1430206472110971
   344   3      3.9428636646010742      18.354687902472644      10.084497414914557
   345   3      5.8550948414146839      16.277623498595631      10.105176206879181
   346   4      4.3149712686297104      20.069138144731902     -0.1976284177433186
   347   2      6.0035150426475212      22.191922012403953      1.9964475647303497
   348   3      5.9518065889711647      22.316759297278185    0.030302309009929917
   349   3      4.1132300959670864      22.237719559422406      2.1491778484836339
   350   3       6.140371428218744      20.290486090058156      2.1332702155794334
   351   4      4.2738548181691352      20.047416455055821      4.1694412814722899
   352   2      6.2022587442272261      22.298115338967666      6.1146095680481753
   353   3      6.0977837261478856      22.436584300886256      4.0652389437215986
   354   3      3.9354730729433038      22.386265846556899      6.0203839784630073
   355   3      5.8689636441063673      20.343434980969576      6.0254576052932443
   356   4      4.3922540971569539      20.139994877256147        8.02468556117487
   357   1      6.1125792536807335      22.250959390796972      10.108659895652302
   358   3      5.8550691666826573      22.299062229270056      8.0539431058394921
   359   3      3.9520203607613902      22.320621994336936      10.285465792962665
   360   3      5.9595997984738389      20.216777053079664      10.179454709990292
   361   4      8.3655329968236689      11.930797933273922    -0.20622292061547312
   362   2      10.150927316533942      14.015207194751866      2.0363949138816255
   363   3      10.165601781565076      14.500600185631201    0.047473941199881721
   364   3      8.1524817242744358      14.419299782828277      1.9424784405369477
   365   3      10.057336394401123      12.144258693271961      1.7745836639541024
   366   4      8.3727864989009948      11.943704690272298      4.1616469299748369
   367   1       10.16871963680857      14.156666716964372      6.0427252693047073
   368   3      9.9661619718348184      13.984612648813544      4.0027172079965281
   369   3      8.1006915847918943      14.166301788289621      6.2098965418852767
   370   3      10.132524471983944      12.151326938461873      6.3616333651226888
   371   4      8.3743204071913873      11.952215474788524       7.881064530921881
   372   2      10.167453021611642      14.053985133468876      10.119048174846883
   373   3      10.163225640540826      14.505454760662515      8.1479383160672736
   374   3      8.1470148783146819      14.428089795703869      10.045898085335608
   375   3      9.9918471527224249      12.159863212514155      9.9365936797751822
   376   4      8.3891009877445324      16.002655382488545     0.10638276681653851
   377   1      10.159746628907197      18.215855553969458      2.0005121218608437
   378   3      9.9667593770753395      18.037758253543629   -0.043021730095056096
   379   3      8.0775502812756663       18.16993283699173      2.1672134356777879
   380   3      10.143405433654445      16.204638648642014       2.324210973444377
   381   4      8.3864803240048893       15.97558946373683      3.8499820355475411
   382   2      10.142963878253301      18.067595466082892      6.0796862919715915
   383   3      10.165609960264302      18.564496967975607      4.1040039766222165
   384   3      8.1507402466925925      18.435046823945633      6.0028122327853817
   385   3       10.07552351326586      16.197216836344065      5.8188387242482484
   386   4      8.3625822874176503      16.017513605329192       8.219143608706986
   387   1      10.159660680186317      18.198794558392621      10.106964374406724
   388   3      9.9893802763894506      18.030294289237919      8.0529407359600871
   389   3      8.0941350364645714      18.170656260863797      10.217122866647422
   390   3      10.151058054549955      16.190007241991964       10.43715719629742
   391   4      8.3531534533510641      20.035972826450909    -0.21577273293289093
   392   2      10.198141776090093      22.145644773594626      2.0467401149494675
   393   3      10.152915278118302      22.615678799945577    0.080275240785406002
   394   3      8.0627673124732535       22.52476412250271      1.9568049876594102
   395   3      10.002178915915547      20.275050195988513      1.7948213584295318
   396   4      8.3585325733693399       20.06055842248492      4.1494924321164053
   397   1      10.129445844496516      22.253648017004917      6.0585989448212514
   398   3      9.8982552497433058      22.091084153072849      4.0025970749352586
   399   3      8.0686287661790992      22.255784101741291      6.2188959862561397
   400   3      10.135406279202565      20.249742242539703      6.3947663111024733
   401   4      8.3645523477992327      20.031420308491938      7.9028143658059404
   402   2      10.141507723293776      22.111879399416615      10.137095267396486
   403   3      10.162510004614374      22.614605876649616      8.1379864303835419
   404   3      8.1449359148460712      22.495648482289059      10.030084376397209
   405   3      10.066444383896902      20.243667486418282      9.8350135777417389
   406   4    -0.13849138677559186      12.078369757070355      11.868473759229502
   407   2      2.0619943290238405      14.102085382966376      14.078960465944988
   408   3      1.8438505581324107      14.200713483660346      12.197791891110246
   409   3    0.028405003690916909      14.153377378713937      14.422718473000504
   410   3      1.9912818224642088      12.194336413313653      14.357233450690885
   411   4    -0.03261838616474113      12.084128022783686      15.922883044992684
   412   2      2.0726329101127385      14.124848107090266      18.133787237574364
   413   3      2.0293770980403103      14.302962234716066      16.259603239056769
   414   3  -0.0053281699537704817       14.36752219366997      18.327470390376199
   415   3      1.8605815915091319      12.213547213663714      18.308119593140308
   416   4     0.01149892723092108      11.958697956583297      20.087808139168978
   417   2      2.0471348523592456      14.097848757336559      22.206164931641446
   418   3      1.8502722802075036      14.220841402912226      20.326559305592344
   419   3   0.0090016357870483944      14.223694476866253      22.546107764453872
   420   3      1.9950857177829968        12.2102811881827      22.474381806698016
   421   4    -0.16317566716784032      15.974073188502866      11.926472567613137
   422   2      2.0813289694865325      18.124764478385067      14.067540785598919
   423   3      2.0447627946457838      18.385056531614474      12.178702823199673
   424   3    0.050273024738749256      18.412636805226306       14.17818332543113
   425   3      1.8800763179963029      16.222737223837814      14.232144157766939
   426   4    -0.13419908752843371      16.101617968670912       15.88168990824288
   427   2      2.0432999571384571      18.141332826748283      18.118445557377107
   428   3      1.8599864221636087      18.254111257688351      16.240214802486477
   429   3   0.0075161332459499552      18.267107330000151      18.461396205232731
   430   3      1.9707821215258703      16.247877306701341      18.407115423696659
   431   4   -0.030548650677257483      16.044453507006182      20.028909194776961
   432   2      2.0407689804369142      18.127369486369236      22.193701361557171
   433   3      2.0107977956723544      18.398136388087149      20.309191046672982
   434   3   0.0030519449763530574      18.449692587173558      22.317442340298243
   435   3      1.8724465912425905      16.244225562662219      22.325047318733183
   436   4    -0.13833360112280341      19.920261134627751      12.146320284665006
   437   2      2.0539743008254994      22.188182460423373      14.101977663534392
   438   3      1.8436555800822825      22.345339464506175      12.209391361518495
   439   3    0.016512747235470311      22.360561056434392      14.394581135154464
   440   3      2.0036362573351045      20.300740827395963      14.332339209442065
   441   4   -0.094768776612835545      20.016868153417892      15.904779646839796
   442   2      2.0913955826487229      22.186590047367876      18.176496351261214
   443   3      1.9978032468371383      22.444330440577026      16.276555763540877
   444   3   -0.027729401519881566      22.485967699606395      18.272090357384119
   445   3      1.8612614428308967      20.289691859408642      18.290776971370978
   446   4    0.044408818178712367      20.050193725169017      20.100634727385355
   447   2      2.1028012031927483      22.212660813619728      22.285577887903038
   448   3      1.7929709844257087      22.316016165666852       20.31028611147363
   449   3   -0.079190024046395469      22.342862555010768      22.436896862968986
   450   3      1.9753742385165283       20.29886206548667      22.423892831178168
   451   4      4.3708823735683371      12.273869367947054      11.960457404985453
   452   2      6.2206900258764524      14.221111664775265      14.182819084977748
   453   3      5.9965619474146106      14.227046915321536      12.217594631308438
   454   3      3.9547674353025113      14.250991466775908      14.157281688020946
   455   3      5.8765999731731586      12.186437421593604      14.206941947659011
   456   4      4.4186303613359579      12.212086105713944      16.250347463661395
   457   1      6.1341087987210052      14.182060364253761      18.221053070076984
   458   3      5.8509811841860202      14.186888142659194      16.169096622953301
   459   3      3.9399389056542082       14.20293992256487      18.382215804427801
   460   3       5.921075320456425      12.141055549442818      18.245823447223707
   461   4      4.4484854799339422      12.151681494533818      20.211406971291375
   462   2      6.2425295461871686      14.206933539762231      22.283831996841798
   463   3      5.9803314822628515      14.246932294495465      20.316330377790376
   464   3      3.9350953785495366      14.312870278366345      22.303470608834498
   465   3      5.8855541765324597      12.242331619843627      22.274767982520618
   466   4      4.4351382987489156      16.148123030480811      12.034237300594764
   467   1      6.1234577581005896      18.204890546111073      14.150390554739097
   468   3       5.860237440577226      18.228478162285807      12.098992771116281
   469   3      3.9549917229811618       18.25133160847605      14.333224528012513
   470   3      5.9582679164280199       16.16029966031325      14.238253280327081
   471   4      4.4491194557552864       16.19765362536371       16.15213721036001
   472   2      6.2417557725500208      18.251639113132242      18.229088067746627
   473   3      5.9884499107498534      18.280650345436193       16.26378236205829
   474   3      3.9285354233063874      18.333767329967589      18.236468188106986
   475   3      5.8687724957243299       16.28050580168042      18.223092334947243
   476   4      4.4449360151923463      16.139334126056262      20.162270052477478
   477   1      6.1350213358513237      18.208935529882147      22.261966568737421
   478   3      5.8524954463624566      18.240718062409407      20.218116133216235
   479   3      3.9219119351309728       18.30309010739704      22.477710622515428
   480   3      5.9379800624123513      16.180204267194497      22.340257953688152
   481   4      4.4456975489023893      20.198183991811398      12.102030804313477
   482   2      6.2318612468200261      22.297477368546353      14.177326993128389
   483   3      5.9977996475884465      22.347334352941498      12.207271726718576
   484   3      3.9400394050638874      22.388831428357662      14.169459160983893
   485   3      5.8802881408724375      20.320164245790103      14.160452649253219
   486   4       4.440309328919076      20.168121258078401      16.087007380384179
   487   1        6.13168301059215      22.246763601051558      18.193069307836723
   488   3      5.8626838361042317      22.279528270550077      16.159806260702361
   489   3      3.9482012566008797       22.30886791842979      18.397652452160887
   490   3      5.9435862676907831      20.210418443854497      18.290445511129107
   491   4      4.4111241445281415      20.146484070721247      20.159805388671405
   492   2      6.2325640611677882      22.304995481005857      22.201422119394472
   493   3      6.0428440845074407      22.370259986511272      20.293188037277851
   494   3      3.9731629601830725       22.39284159134375      22.261972595616953
   495   3       5.855784493199887      20.353605871780182      22.293853026536848
   496   4      8.4098530325086998      12.058723311864387      12.118951489026516
   497   1      10.156189349751566      14.141864750459275       14.14726117490472
   498   3      9.9535930590947448      13.981500038213394      12.105265074920046
   499   3      8.0821657924314021      14.142300047927671      14.294002127475762
   500   3      10.094249677979741      12.117836859827573      14.480857982209104
   501   4      8.4281902981201657      12.025027622548707       16.11918638620444
   502   2      10.171221532320576      14.041379101646434      18.265951514743399
   503   3       10.14994749992422       14.48015487021657      16.245530315605933
   504   3      8.1531850881482431      14.405299307557126      18.149796216642912
   505   3      10.054478093632714        12.1593552770477      17.967122131439123
   506   4       8.366711061537897       11.95090733517239      20.381893183507767
   507   1      10.169673632665864      14.156263022516063      22.251285680159317
   508   3      9.9732548791601605      13.978677186070231      20.212472739176469
   509   3       8.103876823621178      14.155281166442693      22.396606173493325
   510   3      10.129397541832898      12.145013025212785      22.571516190406705
   511   4      8.3821101790280164      16.001752473111178      11.960354195523124
   512   2      10.161974708929046      18.067279153846414      14.184570545155276
   513   3      10.158858309855377      18.551916066834199      12.187860958747629
   514   3      8.1526428463751124      18.441317989100448      14.092074775796249
   515   3      10.066426324690605      16.193850836503049      13.912414961471201
   516   4      8.3871454425170562      16.006848241644224      16.332040644438184
   517   1      10.174942309849403      18.202218702861622      18.191909542142273
   518   3      9.9788587507720088      18.019818522114161      16.147809869479303
   519   3       8.103883643312356       18.18210949528331      18.349290203537272
   520   3      10.136486153754451      16.193562693900997      18.520662152538243
   521   4      8.3795054419868453      16.006979737000261      20.060238346188008
   522   2      10.163112196454986      18.074321128226064      22.291835494595642
   523   3      10.166051385896056      18.549296869653595      20.297916159059184
   524   3      8.1510133003426333      18.461306102152982      22.192360161508432
   525   3      10.049934992800329      16.202160517017894      22.030683338264481
   526   4      8.3658131191962397      20.049696371218488       12.29572614542208
   527   1      10.166703589271025      22.242338442998342      14.145248703793118
   528   3      9.9679673572331708      22.061112092351536      12.094469289076471
   529   3      8.0984816749535078      22.225321148765964      14.289657265994411
   530   3      10.134722509332242      20.235180736821505       14.46591599027311
   531   4      8.3845361044943036      20.040940149541761      15.995731044497846
   532   2      10.164235027883381      22.111753387942855      18.229584559702875
   533   3       10.15939397996844      22.585216678168536      16.239616146779959
   534   3      8.1542886602127869      22.500456823752003      18.139150442706011
   535   3      10.059316807529738      20.239825573187499      17.970867732448511
   536   4      8.3945734999081871      20.054959998183744      20.360756967718832
   537   1      10.166954635554957       22.25079069252466      22.247262334972074
   538   3      9.9652059695791113      22.081794010217926      20.201469950105171
   539   3      8.0887882819887817      22.227129665018872      22.415801563739208
   540   3      10.142201243262811      20.249931668130525      22.577855209666389
   541   4      12.236810430804354    -0.35310189626480248    -0.09571984549062329
   542   2       14.10333471260112      2.0413072255789166      1.9037124947684056
   543   3      14.291916517776839      1.7694809650249335    0.033597496162459488
   544   3      12.197947511107619      2.0368033310110985      2.1350726041282733
   545   3       14.17668009378527    0.065025832373059228       2.373963514736408
   546   4       12.11540031644642    -0.04246293193689471      3.7322209957224013
   547   1      14.156259854379664      1.9842272904236578       6.053886397071981
   548   3      14.198259375739793       2.326169983523354      4.0329209250975175
   549   3      12.104829212621043      2.1563152561792776      6.0628965881377308
   550   3      14.395521389411934   -0.052200251640068002      5.8782703732401629
   551   4      12.140023681728797    -0.31371194245447098      8.1457466395699019
   552   2      14.138802250451299      2.0671772978452032      9.9851966951195763
   553   3      14.234084417900496      1.7704236771888406      8.1047570525939143
   554   3      12.191104616878251      2.0168647989509116      10.255424534022069
   555   3       14.14856495632085    0.045431293372858485      10.418764125145247
   556   4      12.133450290252243      4.0180893556244497    -0.37000631477731205
   557   1      14.147120399604956      6.0374823883060866      2.0044181343634024
   558   3       14.17196593364695      6.3653379248946615  -0.0034993322135902947
   559   3      12.101087526024401      6.1917380760488685      2.0305962946359744
   560   3      14.385570829929529      3.9857696775692606      1.8495072291820631
   561   4      12.164167111178759      3.7057870403266859      4.0623360503639265
   562   2      14.137135492167179      6.0978337993385612      5.9309276780655971
   563   3       14.24376720402759      5.7970366302185692      4.0549520496362303
   564   3      12.193336089647838      6.0654182902663818        6.20958672364163
   565   3      14.146592356248025       4.090139489069756      6.3948735222839552
   566   4      12.124843624315018      4.0000508304790889      7.7433904934251476
   567   1       14.12413503845019      6.0485211607095248       10.09985041456353
   568   3       14.14779281999262      6.3871389946747579      8.0895386664010935
   569   3      12.080957269797747      6.2211034712221727       10.13077372934303
   570   3      14.306161420975506      4.0151519071610275      9.9091536404811968
   571   4      12.187940784857973      7.7224485463697734   -0.044783048733700669
   572   2      14.150906744827259      10.130974404367562      1.8607884845650116
   573   3       14.23960338153104      9.8541648806654756  -0.0084516135067735434
   574   3      12.203347449732709       10.11704656470998      2.1639859965147803
   575   3      14.145527760729454      8.1330688481916091      2.3512838855993268
   576   4      12.114261455795559      8.0553210980146464      3.6771366082674741
   577   1      14.129240384820367      10.090601263919158      6.0514372549782358
   578   3      14.167476503372622      10.410917347986215      4.0429868571770209
   579   3      12.088444591262586      10.256948743204985      6.0807854738805194
   580   3      14.321858249313273      8.0500037751459761      5.8592003224837876
   581   4      12.157422084468774       7.734561469540207      8.0676060116131989
   582   2      14.144724632518127      10.121476466015407      9.9577172339443845
   583   3      14.226174061342601      9.8495421223799777      8.0904092397817635
   584   3      12.184774649822202      10.133577676595461      10.274260391553909
   585   3      14.122751083599264      8.1419665111674835      10.459338406350795
   586   4      15.952885432121354    -0.21803888977277799    -0.20421644170068734
   587   2      18.236718111448081      2.0080602801152385      1.9309737988306801
   588   3       18.25705668233913      2.1041903991277886    0.039200261875736539
   589   3      16.268256412975337      1.9662223822085581      2.2244036616708778
   590   3      18.376221614942775    0.036813727848925705      2.1175706324222761
   591   4      15.918893263787135   -0.019396143368502577      3.9305442850325059
   592   2      18.093809073977301      2.0384041620360631      6.0999140034275037
   593   3       18.35687728056762      2.0750872402562655      4.1350769113017494
   594   3      16.227689310486475      2.1689502665164824      6.0947675048757803
   595   3      18.277848636818131    0.041839595735538665      6.1895921711273747
   596   4      15.906951045318758    -0.12542162143634131      8.0181465644007233
   597   1      18.162838331586855      2.0383138192994137      10.128998288968688
   598   3      18.378480426291006      2.0690140199493308      8.0852160799823416
   599   3      16.141539870496818      1.9558871105357136       10.35461406551407
   600   3      18.456057056458061 -5.9428317598134594e-05      10.135355929619028
   601   4      15.952541015242979      4.1644549666694104    -0.22340046369718394
   602   2      18.083562962286067      6.1135807681549892      2.0512649350372603
   603   3      18.432131485386897      6.0350829751256381    0.095578835267296547
   604   3      16.221030869224787      6.1745918844011012      2.0090154182435804
   605   3       18.26822791563076      4.0519922988401245      2.1463876617321493
   606   4       15.90967424032576       3.914994125184823      3.9001778278406798
   607   1      18.179008275724414      6.0563587339271745      6.0667959233966391
   608   3      18.385990543078396      6.0778035421490779      4.0211969975795903
   609   3      16.148167652219708      5.9890981382708812      6.3052686352370451
   610   3      18.445033734948183      4.0113280363427517       6.125351135441667
   611   4      15.947896167141257      4.1487595458678515      7.8851025369691561
   612   2      18.047966952508244      6.0788249568838948      10.157728072346819
   613   3      18.412659301949386      6.0921326328851304      8.1823107643176201
   614   3      16.185743171086223      6.2014317453429788      10.088951888794575
   615   3      18.310811608050088      4.1175514338770913      10.177354598788815
   616   4      15.919726050200472      7.9008984501965029     -0.2199316406550256
   617   1      18.172007972882927      10.107925109910861       2.010728285675305
   618   3      18.346343523175573      10.151343422390552   -0.026605418926261046
   619   3      16.148718384523221      10.034146858967743      2.2479524189513613
   620   3      18.419676031836502      8.0486078841255164       2.064185238646334
   621   4      15.918837960611508      8.2321127240866101      3.8631058654853283
   622   2      18.056190980100599      10.120864184723603      6.0965452166089484
   623   3      18.408891796626808      10.123420166157292      4.1272903266036156
   624   3      16.193405313482589       10.22856181556795      6.0432359600444929
   625   3      18.322736052238323      8.1473791095611841      6.1052115013477497
   626   4      15.935365572944105      7.8801578145823781      7.8972310956813923
   627   1      18.157596222857894      10.085894679574398      10.114461735407959
   628   3      18.363091017313689      10.120818392567024      8.0661075582293496
   629   3      16.134128879996336      10.034617843027057       10.34520477491774
   630   3      18.420748190137079      8.0537398416850792      10.163332079477655
   631   4      20.043130238584496    -0.18923619040184433    -0.25649955247003781
   632   1      22.230813737162482      2.0110250355484847      1.9676435448875229
   633   3      22.470601958267938      2.0930316537459404   -0.065621186520707753
   634   3      20.196810516909473      2.0682221270806935      2.1714998795219689
   635   3      22.204338450779499   -0.034458577539971121      2.2932792315337243
   636   4      20.250630437759714     0.11653016433370202      3.7393364005577938
   637   2      22.246699088771983      1.9428624390512532      6.0035614073210928
   638   3      22.312624742774045      2.1982360224230164      4.1390982335463429
   639   3      20.362374771057002      2.0238377972301342      6.1896820905336734
   640   3      22.462722584973474    0.056335774208570208      6.1238800522212742
   641   4       19.87699156623011     0.05052985663179016      8.1903783846713143
   642   2      22.217579714999207      2.0045931376447621      10.082577775861532
   643   3       22.46237867847297      2.1067958606105819      8.1853920280615107
   644   3      20.358663281590875      2.1877306427331003      10.172460070240753
   645   3      22.309964515936485     0.10736994803673726      10.316844032775528
   646   4      20.005989028071681      4.1538733947582021    -0.22784269055586759
   647   2      22.239780774399268      5.9874351841393381      1.9469207320711222
   648   3      22.333985133863326      6.2589199017165535    0.058098982685085211
   649   3      20.357250668746893      6.0283289990159359      2.1333938146065572
   650   3      22.473124472454543      4.1227597016987687      2.0416475631664697
   651   4      19.918311862797573      4.0225535495421347      4.0172567184616561
   652   2      22.214616976334124      6.0090641890066285      6.0014418686221918
   653   3      22.453603488704214      6.1135678353573297      4.1047625573271613
   654   3      20.359752998170322      6.1921163472338527      6.0931288170417952
   655   3      22.328927337925435      4.1184755631614394      6.2647778553929356
   656   4      19.844910167108821      4.0249737558842735       8.087267449419425
   657   2      22.234757004172625      6.0656282159134269       10.06004781976854
   658   3      22.350019219496307      6.2526981461904532      8.1557137419296808
   659   3      20.364339198880792       6.065259108454387      10.222653893608985
   660   3      22.498071267293895      4.1444714951428541      10.187677497359703
   661   4      19.860035766162657      8.0513558123310798   -0.094432817033111974
   662   2      22.190676613021616      10.057309754376517      1.9623923453477923
   663   3      22.439359222004228      10.179247809191599    0.069893851450641101
   664   3      20.336784919377791      10.256798892976398      2.0563397169306072
   665   3      22.306555698573987      8.1698006650888857      2.2137735725505014
   666   4      19.841377522758933      8.0591892690479572      4.0523332767623206
   667   2      22.240882752988735      10.038741495304855      5.9973753100723153
   668   3      22.324221643126027      10.300157079812903      4.1039800607421215
   669   3       20.36368325573925      10.101190895880118      6.1748201908587941
   670   3      22.471085326904532      8.1401536126758138      6.1015717236131142
   671   4      19.828842431840233      8.0519961014084256      8.0729285826453996
   672   2      22.180308651650797      10.144792834729667      10.037074901536984
   673   3       22.45318122008926      10.105448153547519      8.1269814720061397
   674   3      20.320813917769467      10.179651109207294      10.132538180111863
   675   3      22.350996344001576      8.1441559381076427      10.308486454402257
   676   4      12.140982158988876    -0.06484258623409872      11.790981189052088
   677   1      14.131759292801826      1.9879236076030975      14.141055406756065
   678   3      14.144471067640152      2.3447076437779066      12.137892570481659
   679   3      12.083725776808194      2.1675129931176915       14.17006350868637
   680   3      14.318915429783063   -0.050218922705397788      13.948702541026647
   681   4      12.200815193595485    -0.36739386264221957      16.123202632187141
   682   2       14.15822927323258       2.031441630966957      18.050575226656981
   683   3       14.23116165938649      1.7790219579973197      16.182099179252873
   684   3      12.207653636287493      2.0286570591826747        18.3610755879042
   685   3      14.143452232076204     0.04317963265216912      18.535920965650746
   686   4      12.139803218837312   -0.046824092924724711      19.867279654267438
   687   1      14.165478211679112      1.9928399752214798      22.256025153571333
   688   3      14.161917001697136      2.3301521588553742      20.246621367366451
   689   3      12.113410137081278      2.1333206992910831      22.317186132760082
   690   3      14.326497409810582   -0.053043547877172109      22.112178933201079
   691   4      12.158064495101412      3.6882596196308719      12.122070904758594
   692   2      14.132138230985753      6.0951537138660665      14.011808336961122
   693   3      14.233101953573065      5.8193684349547645      12.142635532932385
   694   3      12.184729100275256      6.1001226626018221      14.307191976070712
   695   3      14.128180217674428      4.1013905635943928      14.491840849012593
   696   4      12.101616314445218      4.0005463428472083      15.822826500997866
   697   1       14.13113765075976      6.0485131245710502      18.199562605304841
   698   3      14.160151526122997      6.3747529423549931      16.191891958079424
   699   3      12.088903409286795      6.2196371407634539      18.220771648664197
   700   3      14.326308186588882      4.0015028011065352       18.02861634905031
   701   4      12.202811605924964      3.6805617714647441      20.183222486891822
   702   2      14.152411102780281      6.0852605832813058      22.109527226990352
   703   3      14.228516311648232      5.8052104917003424      20.240556062333109
   704   3      12.203601653098113      6.0680557372761799      22.421138292572003
   705   3      14.149551314694072      4.0906998988742531      22.599034425608632
   706   4      12.094350794626559      8.0573611171991804       11.77926834079738
   707   1      14.151879980920647      10.102455390502856      14.156230754205906
   708   3       14.15562962815951      10.427178160731058       12.14663691515036
   709   3      12.118396292451065      10.206482551440375      14.214724805868586
   710   3      14.327689918358971      8.0562722811974457      13.969803833138632
   711   4      12.174429002689051      7.7216710413140994      16.173178023173829
   712   2      14.140145025412547      10.133439034611248      18.064083291289375
   713   3      14.249473670907763      9.8608449395679543      16.197311445703342
   714   3      12.193175467988221      10.126061824884195      18.354669142029575
   715   3      14.140564352878373      8.1445946926246133      18.554107920154227
   716   4      12.103524234230758      8.0465806953652592      19.877153352344273
   717   1      14.131405237126794      10.094279956716214      22.250286103741015
   718   3      14.161184902382175      10.422466194224674      20.243582119383568
   719   3      12.091638360752352      10.261311905027423        22.2757456760651
   720   3      14.324527734453095      8.0475877315231816      22.078267842322138
   721   4      15.940951541100171     0.06473492474026539      11.923617459694647
   722   2      18.055613611580601      2.0393264360844188      14.198197541960679
   723   3       18.42405974927118      2.0617675574870904       12.22997794069712
   724   3      16.193713847277248      2.1615467146679577      14.128690965993904
   725   3      18.329098794975586    0.079690030707338294      14.214133462392645
   726   4      15.939008091553562    -0.24064529271400756      15.980659529222597
   727   1      18.172301108990087      2.0082518958148472      18.185985850087071
   728   3      18.362579430527624       2.062034683713176       16.16346978770277
   729   3      16.151286889247285      1.9388467212527871      18.445823997869436
   730   3      18.436435470649968   -0.038591899213831785      18.264713637194426
   731   4      15.968373248598562    0.063370557317850795       19.98020542892576
   732   2      18.098498540086737      2.0350878101039709      22.172352483785616
   733   3      18.393977231894084      2.0541800618190278      20.286370769045497
   734   3      16.235260945209166      2.1590446176482061      22.249341218250557
   735   3      18.310931257430092     0.09212120869335115      22.387755571517765
   736   4      15.926447627168772      3.8454883860779008      11.965393312213267
   737   1      18.166178862962443      6.0700835973159695      14.163997134146697
   738   3      18.354172663629246      6.1084050910477199      12.121408461102767
   739   3      16.139366764076481      5.9960420500816598      14.395374116513096
   740   3      18.421246060041103      4.0240937698249875      14.214961069002126
   741   4      15.921076509079272      4.1774217914126703      15.986981934697109
   742   2      18.059808044931028      6.0843617952386291      18.246827031742487
   743   3      18.410627702764174      6.1016653016222122      16.278404913805385
   744   3      16.195999408710282      6.1938531526953389      18.197842548076395
   745   3      18.316795106363749      4.1160216888376562      18.266264682979756
   746   4      15.913880560842532       3.852864234714124      20.018853599925517
   747   1      18.168071065756244      6.0639800000764703      22.238600313165843
   748   3       18.37793888418263      6.1120249566951248       20.21312272130104
   749   3      16.151261817179574      5.9966212088888957      22.487439602493684
   750   3      18.436478185993892      4.0073302889859512      22.340163709724486
   751   4      15.915293176887312      8.2108785876122443      11.963701428100013
   752   2      18.061471237552016      10.119918718755116      14.205867478053028
   753   3      18.412777301020398      10.137362817727155      12.228370313108609
   754   3      16.199084929749805      10.237517622570834      14.137889661580207
   755   3      18.311290308224216      8.1537713820937512      14.222137196244526
   756   4      15.925269328588286      7.8931941286179903      15.986986083282769
   757   1      18.169386432308237      10.115293808363637      18.208211871972743
   758   3      18.364384858035223      10.145357815395037      16.171086855355377
   759   3       16.14590211176948      10.048274168272165      18.457756202329328
   760   3      18.430918363153189      8.0662086021588486      18.263117714215156
   761   4      15.932667774135471      8.2300517530280626      20.045697747025812
   762   2      18.059439916997395      10.129926281666965      22.305644230946694
   763   3      18.414329723057254      10.125354288369914      20.335366001404342
   764   3      16.195344454115514      10.228922014175422      22.239024302874537
   765   3      18.321327673441587       8.150981384202364      22.343005951808145
   766   4      19.832005647763449   0.0021547886805974659      12.102991120816224
   767   2      22.242503805206901      1.9776387205209545      14.140734753319887
   768   3      22.340924680619505      2.2388257300566528      12.234841521979087
   769   3      20.367417557618005       2.060555187451317      14.287240338069358
   770   3      22.448171215125015    0.078950763554155617      14.221780169508344
   771   4      19.828337842120995   -0.029371080135196372      16.166838096621486
   772   2      22.205168890792592       1.944502068051722      18.212602091261267
   773   3       22.46222337435962      2.0935204959918701      16.279217291240048
   774   3      20.345730384761122      2.1871975579650158      18.245111059342893
   775   3      22.285326122662198    0.052555284258600683      18.379766233315856
   776   4      19.902877863010207    -0.15882058430158655      20.140435533848997
   777   2      22.226299481508619       1.903871115020487      22.312143485128772
   778   3      22.303155583938779      2.2604579343143842      20.295966614130762
   779   3      20.317605981570097      2.0538735605589835       22.40364246699961
   780   3      22.366198348882449    0.033165750318081229      22.239514837031997
   781   4      19.839517957659115      4.0238890040976845      12.126636781147848
   782   2      22.209231140346706      6.0548604725512218      14.107689294314246
   783   3       22.45726943205624      6.1179033877541897      12.210841954171112
   784   3      20.352783905732633      6.2049316264027841      14.206381228946318
   785   3      22.340159385903053      4.1439339100309249      14.360791647203664
   786   4      19.846975142372283      4.0267189598135875      16.158357331458383
   787   2      22.252899005509086      6.0227944011483157      18.141521053376902
   788   3      22.337667586479142      6.2639681339551014      16.253199426056806
   789   3      20.368483123963692      6.0681763014939953      18.323173567885984
   790   3      22.459843545200034      4.1312834228301414       18.25165421492736
   791   4      19.910154066506667      4.0096737530595261      20.110783060491698
   792   2      22.238370956201994      6.0347655934036455      22.180791989427448
   793   3      22.408696040538803      6.1440714550635676      20.293276144635751
   794   3      20.353467742109338      6.1658873308053455      22.383851887233977
   795   3      22.296119091289849      4.1480495727238713      22.405473991807948
   796   4      19.837963011940193      8.0900401852412305      12.115190038675902
   797   2      22.243869590929808       10.10925694535017       14.10253566016852
   798   3      22.342726420139254      10.231322930488799       12.19988442262952
   799   3      20.363880046746782      10.097057994438705      14.261649767340801
   800   3      22.482690469606361      8.1641567538772417        14.2318990833421
   801   4       19.83953380920882      8.0558965214711726      16.154017746408442
   802   2      22.201595656308747      10.066955457033295      18.154541867465781
   803   3      22.419383925543887      10.147521362263261      16.268000059143411
   804   3      20.343448878277723      10.247661599647822      18.282141429367691
   805   3      22.313808028571589      8.1678800594888905      18.411227211985981
   806   4      19.842775661332041      8.0830142453420368      20.192023408939541
   807   2      22.238963891579981      10.064017605810751      22.211883019262476
   808   3      22.307097648954173      10.295716999361462      20.325761444788192
   809   3      20.355182471333272       10.11667774308104      22.405820404334985
   810   3      22.432834612287539      8.1654052184772823      22.340364234004923
   811   4      12.110658485573591      12.107757732090683    -0.37093135996839882
   812   1       14.13310997805422      14.144986897861767      2.0022981391061041
   813   3      14.163275296346118       14.47099687662849  -0.0016908263375764166
   814   3      12.097367105002002        14.3122663984346      2.0349202709802245
   815   3      14.326506676859566       12.09410812006516      1.8266142814632815
   816   4      12.181466098522975      11.774916327034774      4.0029499157741615
   817   2      14.163323879232413      14.187800843781682      5.9079862845006295
   818   3      14.243663919606117       13.91333926462954      4.0408375241916517
   819   3      12.209395080076366      14.183118079800053       6.219609833144184
   820   3      14.132061993821607      12.187958315711452      6.3978407309418293
   821   4      12.121365306300357      12.104477486114167       7.716547323938908
   822   1      14.147310814377107      14.134524704148303      10.095168809563868
   823   3      14.169401482152033      14.457940411586698      8.0924355014025231
   824   3      12.107655201734374      14.283351540713932      10.147311221830231
   825   3      14.291506091593009      12.087279882451888      9.9241714276706965
   826   4      12.194040672289592      15.837960450577302    -0.03930138398858133
   827   2      14.161341499655176      18.258223682639983      1.8799656299231551
   828   3      14.256444953638036       17.98666412367616   0.0086166013579054256
   829   3      12.207011319498145       18.25672125093125      2.1806075795711859
   830   3      14.144393099065871      16.252519484933536       2.350393262320396
   831   4      12.125043678656164      16.161487134472889      3.6752572003015715
   832   1      14.167227354220444      18.191858674410494      6.0601944152922593
   833   3      14.170492122042406      18.523358841610236      4.0619865767759986
   834   3      12.110798634417794      18.372627572726689      6.1015992889932056
   835   3      14.337690302280325      16.150687316946474      5.8892878871938255
   836   4      12.217702849335915      15.839386625763646      8.0250442063854024
   837   2      14.141163556268518      18.247362332856017      9.9984544662874093
   838   3      14.323000691884834      17.997319238874006      8.0996616867978553
   839   3      12.197361150879258      18.221144970639379      10.222771536560824
   840   3      14.173724884102484      16.235620714948752      10.422598299083118
   841   4      12.126478116516262      20.215296880721787    -0.37120146699912232
   842   1      14.186555037948041      22.247376748340152      2.0369889495623608
   843   3      14.176963228133101      22.567060335863282    0.020934897108490176
   844   3      12.113681099421445      22.370653566618714       2.110423732770518
   845   3      14.341948766016337      20.212963906420402       1.840992259222384
   846   4      12.201007726404901      19.872426238798027      4.0256247706207411
   847   2      14.060529822339641      22.287873010158588      5.9929348685355599
   848   3      14.369236779810546      22.084252793895843      4.1065952883724055
   849   3      12.173317446917842      22.315889673483316      6.1137229273727955
   850   3      14.199229009491059      20.330599839158491      6.4119597446827328
   851   4      12.083263603055473      20.124235939394353       7.786805489969546
   852   1       14.16201027279932      22.217784822436698      10.079858430103581
   853   3      14.164054344032568      22.620733756682426      8.0600033385940506
   854   3      12.099033911866631      22.419852653779987      10.108637123420536
   855   3      14.293385428738429      20.198324493423854      9.8445590110340291
   856   4       15.92884325729657      12.272303601704667    -0.19903146005354758
   857   2      18.052783064953953      14.171008380647704      2.0511644776716524
   858   3      18.411794327211791      14.182380922410427    0.083801696117100616
   859   3      16.190344290575979        14.2965536852772      1.9887314512812193
   860   3      18.302368958356208       12.20337418355537      2.0709506366981372
   861   4      15.926511649118266      11.937842526750092      3.8335708874859677
   862   1        18.1716369617324      14.141046291283796       6.055743482662673
   863   3      18.340760623020682      14.186156223822815      4.0165697115910017
   864   3      16.147225192561415      14.071049075652903       6.300960167457438
   865   3      18.437122528008043       12.08997242274897      6.1181483863942629
   866   4      15.920158051137335      12.263935347602118      7.9015311572693037
   867   2      18.110985707964854       14.10956973436312      10.120982309267463
   868   3      18.384949404387527      14.159976709996684        8.14453887324661
   869   3          16.20222237826      14.257188395709148      10.085323791098851
   870   3      18.297140193722761      12.150682743569833      10.133901266702752
   871   4      15.923853977579824      15.993427150035092    -0.20072483441076527
   872   1      18.173893283155167      18.200425480412559      2.0197014741726407
   873   3      18.357790726644225      18.271676861602892   -0.024248491008675661
   874   3      16.157369243632353      18.143253043962432      2.2791748597422115
   875   3      18.435708925611713      16.158802966372456      2.0727950444200935
   876   4      15.938912145067313      16.311308714205534      3.8453186584579511
   877   2      18.138291135983387      18.099574495928394      6.1254296096143692
   878   3      18.457775132298256      18.279845204187559      4.1534129753676154
   879   3      16.263225654775734      18.408660589553079       6.009399614248303
   880   3      18.225035715139267      16.224051968809238      6.0896919223024364
   881   4      15.960057329524977      15.957951325287468      7.9284225963553343
   882   1      18.185243551445449      18.196671668197666        10.0947834357712
   883   3      18.258994925520685      18.366793839392052       8.058525802396602
   884   3      16.161653283267832      18.171542342007488      10.349138584758666
   885   3       18.26740896239578      16.157836943626297      10.263529152056744
   886   4      15.920869159233627      20.359677340130673    -0.18642982105332548
   887   2      18.141137529621677      22.213743201829249      2.0032184305932965
   888   3      18.433711802423243      22.321757674778627    0.095491771303150771
   889   3      16.272757033663005      22.440635667352854      1.9869670886125304
   890   3      18.259521383859603      20.314681629753981      2.1339255126520689
   891   4      15.976930190901149      20.001969065406403      3.9274387907919279
   892   2      18.198193123590972      22.254533069017818      6.0479043350575816
   893   3      18.211341166596039      22.370948122064338      4.1193021662209572
   894   3      16.290151057572288      22.241435254737159      6.2939077558673491
   895   3      18.423040840123221       20.33909197133223      6.1233820447694125
   896   4      15.961636630656583      20.145061218329506      7.9908996539070394
   897   2       18.10174344284485      22.245980037207563      10.193310941672443
   898   3      18.458685464580309       22.37229050113028      8.1191589777482509
   899   3      16.234475217465185      22.439888626593667      10.024806370377004
   900   3      18.276854221657842      20.333202650649639        10.0757088977088
   901   4      19.832335970999857      12.106774713743384   -0.027116349461584151
   902   2      22.232896009044943      14.106329130392821      2.0017328416849836
   903   3      22.305890340562236      14.352033697232983     0.08992157114825422
   904   3      20.344453663586691      14.172003729709562      2.1652039330411696
   905   3      22.450880999008675      12.208004982760036       2.078939243645257
   906   4      19.827122853642894       12.09007831611701      4.0069493983381808
   907   2      22.180461541766608      14.093789159350374      6.0626123539718906
   908   3        22.4556467273793      14.208377973683115       4.113922307213655
   909   3      20.312095580260074      14.312566152177713      6.0693333421407747
   910   3      22.300723199066251       12.18497193373406      6.2541740534135108
   911   4      19.851474365049153      12.063144192213027      8.0910630580011329
   912   1      22.240474754031549      14.102264690324205      10.100018107176437
   913   3      22.246478431753392      14.417736352414694      8.0619050315205545
   914   3       20.23390484748316      14.302853425296311      10.168272099922822
   915   3      22.499813484801116      12.076886244607913      10.128088246059173
   916   4      19.847286503918696      16.120375627008144   -0.058411636382902588
   917   2      22.237897037284327       18.18184221677426      1.9472127019817043
   918   3      22.418077425985011      18.258165517210287    0.067059005637545938
   919   3      20.336030295539185       18.42925411341513       2.076639030387458
   920   3      22.231546379816756      16.272319692609173      2.2298951428249634
   921   4      19.899009100924438      16.100025548576017      3.9589269649567704
   922   2      22.233558524373031      18.159721023124099      6.0421351689681764
   923   3      22.203602277349493      18.415861443652524      4.1512927637264658
   924   3       20.32396107534521      18.282816937659039      6.2488500352406637
   925   3      22.413611118809065      16.267791356338424      6.0679931981413207
   926   4      20.131233234064013        15.8119975718361      8.2179889903769592
   927   2      22.193172190559135      18.142870091098199      10.141478847538899
   928   3      22.447991140915892      18.269463456803884      8.1653760866703777
   929   3      20.300752796457125      18.374134869325612      10.092353055417073
   930   3      22.303453700046386      16.258149022729761      10.267633362175614
   931   4      19.942968008409611      20.084202724282701    -0.12658747076478913
   932   2      22.229566554816486       22.27511312814557      1.9297890489467273
   933   3      22.187453045126929      22.429054292706621     0.03147683375347772
   934   3      20.280363843654456      22.289658954449834       2.260157424448844
   935   3       22.42241465511686      20.309599780390773       2.102346196958329
   936   4      20.049170978184939       20.01563255266003      3.8888088822470395
   937   2      22.215705789153926      22.203894773177723      6.0245356047994925
   938   3      22.448236668067523      22.264378780357699      4.1490257835663726
   939   3      20.325010743546688      22.437482098904336      6.0746545130771192
   940   3      22.290695611970008      20.324677006391951      6.3087874332071268
   941   4      19.931674616296107      20.063951478621913      8.1865974494598159
   942   2      22.228016071092771      22.221779352279899      10.066929523003228
   943   3      22.295342540274866      22.514161766358072      8.1724452778156689
   944   3      20.347714940653006      22.306540294986259      10.224845420224023
   945   3      22.442405581422967      20.341518848377863      10.085479198734177
   946   4      12.226997564102312      11.819964922764745      12.036179371042863
   947   2       14.16918145818757       14.20173931405397      13.996332157908736
   948   3      14.214187489524679      13.878790689364626      12.135022295913663
   949   3      12.201619302321358      14.150596604801942      14.323567411952148
   950   3      14.134538624629107      12.186349617692873      14.509744364989862
   951   4      12.172676422669767      12.193606146089994      15.858861212533688
   952   1      14.144844051879925      14.154315424302347      18.205646040268245
   953   3      14.169435013775452      14.453417359491523      16.192234060239233
   954   3      12.107723223355116      14.306454574923118        18.2225062478952
   955   3      14.314435412756197      12.101630557605093      18.021133158416255
   956   4      12.179303662515233      11.776763132198104      20.209567460344452
   957   2      14.150800328911423      14.185255510145739      22.115500651658959
   958   3      14.248465885648971      13.924356975456352      20.245486647659231
   959   3      12.205982776959431      14.178732247279408      22.417715921549135
   960   3      14.143755247247922      12.192831191067636       22.59906898041465
   961   4      12.162225216187096      16.158778086462192      11.787412718157338
   962   1      14.168259323936562        18.1758068901885      14.116851310395075
   963   3      14.155528673964819      18.545467328898976      12.113711902589673
   964   3      12.111502105774402      18.367273993760879       14.15682806790837
   965   3      14.294382339216316      16.137127529182042      13.977867114093948
   966   4      12.201524551972989      15.835320433398859      16.134710910070837
   967   2      14.174405827516749      18.260504226015279      18.031098843572483
   968   3       14.22460906452879      17.951496971199408      16.172972033195119
   969   3      12.215284078338616      18.211235065439489      18.374641826598246
   970   3      14.148357556534735        16.2451556920367      18.539346606139947
   971   4      12.157232566908283      16.200852168358569      19.875484053461172
   972   1        14.1436587721315      18.200995876872515      22.263482596882419
   973   3       14.18898024881757      18.488055370039312      20.252626045440479
   974   3      12.106036291746516      18.360892749101406      22.290540473651031
   975   3      14.327724179054234      16.153351596666401      22.091162955309546
   976   4      12.200563926379925      19.902759918354072      12.126836905691411
   977   2      14.169188085234875      22.273367276755508      13.993591761112954
   978   3      14.257936803206002      22.044281130062931      12.121064497960491
   979   3      12.208719242973498      22.253773928903215      14.287210828942939
   980   3      14.179339708320613      20.288237193617547      14.453939203056818
   981   4      12.178668242348527      20.214566258101772      15.810087672888056
   982   1      14.148689681395187       22.22933165107996      18.165101146339296
   983   3      14.137608710163258       22.60597868949667      16.173528129117084
   984   3      12.105219110274298      22.403367999734886      18.232340553278526
   985   3       14.29271956968765      20.194382326114273      18.076615179931157
   986   4      12.217629289990885      19.873395945528316      20.179914679708908
   987   2      14.171002108562247      22.289404768295956      22.107897443188698
   988   3      14.254674332692202      22.037157654270267      20.240749950812084
   989   3      12.211963097944338      22.288642081979368      22.433938356519675
   990   3       14.14432322568207      20.299726552686142      22.602064756943317
   991   4      15.936920095313408      11.933171011302031      11.939003327204659
   992   1      18.169964522252435       14.12672854658315      14.160978864216489
   993   3      18.335361256109071      14.099637557814367       12.12432507739768
   994   3      16.145305199825742      14.076762956793711      14.392581259443741
   995   3      18.438459082145609      12.090633326133805      14.218135091139551
   996   4      15.917707756413636      12.271817851897742      16.010537037562035
   997   2       18.06108246914863      14.170100652432774      18.260402817159111
   998   3      18.429411287623598      14.179620471422563      16.283120372943369
   999   3      16.201433355582694      14.284887532148172      18.181358063809157
  1000   3      18.314883509237173      12.204613350170417      18.286186350355468
  1001   4      15.923351290586572      11.942881219892262      20.038969342957671
  1002   1      18.166099372797291      14.157635416894454      22.262546933540559
  1003   3      18.352352354526797      14.209706011169621      20.224804325116178
  1004   3      16.147909591348864      14.094245323759521      22.512454990318819
  1005   3      18.421553281054255      12.107047278212343      22.314150625355282
  1006   4      16.104241439209719       16.23371222253223      11.794999682546349
  1007   2      18.170381712090926      18.108722583350414      14.146756236368004
  1008   3      18.314775007218863      18.337030461250098      12.180749278626118
  1009   3       16.23027579822157      18.360186568063146      14.123581112531728
  1010   3      18.265358106052457      16.185849974991722      14.196405086527978
  1011   4        15.9360637974345      15.998757558345293      15.983853859490884
  1012   1       18.18170802641621      18.200814351046198      18.198246075811934
  1013   3      18.340706546760014      18.178590329718514      16.168686021935429
  1014   3      16.155015914296932      18.139870713849852      18.431649379468059
  1015   3      18.453730069095059      16.148190752874054      18.251048278394915
  1016   4      15.903414933887097        16.3444616944019      20.059817562281111
  1017   2      18.058372733807907      18.217391043810011      22.301142811964304
  1018   3       18.41255285922033       18.21995704762093      20.332632295446292
  1019   3      16.200645782705465      18.352735548602155       22.25382826291866
  1020   3      18.307968517287573      16.256248804393287      22.337080192325548
  1021   4      16.078791522920636      19.925594034759222      12.037566060675486
  1022   1      18.200582594764533      22.273418155798876      14.141043679782314
  1023   3      18.279404007746638      22.383069254217574      12.103346600943953
  1024   3      16.163730352193983      22.222282941477442      14.392562142074656
  1025   3      18.250031062218753      20.237308537257583      14.325104981876077
  1026   4      16.167450575045038      20.251054270067151       15.78857450800361
  1027   2      18.071918741975406      22.241464291610519      18.198986938164193
  1028   3      18.398801234461207      22.340470685584325      16.268988887571517
  1029   3      16.205048173910154      22.422673436016851      18.205619478822413
  1030   3      18.285848164665314      20.295322427969385      18.286998441020121
  1031   4      15.937057787286014      20.041574805187569      20.018765249654138
  1032   1      18.180141134639928      22.248135282004348      22.239501779180749
  1033   3      18.365113950454312      22.310481427906605      20.207819674367151
  1034   3      16.161634782726892      22.189565627670568      22.510605961777323
  1035   3      18.458149385368461      20.203582036877179       22.30420064290967
  1036   4      19.841039127420796      12.108174427571695      12.112809611309595
  1037   2      22.176548290955573      14.190965486664544      14.075980180012115
  1038   3      22.461963520018184      14.124343545873305      12.192487169955333
  1039   3      20.309934519194584      14.211809712251906      14.159673680945993
  1040   3      22.347634881841753      12.168949443113162      14.348388802537215
  1041   4      19.848490963481428      12.125243890693906      16.155760288989057
  1042   2      22.240466724131174      14.093788083081209      18.161794919560439
  1043   3      22.307162720582649      14.272444806982136      16.272304549232125
  1044   3      20.361942853894558       14.15846550057684      18.344304621424591
  1045   3      22.453635987445928       12.19000652994316        18.3091103722757
  1046   4      19.839379103119242      12.085485403306183      20.201715935976971
  1047   2      22.194859695967377      14.108680048278849      22.232363704900173
  1048   3      22.430246815779373      14.217401417788627      20.337698486924833
  1049   3      20.339096575522682      14.313126771276114      22.328870727019162
  1050   3      22.295373461494261      12.211008481067228      22.473687589086488
  1051   4      19.954664049780732       15.93438440621177      11.960502381872681
  1052   1      22.222529084820575      18.170468865936261      14.147236134633635
  1053   3      22.250246560491849      18.484380282919982      12.103795048406759
  1054   3      20.212811186129294      18.379440114361412      14.173094053277191
  1055   3      22.464876327994897      16.127939646940266      14.191780692111806
  1056   4      19.842197556145514      16.142513127169035      16.185767354936257
  1057   2      22.197497380290365      18.146622669893098      18.139084430714735
  1058   3      22.430298590366217      18.224919401080609       16.26548220778221
  1059   3      20.339862178293817      18.324993568263242      18.256682467719969
  1060   3      22.318534273278043      16.233708493258014      18.397496971061102
  1061   4      19.842127907309141      16.156104809804692      20.219607586922233
  1062   2       22.27221245471496      18.141580898066746      22.209220966962214
  1063   3      22.310938289624154       18.36514443442935      20.317163284722884
  1064   3      20.372205986379516      18.213844560502057      22.427476250889459
  1065   3      22.461827166042394      16.242928125794414      22.343311230431592
  1066   4      20.071221767587989      19.919487245566788      12.246850804334805
  1067   2      22.190514114669107       22.22542429515887      14.102436596959123
  1068   3      22.455395487065665      22.345533070623432      12.192129125312507
  1069   3      20.330630992089031      22.371278010689743      14.170848309275614
  1070   3      22.347253243780585      20.349782460993346      14.308558561315031
  1071   4      19.896127363378163      20.072844539582626       15.99412838238198
  1072   2        22.2399153508299      22.172495692721487      18.127161305189787
  1073   3      22.306828265011639      22.452611544926725      16.237060394529475
  1074   3      20.356752209186752      22.278802563062317      18.341712623807354
  1075   3      22.442246369301095      20.279498886168525      18.252901460970396
  1076   4       19.83218212170641      20.172248031799136      20.183606315724152
  1077   2       22.23755023295578      22.148413722422063      22.171082275054374
  1078   3      22.393419119936279      22.296177733036416      20.269781858414099
  1079   3      20.334717093494213      22.472034122786734      22.312534184433932
  1080   3      22.224051218165751      20.280092169422939      22.421644934031942
