(written by ASE)

1080 atoms
4 atom types

0.0      24.299999999999997  xlo xhi
0.0      24.299999999999997  ylo yhi
0.0      24.299999999999997  zlo zhi

Atoms # atomic

     1   4   -0.062830043284568315    -0.18151503296144911   -0.098499266072631014
     2   2      2.0592841433304079      1.9318311657411822      1.9282248648420979
     3   3      1.8349117734549907      2.0747673775200224    0.026888136968894874
     4   3    0.052340104528838804       2.030581159411899      2.2385081397799902
     5   3      2.0277533017049763    0.046364861556418419      2.1653702295312476
     6   4    -0.14130721258230514   -0.013154298210494714      3.7349963708166829
     7   2      2.0903650907734446      1.9472608681336403      5.9858742193014969
     8   3      2.0398485412282463      2.1938985855816422      4.1003342499253899
     9   3    0.015555903146930256      2.2591773751072513      6.1476527403500025
    10   3      1.8768224502405091    0.059748407271411723      6.1354240112472898
    11   4   0.0087747830665484659    -0.21272990812852396      7.9680463588181834
    12   2      2.0573069929043939      1.9560891805719611      10.048986221882684
    13   3      1.8643943389038597      2.0989085338974278      8.1612665489884524
    14   3    0.030403235234484596      2.1111626553054426       10.37695717944295
    15   3      2.0038351085599766    0.076205455812495965      10.297276121247286
    16   4    -0.12135132831581029      3.7643887506322473    -0.11772930926037745
    17   2      2.0962210961514485      5.9856172718797627      1.9440869946488444
    18   3      1.9883294866810455      6.2594590351910488    0.046808391021474244
    19   3   0.0049425529473986953      6.3241622889491911      2.0751615055585142
    20   3      1.8651694636338703      4.1057702321453728      2.0541787897712487
    21   4   -0.080369095079531522      3.7785253841675526      3.8208581776794897
    22   2      2.0523019833666711      5.9958150261478318      5.9725164761636576
    23   3      1.8646824084130906      6.1477742971382341      4.0846127752631816
    24   3    0.029170895312012238      6.1408252244391335      6.3061693175330191
    25   3      2.0039775632209325      4.1160946013490225      6.2399945206488665
    26   4   -0.010267718324624036      3.9009419213700989      7.8964051532920791
    27   2      2.0769895108570067       6.008807340174898      10.038472433180214
    28   3      2.0338312411201325        6.25981976097854      8.1530898493793629
    29   3    0.048443554551476413      6.3199510924750379        10.1848975717384
    30   3      1.8897567522459944      4.1219443837648573        10.1880306432043
    31   4    0.017119593340676663      7.8927703952201549    -0.14691054543518131
    32   2      2.0675605606503016      10.059090000591677      1.9529782037274661
    33   3      1.8429863165248532      10.187930614764285    0.059280180489460897
    34   3   0.0067705403328618607      10.176656201066603      2.2667787472369016
    35   3      1.9933588222668406      8.1686253939760505      2.1812484880725784
    36   4  -0.0010306025289849195      7.9536455441891611      3.8194003160218393
    37   2      2.1025912081300633      10.061891400079665       6.008576497175568
    38   3      2.0041040812921187      10.304296280288797      4.1096604184725409
    39   3  0.00052625044525449367      10.351169912159939      6.1260508767915614
    40   3      1.8799827033507486      8.1696399948783061       6.125804218161969
    41   4  -0.0065969232353942035      7.9212815958977272      7.9493153022730132
    42   2      2.0716926267394586      10.078961543415586      10.044387762756672
    43   3      1.8661082631579167      10.189548770776527       8.150478664760632
    44   3     0.05467329836748553      10.100196574639957      10.354949016565492
    45   3      2.0611015849216514      8.1723384698482295      10.290943283263344
    46   4      4.4611913681571904   -0.043959157479597728    -0.03237862449861996
    47   2      6.2306722688619605      2.0479113640375046      2.0248486920785735
    48   3      6.0033877362435959      2.0864470461382707    0.055026725441098788
    49   3      3.9527471376104399      2.1660368283955322      2.0003259427162448
    50   3      5.8695259581769781     0.07437371307733967      2.0213820505539997
    51   4      4.4501896450549117   -0.047927842220757098      3.9838884516186028
    52   1      6.1207296368044481      2.0026926340147688      6.0604723179382836
    53   3      5.8578243279440576      2.0372318160615634      4.0111122877411498
    54   3      3.9509197866283148      2.0747134789405171      6.2325539951364712
    55   3      5.9345173738001504   -0.029958101766861207      6.1208567334727713
    56   4      4.4265113950186192   -0.070877278370152355      8.0527012879104554
    57   2      6.2361633058339105      2.0456811092895282      10.120701978936021
    58   3       6.000016789358126      2.1102201937232774      8.1585911781665637
    59   3       3.948114320618926      2.1797787298068712      10.141291890154532
    60   3      5.8787936064618966    0.079256430815061937      10.112655858021155
    61   4      4.4592130977449704      3.9828670120037484   -0.063618325804980558
    62   1      6.1261793591420473      6.0558815099138661      2.0075652183352415
    63   3      5.8690061941761726      6.0933003850979626   -0.042117088709050787
    64   3      3.9544320127981769       6.110436470493724      2.1428407929175495
    65   3      5.9688400431586688      4.0179894035629129      2.0776633973093888
    66   4      4.4433832373132329      3.9822167233008097      3.9899936280219785
    67   2      6.2322860960009443      6.0965055564171156      6.0671486328214996
    68   3      5.9908959937714563      6.1530036211773194      4.1047915643915074
    69   3      3.9405036246105678      6.2121402663442824      6.0808749965647895
    70   3      5.8765462391788885      4.1298782777048073      6.0603936426147795
    71   4       4.441792737430486      3.9666708069782923      7.9959593824406694
    72   1      6.1246994598136508      6.0514055773295619      10.109672315241811
    73   3      5.8628666630249517      6.0979431153875874      8.0598294434082618
    74   3      3.9646508548427599      6.1384694082797688      10.306142452679484
    75   3      5.9632420004484317      4.0220072417246575      10.204445243337334
    76   4       4.457474999610735      8.0532534105480362   -0.041579901669594126
    77   2      6.2364537474643358      10.154953058067816      2.0276598226082272
    78   3      5.9986760411445008      10.200864206210953    0.061584436343421672
    79   3      3.9453884023956896      10.250130270862657      2.0171113048729401
    80   3      5.8827191558645753      8.1820422953739502      2.0200444223316509
    81   4      4.4592009198283389      8.0409051358471864      3.9696963346075154
    82   1      6.1260557312171153      10.107460789957653      6.0458915710899648
    83   3      5.8645245916349467      10.147981916969067      4.0098706093134773
    84   3       3.961787096768977      10.185833680191021      6.2278268808648445
    85   3      5.9496895612149343      8.0721773173878137      6.1346229367605254
    86   4      4.4108992395877884      7.9841817854762365      8.0036261369038346
    87   2      6.1928691991954565      10.162810527184869      10.057086704001803
    88   3      6.0350859649528932      10.245300047258606      8.1474639110245519
    89   3       3.975326133099788      10.286850753877014      10.150960551074947
    90   3       5.858780938861301       8.207674918661235      10.134261335871193
    91   4      8.3791344414082332    -0.19658411416821112     0.11601728048085359
    92   1      10.151847306313684      1.9992686439473226      2.0037441538331922
    93   3      9.9639787490122718      1.8176291941130207   -0.043286498217022205
    94   3      8.0958130847779586      1.9685393885398943      2.1544690993336113
    95   3      10.148829374856845  -0.0066527497573201314      2.3464409882023074
    96   4      8.3587060579990098    -0.21143677742636124      3.8406090080321373
    97   2      10.138901233979565      1.8603705828552406      6.0914855460895287
    98   3      10.162121188848186      2.3611506039981047      4.0946523476419143
    99   3      8.1489098582596231      2.2514300863146142      5.9968498293985917
   100   3      10.058491794448106  -0.0051224615701682095       5.800136817121377
   101   4      8.3452563779044517     -0.2148692444425295      8.2174382611693026
   102   1      10.154691716877773      1.9971610582054227      10.103824787590311
   103   3      9.9892748043181552      1.8132192380745598      8.0522845211209919
   104   3      8.0999504656433547      1.9744158517207691      10.246570962475207
   105   3      10.141185865227357   -0.015551667941721503      10.425639704542887
   106   4      8.3698732503498352      3.8325302234294418    -0.20637721102004586
   107   2      10.151244960489061      5.9073627387176586      2.0362283247530524
   108   3      10.153694729359145       6.397377519842399    0.045882361491904437
   109   3      8.1495927577193008      6.3061751575631471      1.9502983832935026
   110   3        10.0442194419608      4.0388529866726026      1.7651804832439986
   111   4      8.3609622872908727      3.8501705696488799      4.1609543196351835
   112   1      10.152990554638077       6.049607965437831      6.0491135489024863
   113   3      9.9775552079084928      5.8629470571252913      4.0019281196368981
   114   3      8.0955724958150412      6.0265950813334239      6.1960633518552708
   115   3      10.136706235780382      4.0394626756097018      6.3752427398084732
   116   4      8.3591733641724097      3.8503190738376363      7.8912312977297052
   117   2      10.131047868982419      5.9146341862656877      10.145291511057533
   118   3      10.144267671383428      6.3949527937574713      8.1465861610867734
   119   3        8.13744021257288      6.3098043661429246      10.039011446773555
   120   3      10.040040298289604       4.044522198498135      9.8757459146739155
   121   4      8.3681894267310888      7.9017984128238821     0.12747367292164041
   122   1      10.162045521711491      10.099072238650313      1.9954393944434243
   123   3      9.9703671691158959      9.9236863202090166   -0.048346642866277822
   124   3       8.101232104225172      10.081195379851209      2.1486701192706477
   125   3      10.134474772632254      8.0889269808462174      2.3218682580735961
   126   4      8.3617167880270653      7.8899041738232567      3.8337430529096284
   127   2      10.138318841414229      9.9628804949255034      6.0888856665561475
   128   3      10.155378683144408      10.444866857779385      4.0960319130453833
   129   3      8.1451426639158004      10.362554615244436      5.9913957928504393
   130   3      10.047231008929849      8.0932602539725274      5.8289885007992632
   131   4       8.358949046667286      7.8934806490880458      8.2179814430231843
   132   1      10.137180981242858      10.104698402995158      10.102742981373419
   133   3      9.9523140077873418      9.9482014768661511      8.0573737482678069
   134   3      8.0543028322597632       10.08597923991756      10.283468058025189
   135   3       10.11791936799092       8.102438594535073      10.418289246474682
   136   4  -0.0021116839135734439    -0.16143806628766383      11.948042782864039
   137   2      2.1072068849638961      1.9627410537301118      14.113486284405699
   138   3      2.0269722872307665      2.2160611233916749      12.221980118843717
   139   3    0.015355231784398158      2.2770492925373311      14.238386371227334
   140   3      1.8778066538584539    0.069376796068602392       14.23406061318593
   141   4    0.014373971028085127     -0.1917035038644983      16.020887613268414
   142   2      2.0609782546888207      1.9446469132360364      18.156541686291419
   143   3      1.8370007346614929      2.0799963029974076      16.259673373314065
   144   3    0.015329183371556008      2.0774368243850221      18.475223494075529
   145   3      1.9618206644463729    0.042857969389348577      18.385239953918692
   146   4  -0.0060171233129425383    -0.13489620456919976      20.026176153195401
   147   2      2.0993308615739177       1.940963143148146      22.199499865746148
   148   3      2.0319943525441628      2.1754431865638417      20.294670702021889
   149   3    0.017565657672914174      2.2890057375766819      22.229594101307171
   150   3       1.833640406222357    0.048072577185937528      22.310005898306706
   151   4   -0.012409600752792072      3.8836578574540042      12.011258906470008
   152   2      2.0678269076661033      6.0303772292628661      14.097879448857261
   153   3      1.9072339863185463      6.1404793493958216      12.212666677227404
   154   3    0.044723685302054388      6.1359910193864913      14.416273484220179
   155   3      2.0263858683487834      4.1349217880864906      14.359947961200112
   156   4   -0.010767145400126105      3.9235025688262284      15.991470128307999
   157   2      2.0704468678616261      5.9893106870989978      18.176030820167597
   158   3      2.0282790058799547      6.2696328407680504      16.278818252436665
   159   3    0.013228788630393474      6.3102163241022335      18.299425472075747
   160   3      1.9162118242043151       4.102998441234722      18.262508187070306
   161   4   -0.053409720802781023      3.7778055348904966      20.185995645173097
   162   2      2.0591673527388918      5.9841975156098082      22.209583802926176
   163   3      1.8750521666390372      6.1587795217591346      20.306298033317791
   164   3  0.00011758095790655864      6.1572332044749194      22.478094748983125
   165   3      2.0305938530126522      4.1075587865903538      22.400895976411409
   166   4   -0.049509275858769096      8.0607139621502863      11.898880492614335
   167   2      2.0964819406303765      10.089828565171413      14.080861139196768
   168   3      2.0466558181810455       10.27023333808795      12.210707674150099
   169   3    0.031943923010221344      10.293542654014205       14.27409405965599
   170   3      1.8766074193807891      8.1800446127489472      14.253991284471901
   171   4    0.020606555095519057      7.9781367475113729        15.9879832399801
   172   2      2.0669397369137155      10.084383053237744       18.14175341285106
   173   3      1.8710874681202749      10.172792699222436      16.268410145472004
   174   3   0.0052959965680968715       10.17063639127038       18.49105286673089
   175   3      1.9784972468619564      8.1860890260245984      18.414997691789772
   176   4    0.038155138758069265       7.998600486891938      20.021633192894605
   177   2      2.1096657583679002      10.062184888277709      22.214430994534869
   178   3      2.0006946142266764      10.306808564725193      20.326646694500649
   179   3   -0.011755681956719451      10.352508859314723      22.347917173108875
   180   3      1.8624153886377182      8.1747037731255414      22.330504001353447
   181   4      4.4468101275970833   -0.080146483132151031      12.062679723899162
   182   1      6.1178791878400807      1.9889345047605897       14.15959397869438
   183   3      5.8615248665657624      2.0365626195291031       12.11212529000437
   184   3      3.9648909994832011      2.0746185347879655      14.341140122201928
   185   3      5.9502425040761464   -0.038976580388778152      14.235429184442639
   186   4      4.4568464157701255   -0.060864388009205003      16.159819282384245
   187   2       6.240403606374163       2.039473776426775      18.234411775419261
   188   3      6.0043859091188994      2.0990502065689918      16.263779005869917
   189   3      3.9462916845169573       2.108840937640263      18.188477622681706
   190   3      5.8897151725254648    0.070881205354902846      18.225665324192313
   191   4      4.4643959045474864    -0.05547977348211542       20.18845995456574
   192   1      6.1296289249240159      1.9987230465446286      22.262266687569017
   193   3      5.8576222684915784      2.0426832586946877      20.213194960786112
   194   3      3.9576266565194174      2.0396600812344183      22.414620087322557
   195   3      5.9430678178326612   -0.040410349745848798      22.320782259543602
   196   4      4.3970657863965528      3.9274268696923924      12.032284531584924
   197   2      6.1850866195782537      6.0228806674485167        14.1799205940424
   198   3       6.009259093381627      6.2357545113652337      12.236797603152713
   199   3      3.9724318879306812      6.2754192571414622      14.191183062686896
   200   3       5.898420374609743      4.1226296575139898      14.173716430288881
   201   4      4.4291610845684666      3.9361517217860689      16.189799312584899
   202   1      6.1322900678025904      6.0460228133074994      18.220543509969513
   203   3      5.8552510755088081      6.1254857852783795      16.165838399112047
   204   3      3.9504069339551018      6.1854082527029792      18.339736004858512
   205   3      5.9224065250250773      4.0132990589634678      18.275257956038285
   206   4      4.4607890405624788      3.9992213681607813      20.235194227594036
   207   2      6.2372175506689365      6.1052057794880916      22.283595028986749
   208   3      5.9749010868375496       6.142657003382304      20.307407324222009
   209   3      3.9403617388317902      6.2177473282641165      22.264280507297375
   210   3      5.8763378732018072      4.1279084484929447      22.267503970739028
   211   4      4.3093404716823827      7.9232632285484339      11.939680851297188
   212   2      6.1159875884250843      10.105648828337245      14.152888435792358
   213   3      5.8826071531556874      10.153378809793388      12.212315186256481
   214   3      3.9901055770674403      10.147879529412537      14.337642882943181
   215   3      6.0216669302173251      8.1792438037722022      14.295005900688576
   216   4      4.3293404663351129      7.9120856285792289      16.287918712338666
   217   2      6.2083284919177508      10.155697875442424      18.273422313326357
   218   3      6.0181790567746907      10.255348860576992      16.214754278561244
   219   3      3.9554748996060418      10.244865806956888      18.210366652783719
   220   3      5.8875911105087289      8.1990481846716925       18.20638618885345
   221   4      4.4256900722454269      7.9966396775005215      20.195248809123935
   222   1      6.1200259913378181      10.113887638404346      22.266539780424324
   223   3      5.8895904694638395      10.182010443851693      20.211210109659373
   224   3       3.964282873579517      10.166582300076586      22.420544220359133
   225   3       5.960958621211855      8.0718168597137598      22.323415332778023
   226   4      8.3621294843126144    -0.20854756688974729      11.940047458743798
   227   2      10.132496507501076      1.8563261112205798      14.185721074847477
   228   3      10.144451988787871      2.3470160373967972      12.194316110993425
   229   3      8.1398957370779357      2.2516114994228671      14.089366370366116
   230   3      10.052759452089189   -0.011763600661309806      13.908593954089122
   231   4      8.3696018042059936    -0.21529318152165558      16.332772580750948
   232   1      10.164449964215128      1.9950602836288438      18.198939700852407
   233   3      9.9599763217555406      1.8327151242988495      16.149061391436135
   234   3      8.1027113643651845      1.9921667822593321      18.355716170622024
   235   3      10.132877452020484    -0.01355455936524517      18.518262133639482
   236   4      8.3818099173972236    -0.22666887934475727      20.045357438874248
   237   2      10.160846181349109      1.8552748507332459      22.292596931192119
   238   3      10.164040980509089       2.341840174754918      20.301521828166397
   239   3      8.1531350897124799      2.2466450997718241      22.193358498878581
   240   3      10.059771327013575   -0.013855515539993658      22.022471491503968
   241   4      8.3568246748076263      3.8417204145877402      12.266464312596133
   242   1      10.132580424392588      6.0739491658031346      14.150148668376273
   243   3      9.9540024092517747        5.89121840900268      12.105632152245875
   244   3       8.052630307999717      6.0646613898990047      14.308527501327848
   245   3      10.117191276559211      4.0529327407588216      14.462357052109843
   246   4       8.373130850872748      3.8315840532788861      16.004004605009378
   247   2      10.133152788443539      5.9092100302063084      18.236951246588603
   248   3      10.141635343848291      6.3968455774436483      16.244882474615871
   249   3      8.1444673269106307      6.2873666216776201      18.156795860838763
   250   3      10.060716049737067      4.0392981088782856      17.966187361605972
   251   4      8.3751508478519323      3.8411460060474765      20.386823505660249
   252   1      10.162495495280389      6.0486006296070558      22.248734733842653
   253   3      9.9777912403222917      5.8842294765324343      20.202553035063865
   254   3      8.1004787305549382      6.0307324306673307      22.385068984831356
   255   3      10.134714797008616      4.0375952077451416      22.573096805593195
   256   4      8.3451900786952091      7.9057089203536677      11.944677681398183
   257   2      10.234311672699729      10.016945835799788      14.198181578286615
   258   3      10.113156265041189      10.467679622648786      12.230211849568827
   259   3      8.0152920415867381      10.299328572244573      14.109812396606701
   260   3       9.986774995784554      8.1448456813981256       13.94019604263433
   261   4      8.3595553737168942      7.9027106263795739      16.306592514702327
   262   1       10.14937853119449      10.106487739110269      18.195952275266389
   263   3      9.8853267884509126       9.956954921428343      16.140962921035847
   264   3      8.0748028646053225      10.128103576020669       18.33553513316107
   265   3      10.119252786153746      8.1005701377700081      18.518147076804738
   266   4       8.371473707816822      7.8842401183915447        20.0508106686957
   267   2      10.142944425763186      9.9627377579454865      22.289462385976368
   268   3      10.146133264773669      10.453490163389334      20.293765745607629
   269   3      8.1453757188266174      10.355047451565104      22.197603928606529
   270   3      10.053518774143733      8.0931288781630766      22.013317491198741
   271   4   0.0012515526632406919      11.998714303042094    -0.20067389043741934
   272   2      2.1044687965452025      14.107387600874405      1.9780482411983542
   273   3      1.9896023066346771      14.355475327296176    0.077089875462504842
   274   3   -0.017373436051038273      14.430739359255009      2.0675420971010743
   275   3       1.852049449227233      12.214554356681095      2.0763859211747486
   276   4  9.5908506672777672e-05      11.933915027376548      3.9206301734310638
   277   2      2.0531418502805079      14.110710683106319      6.0048255377997686
   278   3      1.8165347104594289      14.227958432681882      4.0933307051656467
   279   3   0.0060739562773850812      14.238749987965683      6.2898211970964288
   280   3      1.9764703206696066       12.21413826080602      6.2353040167581408
   281   4   -0.073481295689947726      12.005711474135445      7.9276373078744324
   282   2      2.0619310314936508      14.118362426955819      10.023029587345965
   283   3      2.0531969087578306      14.333981426832727       8.129554584427332
   284   3    0.046804034951908359      14.384771882735595      10.117793583557983
   285   3      1.8656145182612798      12.201996713132436      10.175255191331273
   286   4   0.0069789467986392769      15.960121893388418   -0.098273064043856315
   287   2      2.0583440189008901      18.157260200816022      1.9808196198887968
   288   3      1.8105832704377491      18.287489573452394    0.067554649764026933
   289   3   -0.030848479779356616       18.29508418563492      2.2623433277300125
   290   3      1.9811247455115693      16.267494488693334      2.1803506031603401
   291   4   -0.043217326639900591      15.994445615072701      3.9280356125134692
   292   2      2.0801680062534014      18.142172310360973      6.0143150546921991
   293   3      1.9836815784152111      18.410062251000088      4.1010385053749658
   294   3   -0.025087329345234024      18.483071817108463      6.0896030154020817
   295   3      1.8930309353464165      16.257376288767347       6.070783885891716
   296   4    -0.16348339658354757      15.889680970766024       8.097031990975454
   297   2      2.0529172920037548       18.14102000491533      10.041667207595568
   298   3      1.8271152372269859      18.272546025180684      8.1336578365010173
   299   3   0.0070311922657723602      18.279079194233965      10.308653108314225
   300   3      2.0331386095356536      16.245892886255628      10.272991569505251
   301   4    0.012406276435556347      20.085636088487259    -0.15823808422243776
   302   2      2.0904973379898748      22.204262723765918      1.9622974597721554
   303   3        1.96403069168453      22.444355909269923    0.055228632714242054
   304   3   -0.026122296148879197      22.539776127202519      2.0458605359299944
   305   3      1.8199903814577085      20.312286886273228      2.0459519722381678
   306   4   -0.043957033964004834      20.053300465773638      3.9328748550282038
   307   2      2.0382227095668237      22.207955742080017      5.9767898651229707
   308   3       1.846850167849641      22.305165817206294      4.0881952173258824
   309   3  -0.0053064019773755465      22.334058568048867      6.3356693522869065
   310   3      1.9761975122165443      20.320683110023857      6.2372721675275296
   311   4   -0.018372613161404375      20.054922637846389      7.9465077361713918
   312   2      2.0855945265440452       22.17624527600195      10.057711240501675
   313   3      2.0018873204543808      22.459998644061656      8.1650258118137575
   314   3  -0.0025336003779703555      22.551907967214738      10.150386284050629
   315   3      1.8871971118125372      20.298269947737026      10.132255090906126
   316   4      4.4680618801551306      12.106389199434329   -0.059491966586913796
   317   1      6.1296868211642224       14.17003828868074      2.0151395159172041
   318   3      5.8680268743480086      14.214050329357812   -0.030285908423222405
   319   3      3.9563741172006766      14.210744336432771      2.1709014235587256
   320   3      5.9593829238356024      12.127393893434073      2.0786978072225795
   321   4      4.4657678913982668      12.114412231359861      4.0064726474691907
   322   2      6.2385777744376085      14.216695737547193      6.0681571343078904
   323   3      6.0073210281676808      14.263625753834363      4.1052725163630779
   324   3      3.9440972519498945      14.263367991327035      6.0351259433901223
   325   3      5.8870192590954744      12.240983680892207      6.0623782880963386
   326   4      4.4230302253589153      12.142327646572868      7.9543827795119482
   327   1      6.1307504619398081      14.179193425333501      10.091242243567224
   328   3      5.8497889624427275      14.198261786815721      8.0518880034011318
   329   3      3.9562243295464854      14.157423912867152      10.313078393112001
   330   3       5.991171154896012      12.129231504879753      10.245924117055154
   331   4      4.4627647071823873       16.17591784760392   -0.025519496786331485
   332   2        6.24270767119092      18.257700303789683      2.0346566273536961
   333   3      5.9929244235894821      18.297209235170509     0.06538579404950258
   334   3      3.9295610852535132      18.355595735254958      2.0084235260682632
   335   3      5.8747479250085712      16.291166038220055        2.02804465653479
   336   4      4.4600388007322174         16.165856644239      4.0041024345237304
   337   1      6.1237369570326567      18.220555603722268      6.0554760907202985
   338   3      5.8566119910504328      18.255092932516156      4.0110071548737016
   339   3       3.940959750633259      18.277502343905258      6.2090025106852451
   340   3      5.9334917575366406      16.181956177197115      6.1216887254524401
   341   4      4.4536861256775762      16.188970424767323      8.0541537792880451
   342   2      6.2330837668056196      18.260714145017214      10.120667553896642
   343   3      5.9889626122628998      18.286640701192407      8.1509583482578822
   344   3      3.9410476966359305      18.335349939270554       10.08421672608414
   345   3       5.863695463289444      16.277394843937937      10.115283185017873
   346   4      4.4670658426880729      20.215801539776468   -0.036646803546268869
   347   1      6.1294590037892407      22.261752042530308      2.0114699659283706
   348   3      5.8652275068656419      22.297502528241122   -0.040328500757249315
   349   3       3.950180636060062      22.280823499849564      2.1394100653419503
   350   3      5.9503834922700385      20.224718998071047      2.0726451899297968
   351   4      4.4530562094426784      20.224161159262092      4.0164896056577462
   352   2        6.22112095262887      22.303252813822738      6.0778983363362791
   353   3      5.9846786078360807      22.340132892382329      4.1067310519480396
   354   3       3.929796047111231      22.385339151233186      6.0714497991214751
   355   3      5.8827603500503738      20.329834237762885      6.0729119657063606
   356   4      4.4327442861554189      20.193433556341628      8.0161481205419935
   357   1      6.1171263638235382      22.252895968495135      10.107825407755293
   358   3      5.8596314004111036      22.297926256784272      8.0603277769440087
   359   3      3.9490507543648325      22.320377380271591      10.267009270988199
   360   3      5.9540974479526376      20.217358282335894      10.177040538479162
   361   4      8.3620379619189542      11.940232911697162    -0.20526471160628587
   362   2      10.150807702331416      14.015316060625388      2.0379935911735925
   363   3      10.159783281188078      14.506300111254651    0.048191023805693879
   364   3      8.1521497404561973      14.418025405408311      1.9456554182538335
   365   3      10.052306522266163      12.144601875253493      1.7695396278445865
   366   4      8.3714081441184369      11.949451318401849      4.1594720876525093
   367   1      10.167528699259879      14.156123486050836      6.0389918808623744
   368   3      9.9674318985343291      13.978068203484206      4.0013816519760983
   369   3      8.1018714921922541      14.159754262887088      6.2077265933514507
   370   3      10.133687975210234      12.151710699276725       6.364167436756353
   371   4      8.3704379599430627      11.959252682755627      7.8753718296970687
   372   2      10.166066570758288      14.053129583629808      10.117802115400739
   373   3      10.162318416897145      14.505432432830752      8.1471368666901327
   374   3      8.1480794628105198      14.424923647356957      10.048874091343091
   375   3      9.9949660831882365      12.159402553107164      9.9339780496153285
   376   4      8.3774181760431965      16.009820831674855     0.11818497238101094
   377   1      10.173319178959696      18.204967500813485      1.9999632162980727
   378   3      9.9742445675439786      18.027017335408974   -0.044940016211372481
   379   3      8.1063025255201762      18.194355415688982      2.1569408642778285
   380   3      10.143689973903193      16.199838211800675      2.3289283119720974
   381   4      8.3702126240751085      15.989824899290427      3.8339925485103024
   382   2      10.146659430357667      18.062825733737306      6.0843424271999007
   383   3      10.173152360704609      18.565740132612266      4.1052747899172291
   384   3      8.1546590006894633      18.447051020294925      5.9986077876552661
   385   3      10.071852819065752      16.195276875748707      5.8182238412244995
   386   4       8.356953673738218      16.012909813695316      8.2136453617668526
   387   1      10.159227310737814      18.198290240347049      10.106013459672591
   388   3      9.9900753472519845      18.022696578919856      8.0527096794414916
   389   3      8.0981216164484167      18.173738023463734      10.230048540297767
   390   3      10.152675915954429      16.189172127887318      10.440683276257211
   391   4      8.3743242640974724      20.032293632656152    -0.20620142844326361
   392   2      10.156876494128948      22.113285149358006      2.0409107620843496
   393   3      10.177440553156966      22.604572071332182     0.05867139756461149
   394   3      8.1572291702439301      22.508119536045708      1.9475177385777493
   395   3      10.058814731824691       20.24479932952503      1.7759997784254704
   396   4      8.3766102358857797      20.063211186106809      4.1656381548414014
   397   1      10.138762414989547      22.252519013234995       6.059358938232589
   398   3      9.9655061446505115       22.07167018268413      4.0089489517329513
   399   3       8.088538017171274      22.242442483899072      6.2054495413432402
   400   3      10.137066291434412      20.246692399894531       6.394997380002013
   401   4      8.3520741024499632      20.039286836843271      7.8908169169019873
   402   2      10.144221096340035      22.109236741959744      10.138847893520854
   403   3      10.164490009693381       22.61481415915976      8.1401558433560073
   404   3      8.1498151257585771      22.497364038812417       10.03406598955894
   405   3      10.071368137016657      20.242875055494213      9.8328192870889719
   406   4    -0.14078466059263894      12.083779685211713      11.865691647042112
   407   2      2.0624367391384735      14.103045904349557      14.079023135024569
   408   3      1.8439115358109972      14.201013050508415      12.194985501811074
   409   3    0.027482420783693309      14.153459991831259      14.420910514228602
   410   3      1.9885108871094335       12.19342188499996      14.354526219259746
   411   4   -0.032240493188161273      12.087707680290917      15.923741796524311
   412   2      2.0758916307547302      14.129693033785379      18.136751414929769
   413   3      2.0255332482064423      14.300709025266785      16.260971533256125
   414   3  -0.0085470504241697814      14.365145416003353      18.330379135308963
   415   3      1.8582012367240379      12.214610126394078      18.312296634125097
   416   4    0.021065256431784491      11.966782415277665      20.083147464319005
   417   2      2.0615859777704473      14.114210821583425      22.214797493422811
   418   3      1.8411193329545896      14.233148379855047      20.330327117565695
   419   3   -0.006978384450788919      14.228717288466768      22.540463627771054
   420   3      1.9735645530735924      12.216576264515156      22.461993804821475
   421   4    -0.15578822952007554      15.970534786440435      11.918944997098871
   422   2      2.0809641282172517       18.12426305101777       14.06560186129018
   423   3      2.0283114994708433      18.377896855753974      12.174156908323832
   424   3    0.044958142932730039      18.409856818336198      14.177343304232167
   425   3      1.8772072106180693      16.221146636903274      14.232843419475229
   426   4    -0.12873364759523823      16.104068704196838      15.882705486734071
   427   2      2.0527519456117109      18.150522435456026      18.128153642978802
   428   3      1.8540588224393741      18.254462754807172      16.245958476655932
   429   3  -0.0062856651984854062      18.266771464151176      18.460287213440804
   430   3      1.9601214809209289      16.250024291664673      18.408082455710495
   431   4   0.0033843456009251386      16.047659450881955      20.036860531190367
   432   2      2.0952684649281781      18.154823666889406      22.227763902319442
   433   3      1.9656115752646115      18.385379306522822      20.328746384146754
   434   3   -0.035063297063065234      18.462108890751473      22.346573287766326
   435   3      1.8503863025081428      16.260280711455888      22.343727954057311
   436   4     -0.1261379629984174      19.913968306288957      12.142611810055742
   437   2       2.054670467879459      22.184567016401683      14.086499780755634
   438   3      1.8419221950900739      22.340682834597228      12.193921110411869
   439   3    0.012282944736011154      22.364644101819657      14.374614356168223
   440   3      1.9964802724620467      20.297690507801033      14.316756475641565
   441   4   -0.094561422906401529      20.006937220894176      15.904946359603366
   442   2      2.0850564779993377      22.187096661813097       18.14222944919824
   443   3      1.9857734922236605      22.431066948149056      16.253378515102792
   444   3   -0.026077126085956522      22.490422826782545      18.275142664793322
   445   3      1.8517949879069142       20.28888653261307      18.295300623699273
   446   4    0.036141756096745616      20.018623976182905      20.093366347060346
   447   2      2.0526811554135018      22.212491386992053      22.211256436730903
   448   3      1.8101643572533563      22.311466607754433      20.311858443289449
   449   3   -0.049768419041805491      22.321465633088788      22.523041978767221
   450   3      1.9438275679393371      20.311776588166058      22.441908916854342
   451   4      4.3769938908559469      12.276393298908403      11.969034466549365
   452   2       6.219819695177935      14.224605980248016       14.18483600952881
   453   3      5.9902469078841776      14.222482083891453      12.218174079882818
   454   3      3.9532748258461314      14.246815522346921      14.156597372634224
   455   3      5.8733773583646744      12.185129157424035      14.204856050090445
   456   4      4.4172037776631123      12.215104473533215      16.252791158349055
   457   1      6.1304746032117148      14.186314263329621      18.225622143738967
   458   3      5.8513437310126806      14.187017313533902       16.16850727536016
   459   3      3.9407683156772575      14.198866877996382      18.377338996511856
   460   3      5.9202244608863275       12.14098285821801      18.242276014410287
   461   4      4.4532790335179877      12.168334179927385      20.222317171592564
   462   2      6.2366396789487011       14.21706135451851      22.292217948185666
   463   3      5.9807584719006321      14.240116703502286      20.317765372662976
   464   3      3.9394425347311044       14.28627086108447      22.282566700888111
   465   3      5.8874384541993177      12.242938502588935      22.284831997110569
   466   4      4.4395003485940201      16.157453676085254      12.036878554297321
   467   1      6.1231278465150192      18.207626601951954      14.153834014052027
   468   3      5.8582348898630272       18.23368643929772      12.101891811536072
   469   3      3.9521037671562143      18.247823566426931      14.320557094109198
   470   3      5.9563509426725387      16.161272104536099      14.233752585147998
   471   4      4.4540954774321202      16.208653801047394      16.163684512494569
   472   2      6.2395585646262326      18.258047193375294      18.236595658637423
   473   3      5.9802292777703938      18.276915341235632      16.262750315228889
   474   3      3.9290147837213829      18.314334865705273      18.230283331967538
   475   3      5.8716320902218246      16.282128804736828      18.226873162244395
   476   4      4.4561783445415042      16.164483233618625      20.187341346406527
   477   1      6.1283847692312419      18.219955968914643      22.267160306888584
   478   3      5.8683060453535241      18.249420211488349      20.214715178375247
   479   3      3.9449706507104358      18.263666432404946      22.413077405022729
   480   3      5.9428163184850336      16.181511500375873       22.32415551479037
   481   4      4.4508022167714589      20.200143745413115      12.108115113136762
   482   2      6.2344748361051359      22.298570814624256      14.176657359988042
   483   3      5.9933786081732814      22.343109669248602      12.206021836833806
   484   3      3.9365957503642259      22.385148825397273      14.162546194198551
   485   3      5.8793597635978347      20.321117527492635      14.162631002283126
   486   4      4.4502397345209461      20.178759451536507       16.10406896998613
   487   1      6.1259988960154335      22.248625523530951      18.208503640060801
   488   3      5.8654909927345953        22.2827241121946      16.159058262667799
   489   3      3.9358546149452631      22.302280781376556      18.362544555461156
   490   3      5.9386542231902224      20.213611639806615      18.272846307614945
   491   4      4.4590886446552522      20.217454728637474      20.217485899119392
   492   2      6.2449879917054201      22.295338237803985      22.279476042622743
   493   3      5.9838006414838416      22.330637110872711       20.31121403886188
   494   3       3.922688055152328       22.37569222604229      22.266316954033485
   495   3      5.8784178798116606      20.330648213542389      22.278216528485185
   496   4      8.4115919022121606       12.06248674524012      12.120798940629035
   497   1      10.155371556023026      14.142642347950538      14.147537917106966
   498   3      9.9582646981407521      13.977761126855512      12.105066354135616
   499   3         8.0809466133885      14.140214376936401      14.289956334415749
   500   3      10.093210754819676      12.118225372150086        14.4807308748188
   501   4      8.4286302071988413       12.02927967880405      16.121855611421569
   502   2      10.171082054811382      14.041182421802208      18.266841860404156
   503   3      10.148946998987524      14.481132531397026      16.244939171255709
   504   3      8.1522706997425551      14.401260024677057      18.149674722060318
   505   3      10.055125482828069      12.159777224148616      17.961383912494973
   506   4      8.3645230199526779      11.959332300209518      20.390646486607633
   507   1      10.166644721209746      14.157259519908829      22.254099798442731
   508   3      9.9732810511274383      13.971385233293653      20.212716709708083
   509   3      8.1010822881164675      14.154212857042321      22.395688182527355
   510   3      10.126296142565362      12.146718750610665      22.574543451969646
   511   4      8.3804388527589087       16.00407209556046      11.957950586915791
   512   2      10.161810700480265      18.065739281800315      14.185449478329067
   513   3      10.163028052076942      18.553354506626857      12.188390056271428
   514   3      8.1539956317522844      18.438676881811176      14.091972331671318
   515   3      10.070523184578546      16.193164367905855      13.907239998021238
   516   4      8.3863086536309766      16.011279501284346      16.341665989842895
   517   1      10.174488260966145       18.20169058389812      18.193509461966148
   518   3      9.9832373061261013      18.013417477457956      16.147642445275302
   519   3      8.1038564992699946      18.183132869730475      18.337451341560865
   520   3      10.133792229002447      16.191347665706626      18.521066734753671
   521   4      8.3736897377957664      16.003342019375765      20.061506632749012
   522   2      10.160508082925594      18.068909168060205      22.288463350136286
   523   3      10.163971315155058      18.551438126731583      20.296081611294984
   524   3      8.1546995918924683        18.4581254763408      22.196526949775848
   525   3      10.054418298848748      16.198791675671792      22.017734946680005
   526   4      8.3677082239171305      20.048160294781283      12.297361628585911
   527   1      10.166435108724379      22.242832472864396       14.14647447506667
   528   3      9.9743607040836881      22.057219566101704      12.095399225529937
   529   3      8.0995113128058893      22.225623115797635      14.285981340379045
   530   3      10.135124876164728      20.234522552034761      14.468587973248106
   531   4      8.3851052376100537         20.040541336649      16.000817023421817
   532   2      10.164126543049489      22.107763486504322      18.230047559735421
   533   3      10.158161586634478      22.587500214269323      16.239696049387359
   534   3      8.1526664713971471      22.488885247902648      18.142786569547855
   535   3      10.063826474327417      20.237346431447246      17.959954912937242
   536   4      8.3853549452505902      20.058057482931758      20.374296734058262
   537   1      10.176213509290124      22.249055807974383      22.247133289332751
   538   3      9.9745748339886298      22.068020903882758       20.19921708533758
   539   3      8.1083129644416747      22.234739136927793      22.397407251528165
   540   3      10.143507426280774      20.245505687299183      22.580136257083527
   541   4      12.213738401281542    -0.38134579764839438   -0.044723049668884358
   542   2      14.092340498415428      2.0411958320794903      1.9064367163545648
   543   3      14.299269184439705      1.7861389656403519    0.033942639905906596
   544   3       12.19613481223973      2.0546093857641412        2.12751449834037
   545   3      14.183887956724968    0.070832541820344042       2.362660989077654
   546   4      12.091653904992755   -0.091396000305248401      3.7177117418781096
   547   1      14.149906365493441      1.9868815225273608      6.0536189919190946
   548   3        14.2074107872309      2.3207802324475266      4.0312056250011201
   549   3      12.100884971212029       2.164007019563396      6.0636845107243644
   550   3      14.399548095360041   -0.050332863127766983      5.8890879203470554
   551   4      12.136454914149567    -0.31304796044505456      8.1474781853429388
   552   2       14.13559045080393      2.0698435995288058      9.9863180698769938
   553   3      14.233475156947192      1.7739958047088333      8.1050638435244515
   554   3      12.190057810650698      2.0194741653490542      10.254179902837368
   555   3      14.149611861509111    0.046996328837895271      10.415896641661172
   556   4      12.117382872833856      4.0120628059067363    -0.37660143663753576
   557   1      14.144902530217209      6.0408317798553837       2.006214755321285
   558   3      14.176272702816066      6.3621497587163987  -0.0019853742360484354
   559   3      12.100480592043429      6.1963016204521031      2.0304134762695272
   560   3      14.399751342974451       3.988737040676178      1.8566582506423639
   561   4      12.153634977953526      3.7026926640642621      4.0710771544884246
   562   2      14.132728816874726      6.0976113107028462      5.9326365004305801
   563   3      14.246292285213116      5.8025522951044657      4.0552093742569379
   564   3      12.191232229400747      6.0699536091478752      6.2058254822722239
   565   3      14.146090716816104      4.0917469640963784      6.3908426942427248
   566   4      12.112540735835507      3.9937739244088295      7.7419020041746096
   567   1       14.12229366791375      6.0502841013181738      10.099783541244657
   568   3      14.148449449336734      6.3861661206140425      8.0890286584806592
   569   3      12.080290584343617      6.2241988820123924      10.130135369107359
   570   3      14.308159296954877      4.0173937970272089      9.9121117961106151
   571   4      12.185949506821302      7.7222136582185446    -0.04229930569924964
   572   2        14.1499815660751      10.130476557957376      1.8624110606709596
   573   3      14.241343328487794      9.8574349328698254  -0.0073578193074193389
   574   3       12.20280810093365      10.121886615051924      2.1633882369178323
   575   3      14.144649193939502      8.1354031807323128      2.3510050131380722
   576   4      12.109436294090463      8.0548676776727817      3.6788874948626038
   577   1      14.128004580119489      10.091182382816356      6.0515095597191628
   578   3      14.169777915144909      10.409663058336484      4.0433117299232153
   579   3       12.08816234407132      10.259326436742224      6.0790348431090857
   580   3      14.323191915003457      8.0513794991162566      5.8616349123731952
   581   4       12.15408955728358       7.736052049907082      8.0690772457197557
   582   2      14.144336023307559      10.120215809466464      9.9581198186941933
   583   3      14.227283159997967      9.8518022543818713      8.0903703585653943
   584   3      12.184738872450648      10.135207713402925      10.272292544531913
   585   3      14.122224127937914      8.1424339249483637      10.458878382021995
   586   4      15.936431225157589    -0.20695540958462033     -0.2083867726093801
   587   2      18.225683440342657      2.0160119544937043      1.9302526685811543
   588   3      18.255383912127208      2.1016540738522131     0.03839469780724282
   589   3      16.272713410938781      1.9639879591219158      2.2210605238951073
   590   3        18.3827259198512    0.035599318544082055      2.1087428111645155
   591   4        15.9005578714651   0.0018108872294846385       3.942085693060589
   592   2      18.089004240645288      2.0436320257017009      6.1019608397439793
   593   3      18.357718885587669      2.0634513715508702      4.1356191503389415
   594   3      16.223945666741827      2.1645661908335256      6.0961142288084877
   595   3      18.274040571403944    0.041287481272779342      6.1935965039949981
   596   4      15.897970903054651    -0.11494634884079066      8.0176317767075584
   597   1      18.159860285093735      2.0380175109931211      10.129540368148032
   598   3      18.375392380841323      2.0692602057324017      8.0857128870300325
   599   3      16.140414514287439      1.9574492960304901      10.354596181852511
   600   3      18.452738092817004  -0.0033613744068419936      10.132152657369568
   601   4      15.931520209510955      4.1709963771039513    -0.20845808688387474
   602   2        18.0823358098494      6.1222854913212323      2.0530574589085111
   603   3      18.429957369219768       6.033482757864264     0.09468821711928091
   604   3      16.221095567012153      6.1781641253522155      2.0097454364775689
   605   3      18.265483912414705      4.0506412480102663      2.1428089439275317
   606   4      15.900043460808991      3.9269457902699934      3.8983333553093367
   607   1      18.176606855727698      6.0563395038971084      6.0671434836447871
   608   3      18.384131498768287      6.0751496456480867       4.020186075377949
   609   3      16.147781441693429      5.9909743503348771      6.3050403609753305
   610   3      18.441628193714717      4.0106715463667051      6.1216381233753916
   611   4      15.940197249960903      4.1551505860147593      7.8885491612011842
   612   2      18.045755173042849      6.0809124262576733      10.158127561422022
   613   3      18.412772076516628      6.0898674642634463      8.1823880476787654
   614   3      16.184347830047084      6.2014998061885782      10.088452745986951
   615   3        18.3114759254807      4.1181847419115485      10.175876141209701
   616   4      15.915931828814115      7.9048500219390982    -0.22311024954448391
   617   1      18.172629419634553      10.108303815024737      2.0104425031382487
   618   3      18.348651491923327      10.147374617101198   -0.027298261924252783
   619   3      16.150259472319636       10.03580962607893      2.2475501336047001
   620   3      18.424757182379679      8.0495336743343682      2.0631938038086974
   621   4      15.912384077608902      8.2375870629646002      3.8701634795765703
   622   2        18.0553029783092      10.120405024785711      6.0972962795583401
   623   3      18.411707071868495      10.119904748355589       4.128170653158648
   624   3      16.192798454374472      10.225264383594473      6.0427777312050814
   625   3      18.323480814000806      8.1459625796169011      6.1047746087040569
   626   4      15.933706366457224      7.8817790263424516      7.8934175939215017
   627   1      18.156175129740326      10.083963983579382      10.115078278905306
   628   3      18.361840766687706      10.119002433332538      8.0669760874199063
   629   3      16.134319333930605      10.034374068582293      10.346283882137797
   630   3      18.422178127288682      8.0533517324142672      10.162232102511474
   631   4      20.014931884855439    -0.17426042537314887    -0.23069859030451356
   632   1      22.225408856076587      2.0255809674455185       1.962139058356718
   633   3      22.512706309822349      2.0505352251796274   -0.067474330070854918
   634   3      20.196830040641803       2.068304965583013      2.1770026315842315
   635   3       22.23314058955631   -0.014649651576690858      2.3014744696448988
   636   4      20.239633756397563     0.14752170812292303      3.7425269778069428
   637   2      22.241168958338008      1.9578676228952212      6.0164896155993066
   638   3      22.320382208891083      2.1942349264200769      4.1455340974523347
   639   3      20.357933962881575      2.0205211346335905      6.1896815375828425
   640   3      22.466041998323252    0.066134932446876571      6.1278797854400295
   641   4      19.874393463674103    0.052133949272462725      8.1892144832321883
   642   2      22.216304886959207      2.0041732463454767      10.080365049161673
   643   3      22.459919409218962      2.1080040663605808      8.1836919939082975
   644   3      20.356583205133322      2.1851215696896067      10.168207945877601
   645   3      22.309712438948406     0.10724749377173842      10.311190535968127
   646   4      19.994480952401666      4.1804422970455377    -0.21792185742701958
   647   2      22.239978268176582      5.9794225593636678       1.945574237925606
   648   3      22.328351890877894      6.2503859654816472    0.059049873270322843
   649   3      20.354814480107166      6.0131098375127978      2.1331401216434198
   650   3      22.480988685041314      4.1141738934673784      2.0385286295864806
   651   4      19.914512409230561      4.0281805868838774      4.0114253168361689
   652   2      22.213325559337836      6.0070188190469098      6.0025417045659379
   653   3      22.448133384170767       6.103817698751099       4.106082881380356
   654   3      20.358114340321411      6.1868233345001471      6.0931587055813496
   655   3      22.329420800224579       4.115061186470319      6.2675266199248991
   656   4      19.840414004387661        4.02824250819548       8.094021011117114
   657   2      22.234019576252059       6.065954776441485      10.058685548536863
   658   3      22.347421474695484      6.2527459612613265      8.1549845903806695
   659   3       20.36349940599548      6.0640099367476328      10.222493525823159
   660   3      22.496157882271266      4.1447477627339131      10.187606309752686
   661   4      19.862515324286907      8.0601032790734095    -0.10003259967387412
   662   2      22.192338419934156      10.044589643667384      1.9603749521813083
   663   3      22.438835181807757      10.164976316564843    0.071033209815351273
   664   3      20.338197072858165      10.250217354211179        2.05774424142774
   665   3      22.299294747300138      8.1567155741034458      2.2184519458509255
   666   4      19.843858883413681      8.0621989199464767      4.0562070494605935
   667   2      22.238348698992709      10.030980476004711      6.0001438406646779
   668   3      22.318262519597571       10.29125006294891       4.107070079674326
   669   3      20.361606112638214      10.097391539219949       6.178524655986072
   670   3      22.467213604627471      8.1336443702507459      6.1012573862849369
   671   4      19.827922442639728      8.0509998588714211       8.072974370542747
   672   2      22.181016298392301      10.146423822477862      10.035579932279107
   673   3      22.456527838647414      10.104287636537627      8.1256174709795612
   674   3      20.320737910845086      10.178610595916487      10.129981344416652
   675   3      22.349933890389721      8.1438808608534377      10.308782564465657
   676   4      12.138021676910355    -0.06579621526081128      11.792261948195728
   677   1      14.129831004634015      1.9899864124079563      14.142679721703066
   678   3       14.14419817385245       2.342934116493705      12.138125867169627
   679   3      12.082964656066856      2.1689158077342365      14.171262077750352
   680   3      14.321533549741535   -0.047982863455913946      13.951586447303514
   681   4      12.198821176689368    -0.36726502717565185      16.127869829104004
   682   2      14.152432858307929      2.0334847607744746       18.05305434898963
   683   3      14.231611138788478      1.7820355064388069      16.183379856392481
   684   3      12.203731770813354      2.0253635670417194      18.359237147647168
   685   3      14.144660655295178    0.043808184878920541      18.533114483342519
   686   4      12.132610425541198   -0.047576584710588073      19.870344815117463
   687   1       14.15612668292672      1.9934442698090999      22.257736578704101
   688   3      14.160116252053747      2.3269194201983447      20.245932838376991
   689   3      12.106141203515477      2.1534737845189786      22.302819686306204
   690   3      14.336303257693819   -0.049945672849407811      22.108591576500672
   691   4      12.154028796613437      3.6892734332686987       12.12490466848709
   692   2      14.130120187522092       6.095205850838882      14.012510171063976
   693   3      14.233265928808871      5.8219941137195246      12.142880615625856
   694   3       12.18371228124335      6.1013271377237386      14.306051418054425
   695   3      14.126994776603171       4.102489100169449      14.491059492270578
   696   4      12.098642129129303      3.9994758451813746      15.826089930199933
   697   1      14.128438794634299      6.0496919677350265      18.199524870540415
   698   3      14.159542088825056      6.3750564647287753      16.191536394067281
   699   3      12.087543596174285      6.2249480309083705      18.217766068887258
   700   3      14.326005974372562      4.0036482904954172      18.027997137645695
   701   4       12.18841937907405      3.6749954380647751      20.198186613421935
   702   2       14.15046385685176        6.08468752637632      22.109386851645784
   703   3      14.230377293529045      5.8138514836725186      20.239556851800419
   704   3      12.202397269664885      6.0728330324041337      22.420951670678647
   705   3      14.147897024030552       4.094126493345712      22.595000445721418
   706   4       12.09105753469486       8.055850996916222      11.780033243619624
   707   1      14.150985398952741      10.103449471255441      14.155979999652004
   708   3      14.155418195101731      10.425752835401671      12.146569310301329
   709   3      12.118252880285961      10.208555980010132      14.213685921374026
   710   3      14.328504478354288      8.0576617432435214      13.971475158227955
   711   4       12.17136886656623      7.7225180105187947      16.174756056781817
   712   2      14.138959279362137      10.133329058391482      18.064333397286788
   713   3      14.249191445662046      9.8639757312209326       16.19682491864658
   714   3      12.192766117881694      10.129202683850055      18.355485216103435
   715   3      14.139351079001043      8.1462392538838877      18.552198947058756
   716   4      12.100109475936359      8.0458579520577977      19.878524480192237
   717   1      14.130590626051792       10.09632690341806      22.252393446894182
   718   3      14.163753824697073      10.419150388801183      20.244639733556944
   719   3      12.090817721615553      10.267142436627305      22.275307717107747
   720   3      14.323734077614846      8.0502053852118944      22.082789413558093
   721   4      15.933075892484181    0.072802764665214112      11.929205806677601
   722   2      18.053746814139753      2.0407498973985683       14.19713927580624
   723   3      18.423268716009186      2.0607679819310558      12.228348159767537
   724   3      16.192436332465821      2.1628563499311806      14.126049115844546
   725   3      18.327980134398803    0.080356075420030468      14.212215250171942
   726   4      15.934695277048801      -0.237314751680863      15.986561809401985
   727   1      18.167364788402743      2.0144044976350561      18.184100655299908
   728   3      18.360521894889203      2.0656413973718535      16.160899836868847
   729   3      16.149095734609205      1.9433641300054252       18.44662413739594
   730   3      18.433974891274065   -0.035413326212266269       18.26090509642556
   731   4      15.957663869484261    0.071375315107047865      19.987534557022375
   732   2      18.091057399050104      2.0327387913804906        22.1755941150351
   733   3      18.394171943943949      2.0473753630905764      20.290275899409625
   734   3      16.231349958157637      2.1568485824596975      22.245860235724127
   735   3      18.308038503361985    0.089201887304434957      22.395327234140957
   736   4      15.924145543040559      3.8477635127632013      11.964551886092936
   737   1      18.162653132838653      6.0728426430739075      14.161226204565796
   738   3      18.353622770784384      6.1083045822111615      12.120536199713245
   739   3      16.138410885079839      5.9972922532907216      14.395370566400494
   740   3      18.421275855131977      4.0261249437061748      14.212381538135656
   741   4      15.915540541645095      4.1784340792307049      15.989929695340743
   742   2      18.056357321261675      6.0888993722137421      18.241140351563061
   743   3      18.412314927426529       6.101088922513215      16.276825203719046
   744   3        16.1946526811345      6.1956742679708654      18.195246777598861
   745   3      18.317674173609358      4.1179850209213607      18.267453830750899
   746   4      15.904883203611615      3.8547401649342294      20.020086354232184
   747   1      18.161781980249827      6.0661488291520396      22.238484753306444
   748   3       18.38314214542104       6.103746478902317      20.212453423788091
   749   3      16.150054982547466       6.000347336689452      22.484291696738619
   750   3      18.447193836082509      4.0018800881172991      22.334856858780263
   751   4      15.911392122173412      8.2119158786615305       11.96694516174319
   752   2      18.061577542171932      10.120493207190131      14.205335876755855
   753   3      18.415597756995496      10.137159355728906      12.227777345652774
   754   3      16.199458071008376      10.236246383681534      14.135766763116765
   755   3      18.313571085658356      8.1539978546325269      14.220602778820854
   756   4      15.920363328026804      7.8970503319488117      15.984557288317491
   757   1      18.168160198383358      10.114404652041873      18.207535600911392
   758   3      18.365734906155918      10.143055847422294      16.170294832320565
   759   3      16.145992738274209      10.048457711074922      18.456837365721253
   760   3      18.434431586800663      8.0642612236949613       18.26460060527566
   761   4      15.923000948608797       8.235440784072189      20.052991129875608
   762   2      18.060010027732854      10.130529419402377      22.303802263234555
   763   3      18.417096318608802      10.123341643699719      20.334408154838528
   764   3      16.196595561378633      10.225540016084382      22.238739368018923
   765   3      18.328068263397771      8.1495579620453622      22.339231287764232
   766   4       19.83216594616157   0.0024201201747935399      12.105837874099835
   767   2      22.241095579842714      1.9838126617540224       14.12679162813167
   768   3      22.338410819541764      2.2395264168166453      12.225563573958848
   769   3      20.366062020942728      2.0608292730396607      14.281347375559594
   770   3      22.447071114450285    0.082833350685378976      14.214227408968666
   771   4      19.827220891709487   -0.031764279026491746      16.158696689081687
   772   2      22.197414118533775      1.9629648257544534      18.187761526526767
   773   3      22.453997109267249      2.0858658386293762      16.273043549025129
   774   3      20.340481728079247      2.1694183277206687      18.250764680525503
   775   3      22.300753645247116    0.060042399549897409      18.396256761845063
   776   4      19.893149708703156    -0.13383454314007473      20.117173432855488
   777   2      22.214963513004943      1.9219265996002695      22.289501705967364
   778   3      22.310415617934222      2.2347050350281288      20.306501322369414
   779   3      20.321016658381136      2.0195786840858223      22.415565729395396
   780   3      22.438129231467158    0.031113709740489277      22.267023303700732
   781   4      19.836618530283001      4.0257101867212866      12.123840796657829
   782   2      22.208954719502582      6.0570626405390069      14.103963273707212
   783   3      22.456546985047314      6.1181201983776434      12.209403532074921
   784   3      20.352250590419718      6.2018081717513684      14.207181539544248
   785   3      22.340556796676918      4.1419309198772218      14.359210762912729
   786   4      19.841788025472876      4.0365315188929358       16.14894271358714
   787   2      22.255151058883172      6.0167875341364034      18.139488034454121
   788   3      22.334662289984642      6.2526209482003994       16.25401332752152
   789   3      20.370498445176789      6.0598799009407927      18.324461482631989
   790   3      22.460246028991193      4.1170587528085587      18.260758833724388
   791   4      19.887969238587019      4.0421598999471735      20.118189895412879
   792   2      22.240422831181043      6.0299384591538097      22.178048492268307
   793   3      22.399659141806552      6.1276656874348614      20.295482009522008
   794   3      20.354101977692537      6.1464712937796957      22.387456321655513
   795   3      22.299146049309723      4.1308085473894902      22.423166579375806
   796   4      19.839066127618732      8.0920665691368026      12.113964823881403
   797   2       22.24593015665895      10.111632895951624       14.10229379670908
   798   3      22.342614519740952      10.227147016662666      12.199582193380357
   799   3      20.365497699496341      10.094292605995935      14.261772493349945
   800   3      22.483324480619871      8.1604907835641498      14.234769814252248
   801   4      19.842933892662124      8.0610509968029653      16.149360777388125
   802   2      22.203924576444944      10.063264630171274      18.154845832860204
   803   3      22.420555412719299      10.142449458239486      16.268387458242607
   804   3      20.344963198201956      10.243358681143741      18.281090156923501
   805   3      22.313114938218821      8.1605083565341392      18.411222024095164
   806   4      19.844847614241292      8.0869454806609671       20.19060045486847
   807   2      22.241243850184865      10.057705364561983      22.209548106597886
   808   3      22.302879197775297      10.285543420448333      20.325476115364125
   809   3      20.356300159100513      10.111861952691791      22.409991084368958
   810   3      22.424661559263669      8.1536077619338414      22.341751837752518
   811   4      12.109351702598023      12.107508895632732    -0.36820917780505069
   812   1      14.133962617247189      14.144363725055554      2.0028150270368239
   813   3      14.168157836217153      14.465927396422929   -0.001362517018904435
   814   3      12.097461535924943      14.309789527084172      2.0320481660645719
   815   3      14.328541432249242       12.09468391659645      1.8290019778897093
   816   4      12.180455567148336      11.776027071645322      4.0040830897919761
   817   2      14.161362430720626      14.185234208553274      5.9091288573567038
   818   3      14.245335265996228      13.913192960211539      4.0417554551250117
   819   3      12.208308545799479      14.182162918239197      6.2190538099588384
   820   3      14.132144485563039      12.187103053120506      6.3981133564274391
   821   4      12.118862901166578       12.10076295387181      7.7185041780156176
   822   1      14.146790925856433      14.133254299804623      10.095872743856937
   823   3       14.16986190302619      14.454976755687147      8.0936278322738815
   824   3      12.107857078299585      14.284216608697133      10.146492790059352
   825   3       14.29426518046683      12.087073867987051      9.9258251479790154
   826   4      12.192004930064146      15.834283536349677   -0.038795218376363107
   827   2      14.165344940266383      18.252322849262374      1.8773710393099019
   828   3      14.254077397302726      17.982782726422656   0.0067814315311982929
   829   3      12.213155405283333      18.237538402671223      2.1837514935741602
   830   3      14.149207861034894      16.247246683880633       2.350012309166416
   831   4      12.128101445043283      16.159289729657875      3.6782853375126003
   832   1      14.164227920310706      18.190551023876004      6.0621216465772916
   833   3      14.171381409924882      18.516381141704812      4.0642069715182663
   834   3      12.110646225497467      18.368484740824275       6.107732599843076
   835   3      14.337020043845532      16.148949181765605      5.8926126696265335
   836   4      12.216046637866796      15.836186116798133      8.0278184180473282
   837   2      14.138153214495647      18.244029146367538      9.9999768352495408
   838   3      14.326739088930671      18.003046197755843      8.1011168774710391
   839   3      12.196925852262879      18.221573151216258       10.21934623700789
   840   3      14.175027552712997      16.235442583813295      10.421753420451955
   841   4      12.131952925502432      20.211250903530377    -0.36889723664719437
   842   1       14.17568842752322      22.244614032001156      2.0354214301293285
   843   3      14.183168307092345      22.556027922244443    0.016864447981140916
   844   3      12.115347273970903      22.410413676067868      2.0777239408471391
   845   3      14.335153403733653      20.208387807030761      1.8486326424689918
   846   4      12.200560286937149      19.874824821619914      4.0136460469853521
   847   2      14.060414839979547      22.286950907293619      5.9954338286935949
   848   3      14.359011882129906      22.091332588266791      4.1065138801327326
   849   3      12.175550988199848      22.315074097580929       6.127044877481751
   850   3      14.200566430930742      20.330846072231381      6.4093856812370209
   851   4      12.078604816259208      20.123890324380945      7.7896116215300637
   852   1      14.161854381795225      22.219295837748096      10.081741224314991
   853   3      14.169506195918588      22.616528039230037      8.0615228994013854
   854   3      12.101637680258422      22.419119909964824      10.108273210537762
   855   3      14.298690821656395      20.198187634601304       9.851604876153095
   856   4      15.925375554693547      12.275857008522644    -0.19312478019723339
   857   2      18.054263731869252      14.170827799732526      2.0509128916186254
   858   3      18.415465005906359       14.17676464367919    0.084914681452687865
   859   3      16.192469520217543      14.287604683874244      1.9893538567238216
   860   3      18.309582113752455      12.202549244510642      2.0753641953514634
   861   4      15.927042326852263      11.939749415325895      3.8304590089877233
   862   1      18.169324335169598      14.136604683941911      6.0594678077886543
   863   3      18.340373618108092      14.187911728256001      4.0189202740851728
   864   3      16.146580288440028      14.070688305368282      6.3021003296896865
   865   3       18.43578903553523       12.08777541878559      6.1190842003953847
   866   4      15.917102853607537      12.262269636994841      7.9031229787102486
   867   2      18.108452522566061      14.105562090940399      10.124447088230792
   868   3       18.38534019875712      14.159825103793594      8.1451866865614804
   869   3       16.20204481625597      14.257430851548996      10.086430556300463
   870   3      18.298689825678554      12.148919948520801      10.131198256346984
   871   4       15.92367714686609      15.994615324645887    -0.20397904177510662
   872   1      18.172035078797986      18.199672131451031      2.0218240819612339
   873   3      18.355701708504611      18.279474679142691   -0.019376838477542305
   874   3      16.157663676995583      18.143674061389422      2.2776976905337047
   875   3       18.43142356193033       16.15642780593576       2.070635096675034
   876   4      15.936644546711616      16.310215802066161      3.8485735876089922
   877   2      18.129539664425881      18.102412643654233      6.1243087643987506
   878   3      18.440752042350816      18.283287536972949      4.1488661320410358
   879   3      16.257242032088019      18.404340218771189      6.0130434559549188
   880   3      18.227049994596619      16.225384069187342      6.0862660164641964
   881   4       15.95710710672989      15.955828377371885      7.9274291626200304
   882   1      18.185731115863955      18.196553941619058      10.095087191449835
   883   3      18.271637097473498      18.365207360574079      8.0532519533875995
   884   3      16.163238366840449      18.170669171963517      10.349093453776502
   885   3      18.276094789384786      16.156661890491076      10.253009970096725
   886   4      15.919377475907098       20.37294734246688    -0.19275394148098399
   887   2       18.12434203166562      22.223123967115757      2.0125496025658069
   888   3      18.436283436828518      22.319037259331097     0.10268767303875949
   889   3       16.26293085492463      22.428538653620901      1.9902943201857644
   890   3      18.277577473201177      20.323690661898091      2.1383550377194416
   891   4      15.967047095267958      20.000643712317853      3.9260328960178335
   892   2      18.191695261035381      22.261178706274283      6.0481496872711107
   893   3      18.229109583882636      22.376406611597972      4.1140469654790977
   894   3      16.288367091655399      22.241857556337031      6.2828674262026158
   895   3       18.42113829151992       20.34121518188563      6.1144849880945209
   896   4      15.949958256421247      20.149007264684442      7.9992791432204955
   897   2      18.098495803783209      22.250663087881719      10.195358068790302
   898   3      18.460190459561893      22.363501191481507      8.1146153214775261
   899   3      16.233771671660868       22.43295273942049      10.026122973174404
   900   3      18.283983742678636      20.333914207587497      10.070505381921528
   901   4      19.837246394414716      12.102328164962161   -0.030326763638778488
   902   2      22.239728593351085      14.084429697642816      2.0008693068393284
   903   3      22.298590926243257      14.345876275561995    0.094336681215564225
   904   3      20.351223517229737      14.179038168082068      2.1740124525150208
   905   3      22.444005834345202       12.19239411362924      2.0845952199836657
   906   4      19.830279659159984       12.08234712740297      4.0031666295205399
   907   2      22.175259610968403      14.081164642055072      6.0789007911972801
   908   3      22.464846532038148      14.219283627487476      4.1138815754085281
   909   3      20.309234259262436      14.314319046610093      6.0577989072861005
   910   3        22.2976536249924      12.178680507988384      6.2470661978177056
   911   4      19.847676253443044      12.059846212839304       8.095740536348746
   912   1      22.241237568042294      14.104083921062873      10.096916123231223
   913   3      22.247091993234445      14.422001864104665      8.0535838425769466
   914   3      20.234524245995857      14.302231742165326      10.164579462314316
   915   3      22.493015133701682      12.077362134632178      10.130646998766432
   916   4      19.846930369830169      16.107383178408785   -0.058131626095563313
   917   2      22.227331092907082      18.160527429518364      1.9735127369112646
   918   3      22.409704262636851      18.287452336851175    0.077435290083074634
   919   3      20.342084432623917      18.429749262390089      2.0907778058969848
   920   3      22.260283100742537      16.274518589043126      2.2234178868070251
   921   4      19.886540363405487       16.07676963021061      3.9816618797558205
   922   2      22.228872528386347      18.149168207234222       6.073994693708002
   923   3      22.267377826131661      18.461881830540129      4.1385121510063332
   924   3      20.321352056052675       18.28656853249197      6.1968348946896183
   925   3      22.411654565556358      16.268412436203494      6.0326055010550483
   926   4      20.112448262721728      15.818659590382206      8.2387329210689959
   927   2       22.19324314235924      18.142824579119548      10.149102886798289
   928   3      22.442962660005865      18.267121598089194      8.1396903462584422
   929   3      20.302837235818455      18.369552504500355      10.076704594702996
   930   3      22.299928660421401      16.258885915327113      10.255978863189688
   931   4      19.924973642240182      20.100902982651288    -0.11506189913352735
   932   2      22.220393125956178      22.267870236178336      1.9572226956516521
   933   3      22.247082286719859      22.469733116250481    0.059599577340480554
   934   3      20.302018489775033      22.310161431104135      2.2352194234196614
   935   3      22.430167717676834      20.337423014019933      2.0913575519940446
   936   4      20.023393568410185      20.008273197206922      3.9219410663539831
   937   2      22.210155916508349      22.215724570891336      6.0313379222909642
   938   3      22.457476240744178      22.281276364552134      4.1488369238152156
   939   3      20.323567534643342      22.446453152966356      6.0690648394777034
   940   3      22.283705317428332       20.33533961681194      6.2859643129674732
   941   4      19.918714167297026      20.084028589491982      8.2023258850974337
   942   2       22.22924833639027      22.218042913719131      10.060084299507054
   943   3      22.300470843463426      22.519050360198197      8.1623146743977806
   944   3      20.348003728842261      22.306494603974432      10.213570992961706
   945   3      22.433573704935725      20.338405897027524      10.066182487136125
   946   4      12.223903007591129      11.819509578785265      12.035319955602695
   947   2      14.169748859878771      14.200635950454499      13.996455560762248
   948   3      14.214437965228811       13.88073236948388      12.134718276200079
   949   3       12.20203067721617      14.150785948383001      14.323370703325148
   950   3      14.135084768765706      12.186230074876041      14.508385538939953
   951   4        12.1711980800989      12.192851142526253      15.858931908899246
   952   1      14.145042306220789      14.154122326225716       18.20677052463661
   953   3      14.170809854244068      14.450123443762973      16.192437861869021
   954   3      12.107536717771699      14.304983561532339       18.22156895517027
   955   3      14.315846817093055      12.102026791331959      18.023549838352956
   956   4      12.177892333434164      11.776361275930286      20.212862167629716
   957   2      14.150899516434484      14.182989764906226      22.116885154220373
   958   3      14.246500860039635      13.922887590498307      20.246569111868038
   959   3      12.205245808152341      14.175525066992956      22.421323917463205
   960   3      14.145333481045373      12.191907999433857      22.600107491369631
   961   4      12.157339997655512      16.153359786938992      11.790579718646599
   962   1      14.167506100032067      18.175369445656059      14.117891770151667
   963   3      14.155502211349761      18.542342423294095      12.114252182550349
   964   3      12.112133623604546      18.368131252871152      14.157633436351315
   965   3      14.296846228472134       16.13674704810126      13.979680874581765
   966   4      12.200039976747252      15.834136616311829      16.135704326027401
   967   2      14.174990240580046      18.261002062108112      18.032123429300171
   968   3      14.226002859779106       17.95207616764381      16.173152137097386
   969   3      12.215779592760514      18.208415522530608      18.375378246691874
   970   3      14.150341520561103       16.24338850501131      18.537287280412425
   971   4      12.158782103737149      16.199800649667509      19.875797314687581
   972   1      14.143502575701858      18.199569606725632      22.263396006943648
   973   3      14.192653531946657      18.482009350543379      20.251914488703679
   974   3      12.105213310942755      18.356706334254458      22.284035584884986
   975   3      14.327360054803371        16.1512787636116       22.09317366201477
   976   4      12.197572979981484      19.902979690467646      12.129485723002576
   977   2       14.16867769032565      22.275181803605022      13.996245907418606
   978   3      14.261580655858548       22.04783918635248      12.123244834101676
   979   3      12.209244119311297      22.254842462992404      14.287741918456307
   980   3      14.181017828390683       20.28900707112151      14.453276595020341
   981   4      12.177271561040412      20.212827783098138      15.811712268099065
   982   1      14.147643170997652      22.230266232370401      18.167321384219928
   983   3      14.137186721361637      22.605687074552343      16.174616958104796
   984   3      12.104264653598388      22.404691089010978      18.230556548641975
   985   3      14.292496486868535      20.194226121300908      18.076944815756683
   986   4      12.215962845670948      19.871260646148603      20.184694032385998
   987   2      14.164865487686273      22.293982494731441      22.108692827424711
   988   3      14.257323344060275      22.038774507166934      20.240506260177728
   989   3      12.216116168131261       22.28162007801183      22.426469152467579
   990   3      14.149712929515571        20.2969734373779       22.59382106076718
   991   4      15.933399552952491      11.931729324363824      11.940271210894876
   992   1      18.169823283850214      14.125296116792406      14.161584031286926
   993   3      18.336354511602522      14.100615571954306      12.123251681120166
   994   3      16.145974500792061       14.07587742669457      14.391399967547832
   995   3      18.441269820937851      12.089434580454915      14.216551895552971
   996   4       15.91471035738858      12.274268078453128      16.013557279093785
   997   2      18.061312556588447      14.167612206824156      18.258577874295629
   998   3      18.430200616928495      14.177630345023637      16.282105458686956
   999   3      16.202060359667609      14.280029851929513      18.180833618835642
  1000   3      18.316747781612793      12.202403136082388      18.285972385512757
  1001   4      15.921401408723822      11.944486279443341      20.037453753343382
  1002   1      18.167182946213735      14.155068371747232      22.261620026672855
  1003   3      18.353630623148714      14.209805763349909      20.223972399670121
  1004   3      16.149501624871053      14.094109339205867      22.510847695557032
  1005   3      18.424617927894484      12.104239497870706      22.313507050300561
  1006   4      16.100487787710417      16.237297190376378      11.797339274240443
  1007   2      18.168801856179034      18.107391450783542      14.146947020600413
  1008   3      18.318241189102075      18.333485713573548      12.179155879154735
  1009   3      16.230466666237859      18.360112123672032      14.122460952954278
  1010   3      18.266695399583824      16.184795063500875       14.19441086263287
  1011   4      15.932255839568633      15.999902128780954      15.985618462053351
  1012   1        18.1804207414107      18.200243819144969      18.198771719884434
  1013   3      18.339329151810748      18.179686305106326      16.167628961899723
  1014   3      16.155600453737851      18.140559364225265       18.43053464757358
  1015   3      18.453383592326919      16.146516709743995      18.250211212685489
  1016   4      15.901474319703327      16.350462749233316      20.063045680912811
  1017   2      18.060069210190974      18.221528690757584      22.305584502453534
  1018   3      18.410581450283146       18.22002934817062      20.334399921394006
  1019   3      16.201349840468993      18.346842029675898      22.254331055028963
  1020   3      18.310381618798953      16.258033668677232      22.343169624189599
  1021   4      16.069948132719773      19.928533570758479      12.034896010064895
  1022   1      18.199112451007398      22.273886285077428      14.143456232636515
  1023   3      18.283339721802371      22.378143570611169       12.10354100638248
  1024   3      16.164193807525628      22.222867148809332      14.396096792393896
  1025   3      18.256433809227392      20.237450377619258      14.317374519636338
  1026   4      16.163383552416743      20.253590868426482      15.790150703937694
  1027   2      18.070689742795185      22.243073538547105      18.201151873841887
  1028   3      18.402925641451162      22.338806203029289      16.270448879324832
  1029   3      16.205679595326679      22.417726606372998      18.202531869405895
  1030   3      18.291450283534637      20.297583254633402      18.288071661462485
  1031   4      15.931864824760421      20.045548506250586      20.026490895128774
  1032   1      18.174216868556243      22.256095237717499       22.23843753442754
  1033   3      18.370586121397331      22.316135146630689      20.208153117716627
  1034   3      16.162044962642174      22.190258968809207      22.509651308911142
  1035   3      18.449974610863791      20.211657775789874      22.304130910838229
  1036   4      19.845342452982329      12.105126128306996      12.114430409187474
  1037   2      22.177836450785485       14.19484111761879      14.076458538607158
  1038   3      22.460373184805771      14.125744667045435      12.192378524953021
  1039   3      20.310412758964578      14.209870677449638      14.158559749276145
  1040   3      22.348886147886663      12.166316360079552       14.34688643407697
  1041   4      19.851070226515276      12.125656355777078      16.156684402888757
  1042   2      22.243190746603901      14.093253589497115      18.162911688699769
  1043   3      22.308151618718504      14.267914156860586      16.272336361796548
  1044   3      20.361630141669878      14.155317421638379      18.343359927854834
  1045   3      22.454551128784995      12.186947739671886      18.309503635099915
  1046   4      19.842577819630847      12.084682089169625      20.197846242075531
  1047   2      22.195368007840845      14.100158263461983      22.227708507664644
  1048   3      22.419528240904175      14.212281475351382      20.337266968357071
  1049   3      20.336909379072598       14.30861230616622      22.333419824833403
  1050   3      22.293502688802135      12.202949563761244      22.475763739990253
  1051   4      19.953291578529164      15.934408812867439      11.964902878964537
  1052   1      22.220884717160594      18.170849486194264      14.146229066059371
  1053   3      22.247963898529914      18.480886395441971      12.097130364633607
  1054   3      20.212243534514418      18.377873416728487      14.172325661487889
  1055   3      22.460444541662387      16.128950751055381      14.193808954254191
  1056   4      19.842853091475757      16.141484884842594      16.186198783245448
  1057   2      22.196331773998651      18.139745527868048       18.13701124840194
  1058   3      22.427165840162242      18.229199152126984      16.264076798532571
  1059   3      20.336892392003698      18.327540836473254      18.255591024551411
  1060   3      22.309691862244179       16.23232477835414      18.395561104109351
  1061   4      19.838220377537414      16.150425491067708      20.216698369018875
  1062   2      22.249202382557648      18.129054104944903      22.203504543814013
  1063   3      22.299101399003217      18.377134712341299      20.319002921744943
  1064   3      20.357365011116883      18.231336460758943      22.428753090733665
  1065   3      22.436179365866693      16.241970818173815      22.352488422969714
  1066   4      20.055623951863314      19.930100168984943      12.258660689947746
  1067   2      22.192872977552529      22.223000628225805      14.092858421272968
  1068   3      22.450438514306381       22.34296237664816      12.181617964191409
  1069   3       20.33200952293193      22.376220101075518      14.166058223729957
  1070   3      22.343519588700314      20.349552804625791      14.303931830448418
  1071   4      19.895659586982354      20.070904512836613      15.997585669005916
  1072   2      22.243818179240769      22.174825923754259      18.116297496522648
  1073   3      22.307778316684615      22.458370488463242      16.231344117056739
  1074   3      20.363615540915845      22.291236601948015      18.343859208168109
  1075   3      22.434408685648286      20.285082083377898      18.250050294130848
  1076   4      19.829359878712847       20.17102368882167        20.1781337329294
  1077   2      22.237744861073587      22.170709639896291      22.162585351266781
  1078   3      22.406991063416303      22.296426466441531      20.280357664607855
  1079   3       20.35549703034372      22.474365050262442      22.339374254507455
  1080   3       22.24702789491397      20.297479784867658      22.458383440276773
