(written by ASE)

1080 atoms
4 atom types

0.0      24.299999999999997  xlo xhi
0.0      24.299999999999997  ylo yhi
0.0      24.299999999999997  zlo zhi

Atoms # atomic

     1   4    -0.13004019501065717   -0.089888836059901556    -0.28435175783110811
     2   2      2.0473232856707622      1.9470734376976671      1.9379721049203409
     3   3      1.8307105290181227      2.0678721486930831    0.046756979567235929
     4   3   -0.020418535756276467       2.084230303709024      2.2742884210143757
     5   3      1.9449823825153081    0.063881477811463083       2.191197895541809
     6   4  -0.0051504085082584323    -0.16420211959715517       3.871260102220043
     7   2      2.0990513776618998      1.9584035516791796      6.0096522702310571
     8   3      1.9831202785565523      2.2007648712002505      4.1120107640423234
     9   3  -0.0020411655929379749      2.2911105400024474      6.1344703684912076
    10   3      1.8544008898166111    0.071448970712921278      6.1182215185099071
    11   4  -0.0056817854505480233    -0.20100126534930229      7.9775916346276006
    12   2      2.0673600301271384      1.9576821227746588      10.057102003675565
    13   3      1.8373586136812168      2.0906631270855787      8.1571841326975356
    14   3    0.015889399792366338      2.0963313232708662      10.376276360593438
    15   3      1.9777532420819084    0.066448590333436017      10.277346089220472
    16   4   -0.096233653384408008      3.8233810411519493    -0.28189759380235463
    17   2      2.0885690921331426       5.986292828658736      1.9407243371943343
    18   3      1.9850846334997534      6.2449108306893715    0.045829116116223444
    19   3  -0.0060290008464304167      6.3131044627129533      2.0817930976825139
    20   3      1.8553668855586418       4.100454107985172      2.0773680354875736
    21   4   0.0051039172302886574      3.8450799813825483       3.922987150743118
    22   2      2.0679445394758567      6.0148928648813911      5.9958306553187812
    23   3      1.8477108210044766      6.1342405497313797      4.0981661451846012
    24   3    0.017129189210735776      6.1545209257117817      6.3062018856213689
    25   3      1.9875367821166345      4.1225532141483905      6.2372507175301495
    26   4 -0.00091198985033298858      3.9116157375334937      7.9114704157663516
    27   2       2.100434038071977      6.0057727395214133      10.054886477965699
    28   3      2.0067044133269873      6.2537746539407024       8.158581898432713
    29   3    0.012799087527997103       6.325651363801521      10.187202824595671
    30   3      1.8809019735700092       4.115918450522285      10.173697081781846
    31   4    0.008442605500013101      7.8855005410421013    -0.15221849261863621
    32   2      2.0611166352547872      10.053870992985281      1.9562344852256628
    33   3      1.8441115426984052      10.183409521270054    0.054946056458149463
    34   3   0.0009600886514623372      10.172351529198986      2.2561735989457055
    35   3      1.9819370971284438      8.1608016615466603      2.1790679797180013
    36   4  -0.0038187206674180595      7.9525482753603267      3.8448529400736349
    37   2      2.1141835481967566       10.06060012070898      5.9975969458828056
    38   3      1.9979980205100514      10.297936524084255      4.0961645477728474
    39   3     0.01027594518065243      10.352374438573282      6.1230475477716935
    40   3      1.8719419082773709      8.1633139758763953      6.1131883903939288
    41   4  -0.0058205905551608084      7.9234192834122164      7.9347981384454878
    42   2      2.0589283437759485      10.060375103329763      10.018006615136848
    43   3       1.883137042321787      10.162351070207862      8.1339406188495271
    44   3    0.028513695609971551      10.171031943757157      10.368725921501987
    45   3      2.0057872786877109      8.1708474814648042      10.295360242871736
    46   4      4.4458147325648607   -0.036967646418696799   -0.035163222521863748
    47   2      6.2288865026006563      2.0478706886374027      2.0303287700904806
    48   3      5.9916530928461906      2.0858128042958013    0.059436875683219342
    49   3      3.9271198223498889      2.1230452937407716       2.015219867537414
    50   3      5.8728729543240714     0.07544810090834124      2.0221928642755822
    51   4       4.436599871768399   -0.065892800269579263      3.9655142162301904
    52   1      6.1188241585469649      2.0064525823157497      6.0581828735093604
    53   3      5.8626787683184407      2.0501507959481287      4.0090118087829945
    54   3      3.9542626053938443      2.0685636369501519      6.2103611267167311
    55   3      5.9476121659663175   -0.027584219487834991      6.1219509792402667
    56   4       4.454936996250165   -0.044697543444629569      8.0681899705332061
    57   2      6.2315631205714226      2.0512968937172626      10.125317955937003
    58   3      5.9916740599822678      2.0924663818015525      8.1565887935596653
    59   3      3.9472175580865176      2.1377759483118277      10.112429750790982
    60   3      5.8859493540617978    0.077219078997141033      10.122794717763668
    61   4      4.4481750726139753      3.9696231867183731   -0.080961340077544228
    62   1      6.1238393572682916      6.0488736436447388       2.005714859356031
    63   3      5.8629634705903078        6.09723886197217   -0.043570599559268376
    64   3      3.9445947311023422      6.1122899227166743      2.1478074311404813
    65   3      5.9415145564287606      4.0138180703256587      2.0692106287239018
    66   4      4.4554328138835553      4.0043078565970607      4.0090083475874172
    67   2      6.2350235206307003      6.1000565791415511      6.0732787868014562
    68   3      5.9892580320180606      6.1370186537822828      4.1033635350074436
    69   3      3.9483268033628747      6.1949053926255884      6.0647324889498995
    70   3      5.8837026765560445      4.1289392761564407      6.0752372166351964
    71   4      4.4623520266608514      3.9988454731396743      8.0357815967311357
    72   1      6.1229797070884633      6.0564837954001716      10.110105689306415
    73   3      5.8730984057849822      6.1033906382759762      8.0588316458261371
    74   3      3.9605518033276392      6.1258301689258001      10.264833053532843
    75   3      5.9495525411857404      4.0221846216912676      10.169259503881221
    76   4      4.4585648637373234      8.0456555689094653   -0.028220016271736179
    77   2      6.2410462597434639      10.149650958401031      2.0270146204956632
    78   3      5.9833830020244747      10.191399277883805    0.056313593057944596
    79   3      3.9404639790284257      10.243195381850558      2.0099511261321066
    80   3      5.8832209033603702      8.1785503670293007      2.0205810365646322
    81   4      4.4637319659825492      8.0404051622281667       3.979704642116118
    82   1      6.1285586045636222      10.104320849048532       6.055248770674079
    83   3      5.8751944761640091      10.155055057285727      4.0032883414112206
    84   3      3.9711054090439784      10.158152289312293       6.190117828096354
    85   3      5.9568334250733486      8.0687801597854616      6.1154117489037345
    86   4      4.4636961680144749      8.0542874082516125      8.0558134849049665
    87   2      6.2350627108524339      10.149498325861494      10.124798684136882
    88   3      5.9959796133070276      10.192517453308342      8.1567730493430837
    89   3      3.9487564226700922      10.256976205523404      10.134688556829962
    90   3       5.887038902443547       8.181553817734839      10.122688904508212
    91   4      8.3777213554544581    -0.19573607754199376     0.11353200952082698
    92   1       10.14829077630786      2.0006108535138902      2.0032818145382061
    93   3      9.9640539529566716      1.8136467679457027   -0.042195364676897953
    94   3      8.0941287321781417      1.9743803763647527      2.1493267648347403
    95   3      10.151573976628701  -0.0057785285927033437      2.3459396288346079
    96   4      8.3587928912278677    -0.21012386986604542      3.8359215477865152
    97   2      10.139943326819521      1.8601493278964096       6.087819713775863
    98   3      10.162313051196199      2.3642416661634802      4.0928700801637961
    99   3      8.1508349114054504      2.2522504359801165      5.9958820637113632
   100   3      10.061528599119391  -0.0045017085405853171      5.7933439557578197
   101   4      8.3446559824638022     -0.2053352165296454      8.2270208530360538
   102   1      10.150986814534113      1.9995165047297148      10.102734569965071
   103   3       9.990152064683171      1.8035206283906893      8.0492739768767656
   104   3      8.0975462646754757      1.9784344818060347      10.240836910382178
   105   3      10.134144403284536   -0.014191824521309394      10.423002914503661
   106   4      8.3735153743538753      3.8305112226048399    -0.20397710688338888
   107   2      10.157733862462072      5.9069529719096554       2.031287749344227
   108   3      10.157071067841819      6.3943591449282424    0.041999122359541022
   109   3      8.1491855407137752      6.2998912700775032      1.9441862327980939
   110   3      10.041597166011153      4.0391538745260744      1.7605809421321044
   111   4       8.358872069987159      3.8521257903786501      4.1600494582626597
   112   1      10.155664899914596       6.049280958936218      6.0489978884078877
   113   3      9.9749744105090379      5.8608256539761294      3.9991398653921122
   114   3      8.0998232034097501      6.0258337399136837      6.1918189845716336
   115   3      10.138116446051981      4.0389758057863228      6.3765608973756667
   116   4      8.3578264041021111      3.8485832335653098      7.8871153097658961
   117   2      10.137698952845422      5.9069018196983452      10.142557125080682
   118   3       10.14807068144138      6.3976327804633621      8.1465590306797893
   119   3       8.144803250534622      6.3019275825066474      10.047996733918199
   120   3      10.051926498003684      4.0396018885538165      9.8610427243808232
   121   4      8.3733320298357352      7.8960742921551121     0.13321517384951204
   122   1      10.165765393783163      10.097326672158461      1.9942852712995336
   123   3      9.9780758584451839       9.929612094913205   -0.050832436683943952
   124   3      8.1039617270871585      10.086769760691604      2.1350352345983441
   125   3      10.133380414995854      8.0862227855560409      2.3163167382730867
   126   4       8.370493465364758      7.8783651461080284      3.8390775648487878
   127   2      10.146333600783247      9.9569075919235672      6.0835979013128867
   128   3       10.15574854398656      10.444347624071746      4.0924188750636876
   129   3       8.148642395298209      10.352272025345101      5.9931578167633388
   130   3      10.050393686055527      8.0878655232816783      5.8181112138119397
   131   4      8.3625430883282359      7.8974220401184079        8.22200429912907
   132   1      10.155917311864881      10.100173706185881      10.096893058440539
   133   3      9.9690992873675608      9.9239953348437258      8.0503228884316407
   134   3      8.0988169659169742      10.091848073906744      10.252964346934066
   135   3      10.125266649616579      8.0923775999721173      10.421982417447605
   136   4   -0.011832740056763697    -0.16319928438152217      11.940795263519737
   137   2      2.1098526321889248      1.9509788315881464      14.113619566281074
   138   3      2.0114533039179787      2.2000424790277004      12.211185762137285
   139   3    0.011637849720767529      2.2714727355887643      14.201739634581969
   140   3      1.8671759558880583    0.059952698403027589      14.222677217048052
   141   4  -0.0055975410866747786    -0.20798880547037743      16.046189545142926
   142   2      2.0707034033026863        1.93642774338463      18.153370780907451
   143   3      1.8442903724987432      2.0663811059627855       16.24209600252091
   144   3    0.034130873720010765      2.0854086987555185      18.398567346282945
   145   3      1.9762489786915856    0.039938489326126196      18.387012481819358
   146   4   -0.062226820984994935    -0.12598503918989487      20.036270274332946
   147   2      2.0786524555994217      1.9386183454793466      22.186261126637998
   148   3      2.0313139725512381      2.1757099255816654       20.28218769877715
   149   3    0.036774337434079089      2.2423384091184664      22.275382759440753
   150   3       1.842559196625587    0.036467791774321037       22.31648448916398
   151   4   -0.010907927501308198      3.8152768336917706      12.059206890331383
   152   2      2.0507170042164642       5.995964953952539      14.107429919158141
   153   3      1.8693349227217948        6.14813421457354      12.208124237576202
   154   3    0.027734965542286581      6.1694769793190982      14.387630214701957
   155   3      2.0183639890126419      4.1147864610123115      14.328083121936112
   156   4   -0.047493709889612525      3.8085174784305833      16.081895109891345
   157   2      2.0967111271654923       5.979688993075337      18.168524049130184
   158   3      2.0131790839305217      6.2836820075912518      16.263170819421898
   159   3    0.012611451123102807       6.345788599012792      18.253781737638441
   160   3      1.9206796501547954      4.1032295695982972      18.232429047014698
   161   4    -0.12519297512838062      3.7009697196277096      20.217021712931899
   162   2      2.0561727784540706      5.9847657243891446      22.186348609469164
   163   3      1.8548833092694266      6.1487837421844986      20.290367880350555
   164   3 -0.00059547637745417236      6.1290761459381997      22.479862957787688
   165   3      2.0130772452883914      4.1019269005214332      22.412930151270611
   166   4   0.0042950801718370287      7.9523107755049045      11.948564870308221
   167   2      2.0765593213812896      10.083188246474075      14.089005060724583
   168   3      2.0339140262588544      10.315910745482446      12.205864380875939
   169   3    0.020043692984449298      10.368804055473351      14.235653650182702
   170   3      1.8924771929580393       8.189330409319501      14.231563797346906
   171   4    0.028062527381868901      7.9026188750575583      16.053782097627234
   172   2      2.0722072097856175      10.079819866323593      18.155626671454112
   173   3      1.8732751484378749      10.196650076819564       16.27041669950561
   174   3    0.017591683185402034      10.167716433971124      18.482169821200362
   175   3      2.0127300261765968      8.1933267191021066      18.405014763359894
   176   4    0.011781519453439949       7.988674921712672      20.004610071628896
   177   2      2.0840454517565856      10.048161652148265       22.22252098829528
   178   3      2.0066645142878623      10.305215069725795      20.327397270248152
   179   3    -0.00411746768896353      10.346420574256497      22.346093731073871
   180   3      1.8690670349880223       8.158711769958968      22.326095280305868
   181   4      4.4708596597271058   -0.066221953178713863      12.095618916942511
   182   1      6.1222625571826681      2.0051170185327987      14.159940977321805
   183   3      5.8713652383838264      2.0564622701578199      12.108855764877656
   184   3      3.9654863313336137      2.0631870984325893      14.316467569438579
   185   3       5.942982572630501   -0.027059669375562569      14.187417633093924
   186   4      4.4685736863023582   -0.063084140627747684      16.153938357989563
   187   2      6.2337337563852913       2.039369737263975      18.225204662899962
   188   3      6.0082880968001993      2.0829225943757947       16.25698405093641
   189   3      3.9574151888100557      2.1062211967573123      18.192115105782968
   190   3      5.8888901219614347    0.069247778409361929       18.23841564089772
   191   4      4.4697819443022819   -0.054396979970680742      20.192291169666696
   192   1      6.1245794042503787      2.0000625559911449      22.264653115726219
   193   3      5.8658716726973497      2.0462806012104302      20.214609138926072
   194   3      3.9490449005466948      2.0499759046828681      22.426047604174165
   195   3      5.9475969368827029   -0.037765627995092206      22.327496017913099
   196   4      4.4603911547594786      4.0053936421776131      12.112162315724724
   197   2      6.2357891057117687      6.1047292440153136      14.178384083627877
   198   3      5.9897744098220125      6.1464082574026424      12.212489063425473
   199   3      3.9435338786090286      6.2301482554150152      14.193784377072838
   200   3      5.8848287887137039      4.1334055692079659       14.17594812031828
   201   4      4.4606538682604295      3.9836687187539597      16.140604081664932
   202   1      6.1180442010136797      6.0447722579830199      18.213012215710943
   203   3      5.8603134211505727      6.0952023682798124      16.165702226221711
   204   3      3.9577868683751856      6.1509074334499978      18.356628281971201
   205   3      5.9401368278206714      4.0116671040374126      18.273936081712815
   206   4      4.4593368121598251      3.9896196667491837      20.218718576633854
   207   2      6.2399974333872468      6.0967398975186748      22.283132434940601
   208   3      5.9837090091642899      6.1458932745327779      20.309511291914539
   209   3      3.9341966814677316      6.1997749474727399      22.250783841552352
   210   3      5.8771403423579551      4.1275378696990952      22.269613160339841
   211   4      4.4446226211120781      8.0306373878262622      12.065632907672132
   212   1      6.1256121947565401      10.108375640511822      14.164266681482568
   213   3      5.8668316181616849      10.158627668295662      12.111894666292613
   214   3      3.9590498402274976      10.201969484509373      14.358174843938922
   215   3      5.9533960570990123      8.0769380545919507      14.244387515885245
   216   4      4.3831209135543281      7.9711006361214203      16.100787522401024
   217   2      6.1896855138788753      10.099589331404943      18.222421469524495
   218   3      6.0120455275654532      10.294932720981127      16.284989335993803
   219   3      3.9629595414925012      10.324760165769201      18.232262193002565
   220   3      5.9020946119950155       8.190642842180095      18.223453492463641
   221   4      4.4344220916134196      7.9988354536635606      20.224186423522205
   222   1      6.1323219598526144      10.100379635469848      22.269477144533024
   223   3      5.8557139634372586      10.181270006917726      20.216331408364383
   224   3      3.9506267568139788      10.194482911496758      22.396863618399667
   225   3      5.9370099357857056      8.0678652558023742      22.319051068481961
   226   4      8.3512114795423038    -0.20917466594343129      11.945962641157706
   227   2      10.139145298541063      1.8487551383907974      14.195659393019682
   228   3      10.149159521470301      2.3468017858401589       12.19441112944331
   229   3      8.1463870714247122      2.2460873144549534      14.090835845811554
   230   3      10.056843758172592   -0.016451428780665765      13.897838171626139
   231   4      8.3358532645298649    -0.23731818520588505      16.326947234950953
   232   1      10.162050947772963        1.99039992667987      18.197729193956302
   233   3      9.9715324414716306      1.8127665015885182      16.150885584039205
   234   3      8.1005066129306176      1.9802926947155193      18.357304261900328
   235   3      10.140181941713449   -0.017973221846657148       18.53186759847366
   236   4      8.3645766878643943    -0.21008253927581208       20.04194355808449
   237   2      10.164525950465206      1.8561894380025203      22.297185197056223
   238   3      10.165316026641031      2.3408982114014538      20.302261282386322
   239   3      8.1542063897064097      2.2442160076796718      22.194822091493702
   240   3      10.061599215185087   -0.012919420231926106      22.022445044782504
   241   4      8.3569774491531028      3.8383087837533454      12.277193628166957
   242   1      10.155106341006544      6.0486145729374083      14.151223385878129
   243   3      9.9728103137352111      5.8716645590077352      12.103969531334876
   244   3      8.0981061865312078      6.0375827642245641      14.300325545906507
   245   3      10.127719057152195      4.0368041322488679      14.470234404648791
   246   4      8.3612269758309967      3.8341735923988125      15.992287105620424
   247   2      10.135230405897241      5.9037474835395489      18.240794233568245
   248   3      10.149102218398195      6.3923153210120827      16.246860321174839
   249   3       8.140653719126556       6.301984655837999      18.144985324445326
   250   3      10.055781493654116      4.0360350854059508      17.966400546286884
   251   4      8.3630183335064405      3.8233747300799643      20.377576501451482
   252   1      10.164707354616299       6.043885544781153      22.245819709012508
   253   3      9.9708071448392186      5.8805720440922444      20.199900869935743
   254   3      8.1017259910556287      6.0352246098928912      22.390323851243245
   255   3      10.140579265428931      4.0339722354789833      22.578593196227636
   256   4      8.3608305498642572      7.8924662737153133      11.944062515718159
   257   2      10.136675018149965       9.964474311620144      14.196870438930759
   258   3      10.149858284273387      10.445063663765701      12.199502575530202
   259   3      8.1424862644000466      10.360346591102207      14.089419667909702
   260   3        10.0468610729109      8.0952130473372943      13.929328548933348
   261   4      8.3661437316711886      7.8932418377665607      16.324320639807318
   262   1      10.139144145291089      10.126130408708507      18.198388215027819
   263   3      9.9571211222879192      9.9459959610146687      16.156718499724708
   264   3      8.0581513574810035      10.126068614347135      18.356929465212286
   265   3      10.115435950035328      8.1055992427505075      18.512465569763759
   266   4      8.3701406220987415      7.8879278197095832      20.049355654943326
   267   2      10.132931548803185      9.9622346596534985      22.282856557393444
   268   3      10.146838382444729      10.453116855732121      20.291654242904041
   269   3      8.1473563681020149      10.343946986370527      22.203260791415957
   270   3      10.061571158036006       8.091349242545709      22.008842645881472
   271   4   0.0034646752490649158      12.004116357877779    -0.20436142924581396
   272   2      2.0974691229461149      14.117131721919879       1.971717613458134
   273   3      1.9760652311252309      14.359460118893773    0.072756167141527398
   274   3   -0.033073166959010823      14.411484507487003      2.0782402097509514
   275   3      1.8508218880479776      12.217340898549855      2.0640919396428941
   276   4  -0.0059260694827267292      11.937446469673469      3.9114521142117376
   277   2      2.0718758068538596       14.10018269204571      5.9821069281411399
   278   3      1.8289770582882601      14.222742654357612      4.0892075679569011
   279   3    0.026458274949591954      14.145474548114155       6.317389426016101
   280   3      2.0098289914176437      12.197691595545773      6.2183767006284523
   281   4   -0.056085884610862238      12.083938465072336      7.8174568217921871
   282   2      2.1026581288319255      14.099166673717056      10.002011519213053
   283   3      2.0443157247357875      14.307978767335074      8.1280752312977036
   284   3   0.0084659233553389321      14.366604640643295      10.213563628252745
   285   3      1.8773659003153904      12.199677323466613      10.172163498773452
   286   4  -0.0040715827503907259      16.007485391597466    -0.13017618109414339
   287   2      2.0503711316687276      18.168902019178002      1.9786060769889198
   288   3      1.8085113966553124       18.26493582290167    0.069063210384828794
   289   3   -0.018355465902001569      18.257941759762634      2.2792776945731279
   290   3       1.958521836368829      16.262594727162355      2.1972271246875397
   291   4   -0.066797665958312796      16.079186476522583      3.8762567944158297
   292   2      2.0873326410343807      18.139871304955886       6.027653142187102
   293   3      2.0249926233861113      18.379247629454586      4.1116537432555962
   294   3    0.028705153965383489      18.426835663371229      6.0725249372265369
   295   3       1.866934904071347      16.230041168483151      6.1140830695631214
   296   4   -0.095263456757091761      16.097631929658505      7.8042641093236327
   297   2      2.0924782911916933      18.140121414829416      10.112957126873104
   298   3      1.8011456973576689      18.265256090331402      8.1421836757167849
   299   3   -0.047335136427080413      18.261086935159693      10.327808368572857
   300   3      1.9655018020328319      16.229419028798063      10.260578484119781
   301   4   -0.069966668857965778      20.122873013615607    -0.19170730295219654
   302   2      2.0562330059395695      22.193207799459952      1.9480202784558664
   303   3      1.9974361205784446      22.423458865016951    0.058851298064958563
   304   3   -0.059496825075174835      22.511094736852858      2.0941800634327317
   305   3      1.8693858496139724      20.302641000484385      2.0556295225348413
   306   4    -0.13103282655574192      19.893610014909015      4.0802130562714032
   307   2       2.049308903583269      22.200661127711108      5.9946532749825199
   308   3      1.8167464885516691       22.35172837186397      4.1055331282325964
   309   3    -0.02403653613550482       22.36778776861253      6.2779360159466968
   310   3      1.9917500628543261      20.314719946701707       6.226574560089797
   311   4    -0.03089525977113141      19.947568647309978      7.8959347238387538
   312   2      2.0873116052175438      22.192039854458539      10.027882615397221
   313   3      1.9709244701109083      22.474487942465039      8.1347425289843098
   314   3   -0.021498012612088863      22.533467787875882      10.150917386071146
   315   3      1.8421547186695468      20.310581826138737      10.096346191503555
   316   4      4.4549582179518668      12.081902596318596   -0.032464316955960609
   317   1      6.1302142174409617      14.163108842419918      2.0166350902638599
   318   3      5.8782106735791402      14.222532164666493   -0.035225595625446901
   319   3      3.9531651034450368      14.216263801620389      2.1493243777291955
   320   3      5.9473231781714881      12.122314895740928      2.0568289008755656
   321   4      4.4727117805431513      12.112977849835962      4.0147861766867541
   322   2      6.2390557627534742      14.206190801832994      6.0690770798173697
   323   3      6.0059312835465501      14.236722513871001        4.09984422780503
   324   3       3.955532975118675      14.279537615792641       6.034235701427991
   325   3      5.8959452252519347      12.231121574741211      6.0733930156480964
   326   4      4.4692322408383349      12.102693884973629      8.0231576850609692
   327   1      6.1159411280823068       14.17164812937391      10.095742560273441
   328   3      5.8688810281791257       14.20714805897553      8.0510309802401636
   329   3      3.9550198967798162      14.212437367470145      10.271265015192547
   330   3      5.9500752018187013      12.126333734961188      10.167596222719391
   331   4      4.4576350714279425      16.194350344213554   0.0030713563317078902
   332   2      6.2415794830371372      18.262113831764193      2.0350517098407868
   333   3      5.9935868319938184      18.285426253064617     0.06778339704745262
   334   3      3.9363456313369758      18.316868952744471      1.9987159786458619
   335   3      5.8936813822799143       16.28659379876029      2.0346703154813071
   336   4      4.4680169043666389      16.168852152241818      3.9960119353614578
   337   1      6.1302094283403834      18.219244933548335      6.0473932383855562
   338   3      5.8564215842204002      18.262127453100454      4.0086291504491776
   339   3      3.9617043698651813      18.261482918720933      6.2367622724371818
   340   3      5.9513982858395069      16.176258158014075      6.1043717575122791
   341   4       4.461299943326023      16.175090415274582      8.0470637312053128
   342   2      6.2579775433193534       18.27089144206149      10.090775046730467
   343   3      6.0251397995487919      18.295397469321308      8.1356450655341241
   344   3      3.9651813590105331      18.307260440563468      10.055640669423905
   345   3      5.8748388886207534      16.292893132730136      10.114494693162451
   346   4      4.4543997859766291      20.230091077503822   -0.025856651794299062
   347   1      6.1245435870687972      22.268611811282884      2.0128965898338604
   348   3      5.8532991649389015      22.296195807430259   -0.032587332043925388
   349   3      3.9182313241075479      22.322756909757512      2.1734358762029666
   350   3      5.9292722876590735      20.228539671812754      2.0646330586167752
   351   4      4.4402938382859061      20.223461457655016      4.0139809279659353
   352   2      6.2254016762739859      22.311551410061664       6.074236720742606
   353   3      5.9839692372549287      22.340038393593325      4.1028557001086856
   354   3      3.9297044406912347      22.393380298305832      6.0562830223054647
   355   3      5.8784978130955032      20.335351645286682      6.0661440944687657
   356   4      4.4391086811684088       20.18760754188359      8.0057988265518265
   357   1       6.105819972480993      22.244855777281728      10.117651792925217
   358   3      5.8660212913021939      22.301370148528676      8.0563512069803078
   359   3      3.9387383999314998      22.307083439438088      10.225157072683666
   360   3      5.9434742243836194      20.211628653811925      10.173637760332905
   361   4      8.3743010135428566      11.937364922948568    -0.20573221573682246
   362   2      10.153586754258933      14.012990882953632      2.0362195157417746
   363   3      10.157018624193661      14.506230322636265    0.043851173852062122
   364   3      8.1531438407374015      14.406660398301678      1.9420089875768576
   365   3      10.059979247952393      12.143803196288863      1.7639623380021896
   366   4      8.3746002282852778      11.948974112797277      4.1711450472740692
   367   1      10.165855081225217      14.149070172123265      6.0398286552129239
   368   3      9.9683425681793185      13.975210720747764      3.9991575118836469
   369   3      8.1048226505661898      14.152798590982581      6.2009449449480201
   370   3      10.128422361827118       12.14320217872695      6.3679424992973752
   371   4      8.3609614229106786      11.931975068103181      7.8823276040386991
   372   2      10.134700632013788       14.01140722866565      10.138468445572487
   373   3      10.162964747467067      14.504919671316493      8.1460896622852701
   374   3      8.1470998322685233      14.415699624368658      10.035347335122763
   375   3      10.051780199047078      12.145072133633457      9.8783570791830506
   376   4      8.3748125330614549      16.007290888179465      0.1327406810542244
   377   1      10.175874505029922      18.207936229532312      2.0055893923095667
   378   3      9.9810880871183656      18.015288909006006   -0.032035402577623363
   379   3      8.1058806191144459       18.21205209702417      2.1574989264274773
   380   3      10.139072455013926      16.198943770809848      2.3295050457167386
   381   4      8.3675052388455118      15.977776631164547      3.8364895684719591
   382   2      10.150153938008618      18.063637620716232      6.0732152049837662
   383   3      10.178520455544678      18.575973042690148      4.0983659216405721
   384   3      8.1623033019967846       18.46187182596773       5.985969887039448
   385   3       10.06806267977246      16.196004285346792      5.8125748313023067
   386   4       8.369631523986131      15.994108209259499      8.2000648136360521
   387   1      10.163887393768428      18.207095872467892      10.089507429724113
   388   3      10.001656725356249      18.037614453870841      8.0410778822847693
   389   3      8.1179198340732359      18.200244006132383      10.245170123993276
   390   3      10.142012806196176       16.20564348548513      10.421388065191914
   391   4      8.3705659835293886      20.058429302742574    -0.19796861811832187
   392   2      10.164679361195713      22.119272169546406      2.0387678098504862
   393   3      10.182003989748599      22.611717338106359    0.056897275854983768
   394   3      8.1602777543411715      22.499888869084209      1.9441688844167631
   395   3      10.070031296809942      20.250007716970028      1.7637004217673304
   396   4      8.3743200767978596       20.06943960618041       4.154443075645216
   397   1      10.140244193666259      22.256855081401604      6.0529604138233664
   398   3      9.9780402073640992       22.07005897711835      4.0035405295458295
   399   3      8.0929957992749788      22.234259435518187      6.1929346128317597
   400   3      10.146951885592065      20.253673646512311      6.3921204968139405
   401   4      8.3558129823878602      20.054204525626258      7.8707883922650463
   402   2      10.143733582013805      22.113469900524688      10.137971500998891
   403   3      10.163676604533086      22.619302671073683      8.1372346240092099
   404   3      8.1492172476839606      22.488336983025636      10.042400037006852
   405   3      10.090715229757931       20.24764385574457      9.8303329337169743
   406   4    0.021184558527497826      11.972754594985554      11.970750234407754
   407   2       2.089274876622321       14.20087205153744      14.064120512902262
   408   3      1.8766279404986232      14.203220105097639       12.18604952689379
   409   3   0.0047997174740647096       14.17593098662241      14.412857884746378
   410   3      2.0025023934214543       12.22473782387709      14.387666013913632
   411   4    0.059739918267665504      12.102595076439487      15.934843613972426
   412   2      2.0943510329352875      14.117380602966316      18.172977312141111
   413   3      1.9722701275353185      14.286242213053418      16.303049435312712
   414   3 -0.00045903247750861734      14.371116538283434      18.339069325936826
   415   3      1.8396080794493912      12.218960249054659      18.326434092148251
   416   4  7.8491521449557353e-05      11.978098005022396      20.078680638239774
   417   2      2.0567900281910521      14.116265160113302      22.221102259787099
   418   3      1.8441678564337161      14.227423785240882      20.333114172297456
   419   3   -0.010690125213844862      14.235715207957941       22.52769814405799
   420   3      1.9649388634356915      12.218769156617993      22.464211500599621
   421   4    0.084099825390216335      16.071799905647222      11.930811793847724
   422   1      2.0503374723132897      18.195644860938398      14.109517770492454
   423   3      1.9970589285306866      18.406619680638794      12.075546250832183
   424   3   -0.048977028191611011      18.426418897100458      14.170590870945704
   425   3       1.881027353329193      16.152531626915859      14.281238748769566
   426   4     0.12079576785177192      16.095400508055956      15.920638932148607
   427   2      2.0633843323549521      18.143723509701498      18.162895392180211
   428   3      1.8054894501293373      18.246470221653965      16.298419457658039
   429   3  -0.0025122538251408947      18.254690657350178      18.511571562165752
   430   3      1.9669706439158696      16.241919332696309      18.429238161926044
   431   4   -0.010684990392619987      16.057946893317968       20.05340676102734
   432   2      2.0931247955647581       18.16935336813556      22.248583114277487
   433   3      1.9990080544629054      18.390862293010187      20.344486487885479
   434   3   -0.024042641336332757      18.470994965504151      22.329470101465105
   435   3      1.8375263236885238       16.26588833010781      22.347360087647687
   436   4       0.146375886312785      19.914405137761552       12.09989618602369
   437   2      2.0599831892951532      22.203503747521715      14.077210352958195
   438   3       1.845818538707128      22.326359667803629      12.178955555341757
   439   3  -0.0010425627880147684      22.339685969922272      14.369917718950187
   440   3      1.9889887897669467      20.329245140692098      14.326691439980582
   441   4    0.084758460975711089      20.027730754725191      15.919560630728744
   442   2      2.1041532325942973      22.189807682430651      18.155869988475519
   443   3      1.9708211886330358      22.434977713903006      16.263575780209763
   444   3    -0.02160304132172939      22.499016916292952      18.276987895885622
   445   3      1.8471806645921574      20.291811010999293      18.299991593524975
   446   4     0.01355080388894871      20.022781643468676      20.125043733306043
   447   2      2.0540322777494842      22.207297768731141      22.208948906203695
   448   3      1.8211228259762098      22.317817202145076      20.308692924356237
   449   3   -0.023873331245395278      22.278976851509487      22.525629365519286
   450   3      1.9732400077689949      20.304666687681458       22.44229664872497
   451   4       4.410751804596952      12.062521717137738      12.037727959845515
   452   2      6.2052725902848556       14.20074414221193      14.100143631194795
   453   3      6.0222079282983296      14.271385616657634      12.193510891147215
   454   3      3.9864975309721706      14.266308687839937      14.241648875261772
   455   3      5.8736822582527752      12.246599926836597      14.180546448072491
   456   4      4.2987757667715165      12.004449925569071      15.962877466372808
   457   2      6.1118750951721363      14.192455542978925      18.167460724183769
   458   3      5.9223331053564925      14.167715998388731      16.257981491260718
   459   3      3.9769879801835604      14.174640798326664      18.384302571330963
   460   3      6.0113777730464344      12.236647831316262      18.368480265468943
   461   4      4.3822580119667522      12.007470581301211      20.326549471757673
   462   2      6.2160773003014889      14.207154149474693      22.310443991680767
   463   3      5.9873510668134866      14.265930161301464      20.289505129991156
   464   3      3.9375556587496479      14.290893835556934      22.280189375928842
   465   3      5.8796502555941306      12.242411689118249      22.276546166287286
   466   4      4.4235679023987986      16.245662669202641      12.037934604097801
   467   1      6.1256024791772843      18.208782269993073      14.130287025845982
   468   3      5.8594695361957756      18.231647144429804      12.085619037374029
   469   3      4.0320614887532829      18.238474102675632       14.38693782757159
   470   3      5.9749562751919738      16.159972834625577      14.255419402367682
   471   4      4.2152610064751315      16.433556292976565      15.834743290758485
   472   2      6.2098150692977718      18.284509730285802      18.220235260945536
   473   3      6.0478457044688314      18.257552527140671      16.277806173047356
   474   3       3.949213673385362      18.303491960803864      18.204566178927632
   475   3      5.8811909921587331      16.211289334330065      18.312628778956174
   476   4      4.4268384788892297      16.273682972156774      20.314493997570928
   477   1      6.1334986231430459      18.230653196378583      22.287846614684735
   478   3      5.8340122389507485      18.218713323138651      20.238885169228951
   479   3      3.9505505809613513      18.241199864652767      22.431408645849711
   480   3      5.9248866486058711      16.182832404962323      22.301649902470654
   481   4       4.399082697106599      20.120222010433057      12.146469561948754
   482   2      6.2342935945558837      22.295500129927611      14.180635101889912
   483   3       5.978877932763397      22.345143461396489      12.202769272877598
   484   3        3.93993954997338      22.376712161292041      14.180769069589633
   485   3      5.8737609437502618      20.325757376677544      14.141196603679976
   486   4      4.2745985761941734      20.019900407636563      15.887101534383902
   487   1      6.1100275020312989      22.231659966414057      18.193061729853039
   488   3      5.9297765714800432       22.34838933441473      16.148032102666996
   489   3       3.953345097838048      22.289443752940343      18.357331470993589
   490   3        6.01676973570141      20.198643894801499      18.358635609870429
   491   4      4.4614604154407926      20.223837701989517      20.241707602735538
   492   2      6.2405096234200714      22.300075079457333      22.285950252579518
   493   3      5.9877697678088388      22.333582713194506      20.320336860550455
   494   3      3.9313461768471831      22.374870392841665      22.259724381620551
   495   3      5.8698923305143538      20.328824356117607      22.287892248792815
   496   4      8.3582260528604433      11.931963862042187      12.266804904614624
   497   1      10.141940525565939      14.156845091665778      14.153663354259615
   498   3      9.9651293021772869      14.010601902076408      12.104649134506795
   499   3      8.0657319876378661      14.144970345149378      14.319248476532019
   500   3      10.124960030171463      12.156008464617839      14.471100115390398
   501   4      8.3472906784124969      11.956202605261717      15.993569643157063
   502   2      10.237019826760537      14.067596578861504      18.247642465072385
   503   3      10.108126341844175       14.52852338732191      16.280450307181958
   504   3      8.0179087150716732      14.347836879594468      18.186259009766498
   505   3      9.9933362122522649      12.196675937621821      17.981669967764503
   506   4      8.3613018296982808      11.958127527001739      20.340233583168338
   507   1      10.154565197708836      14.158027893160149      22.241615791532897
   508   3      9.9056945982337599      13.997421316215457      20.190115941664384
   509   3      8.0796427364153889      14.168197703592151       22.39678646128359
   510   3      10.129183685174921      12.151384592694166      22.572646443425423
   511   4      8.3686888286604422      16.013198800490908      11.924321585637928
   512   2       10.17337794009307      18.108845827975568      14.163419048801744
   513   3      10.169438882183545      18.560507343478815      12.190069710810535
   514   3      8.1410696411644672      18.472057692287894      14.085503780631814
   515   3      9.9975036678085445      16.214509914259576      13.973023324131736
   516   4      8.3973365877766071      16.120340204272495      16.154287614267638
   517   1      10.150070286951275      18.189413934562857      18.193602309785906
   518   3      9.9357837771967663      18.023680366244317      16.151476299683843
   519   3      8.0742284669735174      18.151965870397937      18.378114649658009
   520   3      10.100771671043958      16.168808432052852       18.53969235545048
   521   4      8.4158917579893995      16.093348587521159      20.148713799697724
   522   2      10.168450662251047      18.090974424834631      22.319559476928454
   523   3      10.152401148738807      18.530946667894593      20.300726306946061
   524   3      8.1565833591641255      18.460231962857172      22.204098462685781
   525   3      10.055853409321733      16.211100279232095      22.012460143504299
   526   4      8.3347150282791578      20.060487836026006      12.269194238578237
   527   1      10.164940515191361       22.24436715565562      14.141564503551578
   528   3       9.994665311282759      22.047266330524938      12.092729984799796
   529   3      8.1046264735419022      22.212903645898727       14.25315742553196
   530   3      10.146806740105813      20.235456281468412       14.48095550194393
   531   4      8.3515210029754847      20.041901478631843      15.993589893586423
   532   2      10.147660287937429      22.105567929955118      18.245111010197384
   533   3      10.145315829503275      22.585016960003713      16.244206216652945
   534   3      8.1472264035269113      22.501082816835215       18.15689445521247
   535   3      10.032911628595132       20.23342418917975      17.974612747467198
   536   4      8.3632224153481047        20.0412772506177       20.35278882186611
   537   1      10.177266568674646      22.250175517012512      22.252621316463127
   538   3      9.9812269618053762      22.056835024262767      20.207392218760589
   539   3      8.1049881358106024      22.226388092574776      22.415934533427041
   540   3       10.15589332574023      20.242707241811353      22.598379286291124
   541   4      12.227913348750681    -0.37476885988299341   -0.033269747073005208
   542   2      14.076929229961367      2.0573391347142072      1.9116296488880666
   543   3      14.316971992754684      1.7902929314629263    0.040267258159427437
   544   3       12.18559404663611      2.0602251412453536      2.1130467122437562
   545   3      14.182088143951843    0.082220714400449854      2.3619250532530653
   546   4      12.105873552262572   -0.092672368899497634      3.7149789716382529
   547   1      14.154976703204403      1.9952934790114818      6.0379309903168785
   548   3      14.188731411528018      2.3459987507566105      4.0250236524873459
   549   3      12.101846610049407      2.1674294801402856      6.0651414997855051
   550   3      14.394107826677194   -0.043496401230356981      5.9090919984954056
   551   4      12.129026511121586    -0.31119087742662366      8.1350963092984419
   552   2      14.131631623867813      2.0715792061171641      9.9880999045569627
   553   3      14.245967249356033      1.7830175359594691      8.1022611545562331
   554   3      12.190255217410634      2.0155116144127709      10.248247589590791
   555   3      14.158047960463463     0.04894941981781805       10.41620954741996
   556   4       12.13565376911211      4.0204176371411178    -0.38104493873212492
   557   1      14.152489903102207      6.0333907849519708      1.9827370624273715
   558   3      14.156880577949511      6.3890690725780326   -0.014721633783618975
   559   3      12.103894569258497      6.1926381618025523      2.0280101548049303
   560   3      14.413644688234545      3.9898074318407302      1.8623464093821758
   561   4      12.148784211597784      3.7131936555015885      4.0749955512423224
   562   2      14.133227889143821      6.1154558277184643      5.9352576698343729
   563   3      14.240844340745678      5.8158208930753554      4.0537163467703481
   564   3      12.192808034677361      6.0671412402674081      6.2128649694323217
   565   3      14.154185420102705      4.0956377718655608      6.3823764075482012
   566   4      12.115466059265906      3.9971344360510854      7.7360017005793305
   567   1      14.128919806594901      6.0547061612632307      10.108246695801181
   568   3      14.162941932754229      6.3744482781627028      8.0949613067921007
   569   3      12.087496988628756      6.2193084965523608       10.12516791726668
   570   3      14.318892042111811      4.0179906149664735      9.9164285838068515
   571   4      12.187115354604332      7.7321813204597811   -0.060844341575967922
   572   2      14.153453708032885      10.129329724919796      1.8574035154661048
   573   3      14.240053779280684      9.8621700550538822   -0.012150862142247231
   574   3      12.205254131026196       10.11849349635993       2.162203730772466
   575   3      14.149195646900667       8.135595000600766      2.3447126523596009
   576   4      12.124011580394574      8.0537392107121253      3.6701310255249817
   577   1      14.130683111618298      10.093878173771865      6.0504021431048578
   578   3      14.162233352813757      10.418700737059968      4.0421882226647217
   579   3      12.092067566518125      10.259200617996473      6.0789156467832539
   580   3      14.316117253702142      8.0577907396341715      5.8761928191100559
   581   4      12.156784964848363      7.7357438143549579       8.080156862934448
   582   2      14.139449104868625      10.136447119211828      9.9698590570853867
   583   3      14.236616887440782      9.8615585810552258      8.0994606427963198
   584   3      12.193942819408875       10.12487666010391      10.266060976151385
   585   3      14.136921072098497      8.1446045307934245      10.455851521756429
   586   4      15.988543715213192    -0.20059794730912386    -0.21089270947226621
   587   2      18.169647004713308      2.0031004369015042      1.9888395084766386
   588   3      18.217335530738723      2.1354289384644112    0.091306248616211325
   589   3      16.276414087362298      1.9634133212010438      2.2267280610328561
   590   3      18.443791646663978    0.085794751714908302      2.1232135435313633
   591   4      15.897533210456853   -0.088058552560651815      3.9333250108099693
   592   2      18.099226225921161      2.0601860519341564      6.1106210581622165
   593   3      18.453222796528721      2.0582754777725376      4.1155364020207914
   594   3       16.23888681088825      2.1526216826716724      6.0667414433604208
   595   3      18.317029204871584    0.058496550112436971      6.1742868132259421
   596   4      15.869315202551974   -0.080340406556976024      7.9808479848623568
   597   1      18.169314568896958      2.0355719692860199      10.128580504780416
   598   3      18.361788620323498      2.0724828364242804      8.0759840760373773
   599   3      16.147408469900157      1.9550001625369211      10.348454102280611
   600   3      18.445184316029135   -0.018575968281978269      10.133984680391134
   601   4      16.017967593368045      4.0677850190327565    -0.29685839519949919
   602   2       18.09597429986928      6.0925208658598384       2.015812963169866
   603   3      18.402219130868414      6.0780215012239349    0.085950656166817296
   604   3      16.228089121154007      6.2003246077054825       2.030645607111834
   605   3      18.270322722483229      4.0590421253830904      2.1883467170049364
   606   4       15.87229460357988       3.969912807350092      3.9133391126301387
   607   1      18.164152041938351      6.0830946471660745      6.0804249060855771
   608   3      18.386560074494962      6.0944556089629796      4.0333362081717175
   609   3      16.145143429130716      6.0005357059960334      6.3006149152419617
   610   3       18.43627659999423      4.0275394851181927        6.11060027285159
   611   4      15.922383267448653      4.1881754413406087      7.9056894855401101
   612   2      18.059537575688907      6.0900687483532865       10.16336973719115
   613   3      18.416567284106339      6.0895891450604394      8.1878902671060754
   614   3      16.195955935611718      6.1973009426125865      10.094043808440416
   615   3      18.320337081392417      4.1204705764589615       10.18195339911966
   616   4      15.932587093831582      7.8756108158661862    -0.21904911460372917
   617   1      18.173946716023394      10.102501734442271      2.0066583228598325
   618   3      18.353156638278037       10.14994815149176   -0.033732785952197419
   619   3        16.1514053562084      10.033259385962841      2.2505218488697993
   620   3      18.422117186266433      8.0481567379697925      2.0780048451060198
   621   4      15.946575904788595      8.2024363537344627      3.8296436170054329
   622   2      18.052180902387228      10.121303654812715      6.1100292394076101
   623   3      18.404088911512378      10.122810822566258      4.1353013901149147
   624   3      16.189890190263132      10.237427306070126      6.0542691903192312
   625   3      18.315123103092411       8.154667389172376       6.135170723996703
   626   4      15.926257493803721      7.9045507971647959      7.9065771594018139
   627   1      18.169008489736282      10.110688882334603      10.119541833014784
   628   3      18.351836347273288      10.152167692411668      8.0785054346595047
   629   3      16.143381709855721       10.04323741890874      10.360849455299071
   630   3      18.430357862071922      8.0660515870977765      10.163308219426728
   631   4      20.146054514354169   -0.032810353594576326    -0.36403227981320341
   632   2      22.218319716784226      1.9787589008012365      1.9623333113583012
   633   3      22.454714917874483      2.0621110992842815     0.09677200936996555
   634   3      20.314306899521167      2.1802372524471263      2.0449661173072848
   635   3      22.255940951666247    0.086205183888568543      2.2378550455107269
   636   4      20.051521676685333   -0.089359879002909204      3.9937949197565916
   637   2      22.242017414488323      1.9826026963374028      6.0334433307917461
   638   3      22.301722910249353      2.2388663575693424      4.1366855506491653
   639   3      20.356669448324133      2.0472087833016022       6.213034408617319
   640   3      22.445667896504958    0.099055685931201468      6.1356862333400306
   641   4      19.896880287056597    0.054527445051739822       8.188317151128075
   642   2       22.21240169468631      1.9719944588091161       10.09527957913366
   643   3      22.462549884582625      2.1083380554997313      8.1852073677867061
   644   3      20.347849616078822       2.165668332747293      10.137593328256509
   645   3      22.303743864991187    0.082216250908442701      10.296840887149822
   646   4      20.073677932315881      3.9704457517689407     -0.3256103157489833
   647   2      22.235756829421167      6.0040223030193518      1.9473035677959862
   648   3      22.324236230149573      6.2489311754220305    0.057647689491684764
   649   3      20.355361619010672      6.0359211899071745      2.1400165997454139
   650   3      22.457671803399403      4.1117099775937742      2.0873656803850622
   651   4      19.884318715114361      4.1384200646036318      4.0980246500689574
   652   2       22.21325195844307      6.0480462700945203      6.0172439326908247
   653   3      22.438436775292871      6.1330556096195314      4.1159768046094181
   654   3      20.348938867046694        6.20339673485205       6.111742141996042
   655   3      22.320603138075427      4.1486470562780253       6.270914966926429
   656   4      19.847839025839054      4.0469922911535576      8.1113296593489768
   657   2      22.246579423948454      6.0127911254164053      10.071144390107596
   658   3      22.335117461312901      6.2681994587673513      8.1726730320091399
   659   3      20.366787684273451      6.0784032140526527      10.234439377214189
   660   3      22.464744639276912      4.1211112907133876      10.187670970728883
   661   4      19.848942121193151      8.0511721447986009    -0.09301214485632385
   662   2      22.191348077853846      10.044669787629324      1.9505342589805419
   663   3      22.431874962064121      10.149794058713026    0.060524084150957703
   664   3      20.336845054042659      10.243585343045783      2.0598893599684067
   665   3      22.300026910873065      8.1479692343576282      2.2057892284051301
   666   4      19.830952977583024      8.0678488449793448      4.0440799908826612
   667   2      22.231684082745986      10.103029187391947      6.0068006219093384
   668   3      22.316015377218342      10.290535282112309      4.1049716386735842
   669   3       20.35154567711497      10.108155368950898      6.1842593604307545
   670   3      22.465324097269946      8.1753778355277138      6.1329490248785579
   671   4       19.83719251598712      8.0582102776804732      8.0731636017566721
   672   2      22.205961847039163      10.062585156185635      10.061309723314709
   673   3      22.437143922461502      10.150202312942799      8.1684030693211458
   674   3      20.350517776116419      10.254116344850665      10.173330646291694
   675   3      22.317872783114517      8.1654271050985088      10.314320580820908
   676   4      12.124981109477838   -0.054237555278463342      11.784068759273044
   677   1      14.131131057811206      1.9939548269749132      14.143240276737171
   678   3      14.150758420057684      2.3346513939299043      12.134022729650955
   679   3      12.089463568396321      2.1609543018464179      14.170337052285722
   680   3      14.322420684218917   -0.050446878828672846      13.968428202301997
   681   4      12.176360988532823     -0.3776524148061649      16.156536666113972
   682   2      14.155318855494864      2.0361280345593444      18.056558409343463
   683   3      14.241613891276399      1.7557915602823675      16.187517834834448
   684   3      12.205671346876906      2.0170952785526985      18.366363831129529
   685   3      14.144632613711337    0.035993793075816259      18.539912195495248
   686   4      12.119393726398519   -0.043132949040417638      19.879964004984412
   687   1      14.174386635322028      1.9885966408813665      22.269168094422135
   688   3      14.178828339730224      2.3018128101128106      20.249076949019102
   689   3      12.112941272476505      2.1500036464610455      22.298366679786444
   690   3      14.351851013337154    -0.04788280953627054      22.089700893317815
   691   4      12.148534366765812      3.6887218956425349      12.136868610683281
   692   2      14.139770368530803      6.0911755449260578      14.017777120886191
   693   3      14.240364693344915      5.8142461364418567      12.147465741386791
   694   3      12.194312811675337      6.0753651367435761      14.310258095010326
   695   3      14.137488250738171        4.09410661924493      14.496042373085896
   696   4      12.108123490206712       3.998685742087952      15.832865672328683
   697   1      14.128006422851099      6.0457820153319215      18.203133621355427
   698   3      14.157578308834044      6.3740176704299785      16.194674248290038
   699   3      12.084955183944412      6.2186084662382353      18.226251041345645
   700   3      14.315416699140606      3.9966085665434563      18.021496180108507
   701   4      12.191431502613446      3.6685658490949349      20.209124946168384
   702   2      14.162017990874569       6.081077888567985      22.113370051985761
   703   3      14.242284054458453      5.8084369617152394      20.240163394499088
   704   3      12.206575388165128      6.0623909211649361       22.40977376230294
   705   3      14.158983242954124      4.0868939389051215      22.582025679773004
   706   4      12.100959539741194      8.0528539802059989      11.787742685990171
   707   1      14.124376448427029      10.097804901666803      14.156253025087571
   708   3      14.155781402336135      10.422727451478098      12.150431551008054
   709   3      12.085622678770438      10.274924564806485      14.187120624076551
   710   3      14.320513279753925      8.0544602644670924      13.975092973261473
   711   4      12.167532993191918      7.7277855173516308       16.16865435588166
   712   2      14.134949326945554      10.144036246541603      18.064398481595912
   713   3       14.24059263357749      9.8719244683151786      16.193686850496892
   714   3      12.189048933478965      10.155231994975486      18.352344193220802
   715   3       14.13013853427163      8.1504584198913825       18.54761297289955
   716   4      12.097609913370155      8.0496523115360983      19.877688343452501
   717   1      14.131357410090267      10.092505196387853      22.247646445617967
   718   3      14.162969960359868      10.423711687943468      20.238680098561545
   719   3      12.090095727049803      10.270642478125652      22.265822881329385
   720   3      14.327993880734402      8.0490704249497114      22.063630857510237
   721   4      15.953821240043096     0.10982234811470713      11.910341845017019
   722   2      18.052903767602668       2.031543076679585      14.193323938814254
   723   3      18.423756849785878      2.0370308846190825      12.222022674494747
   724   3      16.189339119690104      2.1475316300969705      14.118286772535575
   725   3      18.308276661755887    0.061663887934737142      14.225069161153844
   726   4       15.92512977701899    -0.19967837048573825      15.983722173339068
   727   1      18.164906177107767      2.0059365395835931      18.168512122660559
   728   3      18.327323163689993      2.0748016155959217       16.15001150370016
   729   3      16.148702050700212      1.9404803781688449       18.43975717499162
   730   3      18.438615295012678   -0.051447227305576888      18.219946239907564
   731   4      15.924025220087808     0.12020483770439673      20.043163629376199
   732   2      18.181051805625835       1.996593726338117      22.154901073139079
   733   3       18.38928591271435      2.0186677408609004      20.257232491747779
   734   3      16.268398486414732      2.1932018168019187      22.262077073095789
   735   3      18.244851598340695    0.056076979400440138      22.395226399792879
   736   4      15.926453353210828       3.855857296902117      11.962240220723407
   737   1      18.168315418225919      6.0684718672837947      14.165232309592989
   738   3      18.354844310030906      6.1183330619514393      12.126118523019803
   739   3      16.143356933015468      5.9968336391610011      14.402428867867886
   740   3      18.422334709779737      4.0176687524787811      14.192520277718991
   741   4      15.927168750694216      4.1787044377383102      15.994285468710368
   742   2      18.054927404411153      6.0878149681131752      18.237960920807172
   743   3      18.413702273067255      6.0926571511980931      16.273743776366263
   744   3      16.193499468005868      6.1938548340344104      18.183837210712202
   745   3       18.32117558133222      4.1164445832585344      18.270127437905874
   746   4      15.922413143719567      3.8415247390544249      20.051667057759794
   747   1      18.180180140158242      6.0631443043205957      22.246819355086039
   748   3      18.386032744379712      6.1047982327960835      20.205040604425935
   749   3       16.15818421430378      5.9929881400240577      22.484422272794912
   750   3      18.434922113194112       4.019541269699932      22.294825918375931
   751   4      15.920191190656489      8.2228742879892298      11.961326205586497
   752   2      18.056196462624573      10.130773043322678      14.206803872680444
   753   3      18.411841844932123      10.128833146487437      12.235409673926362
   754   3      16.191372983456173      10.248829409966614      14.141963886676692
   755   3      18.309361731764739      8.1637279513423753      14.233781099934104
   756   4      15.916216229665194       7.901177959733924      15.992887211040939
   757   1      18.165848467198852      10.115813763823713      18.206732715300134
   758   3      18.354948779718605      10.168432998164292      16.170888153555111
   759   3      16.143480618998598      10.045400054085253      18.448466124527634
   760   3      18.433049428115115      8.0647221094660431      18.251626282758746
   761   4      15.914566151183486       8.233976582013435       20.05200923942196
   762   2      18.056886709703679      10.128850076265648      22.295421200655632
   763   3      18.415588262500766      10.128399203790817      20.326069779036644
   764   3      16.194467288218263      10.236908455315273      22.231896041989604
   765   3      18.318034532056643      8.1553117981072774      22.324699967773647
   766   4      19.841611948299501   -0.031290509036979941      12.121491373367931
   767   2      22.233507466610138       1.940442365545042      14.162708174881153
   768   3       22.32360014440437      2.2139171794380887      12.229572147090053
   769   3      20.352847689070629       2.030569306690571      14.284945998566405
   770   3      22.446859663949262    0.049230030103209782      14.207220342780582
   771   4      19.840611722312147    -0.07702833287331326      16.134308398340313
   772   2      22.163164699793374      1.9503543748890009      18.250862433706338
   773   3      22.484440893158727      2.0777897346531486      16.236746032075374
   774   3      20.308010949508034      2.1443343110290285      18.170244309597436
   775   3      22.299069944072318    0.036736229917832305      18.350676044565667
   776   4      19.923426537725597    -0.12682766447173549      20.089388853617837
   777   1      22.230318385739167      1.9969606396372217      22.222793367946981
   778   3       22.30155387311676      2.2165357154434333      20.186538231828589
   779   3      20.218889270086628      1.9919472212927585      22.528770373305019
   780   3      22.403350751151521    -0.04432321785859919       22.38053512418206
   781   4      19.839011439397847       4.002438490812354      12.129240998592376
   782   2      22.208730691963179      6.0175733401570852      14.114367032396586
   783   3      22.453182174495748      6.1392474385259197      12.211090528201707
   784   3      20.352665087261119      6.2193614369145607      14.202438078431314
   785   3      22.316631788871394       4.127805022416033       14.33885694474913
   786   4      19.840042386782166      4.0065836504935106      16.163178537953733
   787   2      22.251784602501065      6.0147479257071819      18.137714731183284
   788   3      22.336254127724931      6.2839226647511754      16.240136223879269
   789   3      20.369824657184317      6.0632734462867797       18.31240016674089
   790   3      22.454955555170134      4.1214830423999844      18.176243507007424
   791   4      19.879100901714096      4.0465497966765387      20.137971473606314
   792   2      22.218833716821191      6.0290305462481557      22.174530554930204
   793   3      22.423252521168706      6.1130160895001868      20.277103509375877
   794   3      20.346099786874937      6.1960010087165029      22.327875905984151
   795   3      22.266325719286083      4.1408349172740371      22.443049672874778
   796   4      19.840714240726779      8.0712951111340399      12.128994125611342
   797   2      22.240537196055627      10.062916082474485        14.1095796480407
   798   3      22.335212073052158      10.297380007001884      12.215213333338523
   799   3      20.361568973910678      10.120016462446173       14.27471059510745
   800   3      22.468327418777587      8.1692111882561171      14.213174496014718
   801   4      19.840774047682984      8.0471838858114317       16.14746690963452
   802   2      22.205384395782467      10.079543085607696      18.136736674513713
   803   3      22.429652949154704      10.162913199426745      16.252490896253132
   804   3      20.347520798641039      10.261066477684933      18.264390873104777
   805   3      22.307714204841659       8.175568437746886      18.396404980693308
   806   4      19.840607019903292      8.0885477784656157      20.191410087097747
   807   2      22.237349383955678       10.06022096609296      22.198841858244169
   808   3      22.313569801761791       10.28779968082606      20.314337753486178
   809   3      20.357114638846628       10.10835535325899      22.393728816327471
   810   3      22.449845399920726      8.1561714270668091      22.323155553497635
   811   4      12.106769233436294      12.096640749759848    -0.37468530937915784
   812   1       14.13654182827784      14.139754830060358      1.9984847686626876
   813   3        14.1639065679627      14.467577628815411  -0.0098175208118920863
   814   3      12.099286627486796      14.313996401626456      2.0273820862417997
   815   3      14.331078281949903      12.094306010230904      1.8279822203354488
   816   4      12.186404789375331      11.773906120869521      4.0017054591664918
   817   2      14.153498568353125      14.180773399716996      5.9151294698195809
   818   3      14.248487490249452       13.92535986120096      4.0452471147830265
   819   3      12.204971550625929      14.178452000457474      6.2139019668503419
   820   3      14.136512186956164      12.189743386687047      6.3976260533416758
   821   4      12.109718689745618      12.097076057043092      7.7280561519090414
   822   1      14.130944699630028      14.133739559607038      10.104482690369764
   823   3      14.161577542188112      14.454859844933344      8.1023554434200289
   824   3      12.090139299238301      14.319727866282431      10.134117565252186
   825   3       14.32153716597883      12.097681656922534      9.9322671283204471
   826   4      12.191751347247598      15.830717264600736   -0.039176824685721139
   827   2      14.175165693148605      18.256596622823043      1.8696772599152649
   828   3      14.261372724042888      17.979086356860837 -0.00031836287356376807
   829   3      12.219816337814557      18.236812939641617      2.1786555046264042
   830   3        14.1522842254631      16.245436418341153      2.3388780014028763
   831   4      12.136329895949396      16.158108337858909      3.6715287071260825
   832   1      14.167272246458877      18.182475022936824      6.0449675671877481
   833   3      14.183315201287272       18.50722131817723      4.0531508172842567
   834   3       12.11540947613736      18.377798616764288      6.0928587943777774
   835   3      14.350401890638375      16.148514392321406      5.9070012430164631
   836   4       12.17771570422773      15.813622394980197      8.0536080426509677
   837   2      14.139720853253138      18.227009361874853      9.9976499795430769
   838   3      14.337050459648159      18.052254950053175      8.0973493224147219
   839   3      12.201491679731621      18.263475469189469      10.207039519997958
   840   3      14.141552876150529       16.24866609444511      10.441105671830648
   841   4      12.154492102312741      20.227948963624975    -0.35144329269254543
   842   1      14.201052786518048      22.248698976292964      2.0274099681784339
   843   3      14.201954679528054      22.563972839709955    0.012580421761856741
   844   3      12.126264113002392      22.414672355388596      2.0641543319832376
   845   3      14.339192267257502      20.212511120481242      1.8362748989453548
   846   4      12.212464668192442      19.874347945269339      4.0053659928614964
   847   2      14.059132306662791      22.280643578298786      6.0023334483404422
   848   3      14.373131226754179      22.124149119729523      4.1054219405391486
   849   3      12.174352657347022      22.316483516654039      6.1252451746238696
   850   3      14.210676883359991      20.333633266186716      6.3893220271074629
   851   4      12.068519225271443      20.118232279686442      7.7793448677537667
   852   1      14.159302285511249       22.23630469870913      10.068718830942382
   853   3      14.168802749502218      22.617157525153434      8.0605656183310277
   854   3      12.104564608183543      22.424010981372167      10.108384805894271
   855   3       14.35263890006301      20.199912470369274      9.9393476225086044
   856   4      15.923814578335332      12.268297585283181     -0.2065353821962056
   857   2      18.057130685003504      14.159854332592806      2.0436061931961578
   858   3      18.413670122342957      14.163608271586961    0.079561846952292126
   859   3      16.195584920564485       14.28973329481134      1.9822061072347106
   860   3      18.303763585710183      12.197269294447889      2.0822715515980654
   861   4      15.927666817494201      11.924502810587599      3.8385933339248117
   862   1      18.161216811686256      14.114864608977978      6.0585349581820855
   863   3      18.348738903830974      14.208390936735727      4.0202168710332433
   864   3      16.147930470858437      14.071646497099144      6.3179608651041059
   865   3      18.425984866783686      12.093458963056765      6.1100739969644913
   866   4      15.919139720265997      12.251555199278281      7.9047188370041823
   867   2      18.058271141313647      14.154795974157528      10.166083193178846
   868   3      18.428290341328619      14.144933420255741      8.1920878048602184
   869   3      16.196339854853289       14.29277177969421      10.099106472371281
   870   3      18.300217859278213       12.19735186279093      10.210771605337179
   871   4      15.926693053392347      15.989969546529435    -0.20667141423803739
   872   1      18.183643105872353      18.217197531164924      2.0065267417503079
   873   3      18.330626280929923      18.280445819081081   -0.034305852280970273
   874   3      16.162887846706216      18.136969454737521      2.2679360960588721
   875   3      18.437892987747993      16.148579774714047      2.0522533743800349
   876   4      15.938296384353045      16.298819755664315      3.8314765798476311
   877   2      18.181061381920159       18.07442589528798      6.0986990502325416
   878   3      18.401534796266638      18.209907120318224      4.1240914201919372
   879   3      16.270764172424848       18.42884770158328      6.0225973006621389
   880   3      18.233174890935111       16.18347351071127      6.1912332279660962
   881   4       15.93166946678547      15.960412354621326      7.9066015267863916
   882   1      18.184403267330392      18.189223888536478      10.116266796872328
   883   3      18.244692876535485      18.354590965685379      8.0744252508656924
   884   3      16.163913761065121      18.148128395070547      10.368989500675729
   885   3      18.454331267988866      16.140004190377052      10.132723032631359
   886   4      15.946250936412135      20.378601221510888    -0.19165888196629066
   887   2      18.186283565306759      22.192090562048936      1.9805102824334653
   888   3      18.414479788695321      22.290931304186167    0.097402243907279751
   889   3      16.309253686338561      22.480408738654084      2.0201051933470553
   890   3      18.236638694635733      20.322186191934957      2.1510817066822989
   891   4      16.007063402944055      19.974729902985615      3.9292764407665541
   892   2      18.179310897569625      22.237816012411692      6.0744565958264696
   893   3       18.27799309715558      22.469251190008602      4.1362485229425863
   894   3      16.282973949815595      22.272888773945411      6.2606431722854303
   895   3      18.352108758506567      20.342305547597523      6.0918236734814792
   896   4      15.988411957207664      20.053711886246894      7.9413936794699671
   897   2       18.09497042973717      22.258571526254684      10.148542472868893
   898   3      18.431281764770798      22.349916086147996      8.1204344432816988
   899   3      16.230940725593946      22.417268055328311      10.081151096564005
   900   3      18.287808179211954      20.317095149023821      10.202184724273511
   901   4      19.837127419372411      12.101572448599841   -0.048497720340896257
   902   2      22.243771238941129       14.07136608607601      1.9481088029232345
   903   3      22.291923925837462      14.335235446247838    0.062545051207469629
   904   3      20.351808383524276      14.169040273881215      2.1625763038701593
   905   3      22.443769084828165      12.177254455876554      2.0563601368552318
   906   4      19.832653640242377      12.073862031514151      4.0022758388815571
   907   2       22.17634038229837       14.20101640166931      5.9866473651054655
   908   3      22.421403617361079       14.15420427797128      4.0870862648879163
   909   3      20.306378543320495      14.262679285103298      6.1261935530535361
   910   3      22.314494974057745      12.191805488830994      6.2743808927116005
   911   4      19.857838645708888      12.103153694633839      8.0486362090721908
   912   2      22.258220081964961      14.090139298538832      10.070773285767748
   913   3      22.312487377824667      14.281840016969671      8.1748066075194714
   914   3       20.36545436750653      14.152177435001882      10.220279452731068
   915   3      22.469851026634842      12.184810531263327      10.195155997048932
   916   4      19.842395141648495      16.116951569387798   -0.067165813850097567
   917   2      22.189554935581832       18.13192322113613      2.0222427487878054
   918   3      22.440153024675482      18.271754641949126    0.078736620148453479
   919   3      20.306843675147093      18.378549507982765      2.0352434159916175
   920   3      22.259530693810394        16.2285220633599      2.2111721603455998
   921   4      19.903752198879175      16.074580434427137      3.9244667284637731
   922   1      22.232903762405297      18.160255924415321      6.0738281546324444
   923   3      22.225163975049142      18.452577173817829      4.0331864594389728
   924   3      20.206983104354208      18.354760892814628      6.1822577426015055
   925   3      22.473148159015469      16.128543467660936      6.1200609377976134
   926   4       19.90976720638356      16.007957436593575      8.0982138687442315
   927   2      22.217706171665256      18.119008675921023      10.051034386173759
   928   3      22.423355990056677       18.24025382205285      8.1682401547347077
   929   3       20.32585835166001      18.370935452995649      10.072906201098458
   930   3      22.284838077245325      16.222954915945444      10.298481130385213
   931   4      19.968220796474807      20.117093722281744    -0.16630694428017462
   932   2       22.23980271100725       22.19672392544167      1.9787262410600801
   933   3      22.226644157525676       22.43340259350407    0.099155819084222954
   934   3      20.312940064368174      22.353416905905039      2.2677722718841355
   935   3      22.383775261008893      20.317071963035385      2.0417412963059562
   936   4      20.178401633368697      19.843453074704723      4.1005240584496416
   937   2      22.226002385186661      22.194703896353609      6.0521471931403736
   938   3      22.402491766881898      22.363096448295938      4.1404751061119613
   939   3      20.313146965401181      22.456144635876207      6.0740740001619491
   940   3      22.273341340555657      20.338908087639439      6.2309927423394669
   941   4      20.040765405504743      19.920037429754689       8.068513429070812
   942   2      22.239074651438077      22.164324663293588      10.061212648934049
   943   3      22.301832344367565      22.492818385668478      8.1560340525367607
   944   3      20.352144243356989      22.294714008235911      10.203701993523268
   945   3      22.397131340348391      20.291792719484395      10.128424756921488
   946   4      12.167496689151276      11.776301542506751      12.113040983116495
   947   2      14.152478956644373      14.181492148562539      14.013822074106351
   948   3      14.228346821174354      13.926057253016452      12.143613694863435
   949   3      12.190338366833078      14.206419243754507      14.317732498101305
   950   3      14.128367502142341      12.202322082584002      14.509120245403949
   951   4      12.093925711397432      12.104314195029851      15.829956368649723
   952   1      14.156819890787556      14.154512907445179      18.201418199249908
   953   3      14.158862463313957      14.492184778572831      16.195209784461291
   954   3      12.123108896341201       14.26661736192071      18.255720943147715
   955   3      14.339264419702877      12.107906781651161      18.017554340568172
   956   4       12.17635158910222      11.774249377405665      20.227484046283774
   957   2      14.145804374895652      14.185036338324993      22.110754420998774
   958   3      14.258779657639566      13.921753499095075      20.241470624053896
   959   3      12.198392636829993      14.184048970943627      22.398033266937087
   960   3      14.140836659639403      12.193553247495654      22.593007885491229
   961   4      12.101258920602517      16.116103695224588      11.782739059877077
   962   1      14.145318015625396      18.201502747097955      14.145227828133489
   963   3      14.154789625019371      18.525336546844507      12.134128034828553
   964   3      12.106387753319527      18.327795932128566      14.203006252084034
   965   3      14.316356867258559      16.152604283686376      13.974568873999944
   966   4      12.218046043743172      15.873221063142569      16.088840365004923
   967   2      14.159719205880828      18.241099875541135       18.05934976261015
   968   3      14.240363133431426       17.95252032511825      16.191900005598757
   969   3      12.198453635945643      18.210511207663036      18.367955378246261
   970   3      14.137787770911874      16.245179832636754      18.560491320865946
   971   4      12.159475256444725      16.232499784689615      19.918972941109327
   972   1      14.144610310650572      18.202182583593117      22.257020227038865
   973   3      14.152884661779597      18.525071154202244       20.24305711738042
   974   3      12.109479527393317      18.357043494609201      22.278229791446652
   975   3      14.321492794634031       16.15363124606597      22.069054819960076
   976   4      12.198656773511992      19.918865325565459       12.08607431265351
   977   2      14.158909470100733      22.294500411908153       13.99962557599342
   978   3      14.238497149997587      22.017121918501733      12.129475677604162
   979   3      12.205775663076286      22.268061108833201       14.30974768675666
   980   3      14.137716578866018      20.290871411236658      14.491530354431779
   981   4      12.138673643896317      20.236915334655453      15.845498963419946
   982   1      14.137811604831587      22.244264660454434      18.199420450923419
   983   3       14.17090594680497        22.5619843469151      16.186143055556375
   984   3      12.096238125541147      22.394383563020867      18.219668574510724
   985   3      14.311568142132694      20.198382190933362      18.017447596169553
   986   4      12.183620097565186      19.890365499371612      20.197322491228025
   987   2      14.175341823052134      22.291151114154978      22.119316150445055
   988   3      14.252033646286279      22.019250705740557      20.248452380961872
   989   3      12.223859518005257      22.282253010489505        22.4368056327903
   990   3      14.157379613400959      20.296449481832735      22.601802549503077
   991   4      15.928967902293044      11.927023313440399      11.943966425030503
   992   1      18.171673011850014      14.153484116084206      14.165282867621141
   993   3       18.35496314304697      14.222323305500728      12.126397191479866
   994   3      16.144242224715075       14.09727539133163      14.399791828942206
   995   3      18.432547625224576      12.110169259658672      14.204252019324146
   996   4      15.923263609116473      12.259685180073774      16.012300686862549
   997   2      18.072161628611326      14.180243413280017      18.249318920306965
   998   3      18.417123969331996      14.176578460088347      16.276996676297944
   999   3      16.206796852023295       14.30395302447808      18.180037810529118
  1000   3      18.306423477421877      12.208694501658393      18.282649420524574
  1001   4      15.928500921447602      11.945802762524572      20.032360041439407
  1002   1      18.168610081206086      14.155991673134121      22.255533020594516
  1003   3      18.347296657974354      14.215476401819032      20.219710828539935
  1004   3      16.148120771621127      14.096784056436427      22.506477058815882
  1005   3        18.4264557006627      12.104835374574517      22.306425605840662
  1006   4      15.937352572070438      16.312897000414235      11.960849395259958
  1007   2      18.066055473594055      18.222043388538175      14.199608961042372
  1008   3      18.448424600092221      18.210268133667252      12.224252581235701
  1009   3      16.202563703035743       18.33336376132322      14.110737919531513
  1010   3       18.30897457523427      16.252544755809655      14.234362998993801
  1011   4      15.942619385034885      15.988038062255766      15.989579688267293
  1012   1      18.172876185202448      18.205278431441688      18.205312060015636
  1013   3      18.330046723332625      18.271980919433066      16.166574777004655
  1014   3      16.146761268419809      18.144320590418079       18.45906131553641
  1015   3      18.438741111516215      16.159604521991007       18.24777903140599
  1016   4       15.93714085588968      16.306231231659595      20.053164085654849
  1017   2      18.056072481113816      18.222927897340909      22.302447932021394
  1018   3      18.428115504649512      18.217860258199007      20.327512340814803
  1019   3      16.195668352322809      18.352345716848294      22.217479097366237
  1020   3      18.307393863898298      16.257016250564014      22.336102950471115
  1021   4      15.946998723802196      20.053347499791744      11.923644399791133
  1022   1      18.179658155266335      22.258590659529872       14.14508022893704
  1023   3      18.343432013767501      22.346663828884015      12.098426258341282
  1024   3      16.152621942942051      22.189742649037147      14.385740506387229
  1025   3      18.435520421492122      20.205023395699065      14.175067173616178
  1026   4      15.931109598970483      20.386029337326338      15.987697190637569
  1027   2      18.058944379857092      22.257645235764635        18.2324094109666
  1028   3      18.420304141669238      22.255737378214125      16.265057057637662
  1029   3      16.198474045429233      22.375953049711626      18.175705965236851
  1030   3      18.317518454680958      20.299374496151568      18.284654498553444
  1031   4      15.933165247254001      20.035890476654064      20.057813445363085
  1032   1      18.185772327528539      22.258567765229461      22.247741760862748
  1033   3      18.361618539005281       22.33183819938851      20.202606265252047
  1034   3       16.16767317029144      22.180958719109761      22.503481262337534
  1035   3      18.446961089213008      20.208525356407215      22.286144371497148
  1036   4      19.843833816854549      12.072632809186949       12.11179483146762
  1037   2      22.200648763226908      14.101564577543435      14.104052932063372
  1038   3      22.430846933759689      14.202998889228978      12.214665128387962
  1039   3      20.342273573622975      14.303571953825225      14.209319932512516
  1040   3      22.305739606536605      12.201679139811141      14.348838211083828
  1041   4      19.838587637646494      12.120319363305695       16.16252251693016
  1042   2      22.252010458278029      14.110454272210301      18.135036379365321
  1043   3      22.304301157205408      14.309213952246925      16.258874128332039
  1044   3      20.365441522258436      14.154200657678992      18.346703885438323
  1045   3       22.46747883343588      12.199533190453119      18.299353574331821
  1046   4      19.839620719788858      12.097817693395589      20.186302038050911
  1047   2      22.195707060896108      14.107490219909101      22.205600392176322
  1048   3      22.424772414065789      14.213523131257533      20.323057690794926
  1049   3      20.336222708708235      14.303866958296219      22.321622916924383
  1050   3      22.300981251303195      12.203655354082565      22.461988117865832
  1051   4       19.84179112503335      16.137192585755322      12.124439979096252
  1052   2      22.241197969584583      18.124352847447607      14.077736878536751
  1053   3       22.22953721630461       18.38121878449628      12.191759861570381
  1054   3      20.351751073018971      18.211624396541744      14.327403554146187
  1055   3      22.456905694866467      16.228611074032848       14.22871541948415
  1056   4      19.845453889702203      16.138318069417171      16.141287192674849
  1057   2      22.211547727307224      18.140163344346476      18.140356453584694
  1058   3      22.457325239448135      18.251446463569675      16.258696973111885
  1059   3      20.351943097560344      18.346107052404609      18.248180246052932
  1060   3      22.313850608536228      16.241177523483145      18.412540509553125
  1061   4      19.846244349316244      16.158269158119989      20.204657436677941
  1062   2      22.244375659577067      18.166392231402583       22.22864121781851
  1063   3      22.282620064811884      18.387512579361207      20.329066920190883
  1064   3      20.347151082290925      18.236837538496683      22.436214009661338
  1065   3      22.435490819709479      16.257809174552147      22.338159925076475
  1066   4       19.86130490330001      20.146051340911988      12.100234037863784
  1067   2      22.203690976982102      22.178197821130027      14.081032092961166
  1068   3      22.429816521207179      22.335273471715276      12.180925018672621
  1069   3      20.347617875771348      22.408644081903322      14.181454561322539
  1070   3      22.279441433178803       20.29636865707624      14.327202356221957
  1071   4      19.851959866514481      20.185208605241961      16.132475731887659
  1072   2      22.261581108801487      22.160525274558317      18.109987287838962
  1073   3      22.311556544774366      22.432387681234189      16.225821482634714
  1074   3      20.372651328935671      22.287459258636456      18.340878236557412
  1075   3      22.450092813623364      20.275971422214102      18.265947230881647
  1076   4      19.853091299795892      20.157860307504603      20.178965122773874
  1077   2      22.212684846040389      22.278319752756978      22.161391731050255
  1078   3      22.419498185659421      22.300687512868585      20.270566503995529
  1079   3      20.313046766098431      22.423024457493732      22.315302221514525
  1080   3      22.260873605744056      20.316846608942544      22.487862267359798
