(written by ASE)

1080 atoms
4 atom types

0.0      24.299999999999997  xlo xhi
0.0      24.299999999999997  ylo yhi
0.0      24.299999999999997  zlo zhi

Atoms # atomic

     1   4   0.0040153415000320396    -0.23545481380517624    -0.11557402851840459
     2   2      2.0620578374513645      1.9528628027988544      1.9508495747201444
     3   3       1.837013146050998      2.0844281074912243    0.049482720569149083
     4   3  -0.0051276301936357413      2.1021563845515558      2.2419579840358344
     5   3      1.9791253263774669    0.068274799586973592      2.1724971778808468
     6   4  -0.0084033804118799453    -0.18378493011864225      3.8876169553959117
     7   2      2.1023695266090066       1.956966928801934      6.0032382214099904
     8   3      1.9890018120276443      2.2146487351723447      4.0990706060857871
     9   3  -0.0024535184200105979       2.286229131206472      6.1185304521104324
    10   3      1.8738197598204898    0.078900506286902344      6.1005106689310695
    11   4  -0.0089068932123237115    -0.21605223331310683      7.9587933997644988
    12   2       2.066049697999587      1.9623606774292603      10.040608551858345
    13   3      1.8428279812949517      2.1006237700593959      8.1420396163293169
    14   3    0.011549007722422658      2.1063379184679976       10.35246693032669
    15   3      1.9844265593267965    0.074673599438939878      10.263470505958374
    16   4   0.0016377634152289506      3.8999871391903862    -0.21547109620158528
    17   2      2.1067335030831922      6.0015654522130557      1.9557096581866193
    18   3      1.9933012384501481      6.2412194008196549    0.058847756132505397
    19   3  -0.0070702768283361136      6.3135569076133029      2.0749631076939998
    20   3      1.8651280628698383      4.1127829321897744      2.0643538924747102
    21   4   0.0055491798517140652      3.8341581519840386      3.9128713710546132
    22   2      2.0692656841625126      6.0121077980968236      5.9927853357842977
    23   3      1.8474332492025882      6.1356885622112536      4.0939222975239646
    24   3   0.0092032373508950018      6.1436938411909905      6.2968637156703275
    25   3      1.9877703371618924      4.1239140031035282      6.2313998550539509
    26   4  -0.0016565738614064494      3.9125695149446211      7.8864925513738884
    27   2      2.1078909420278249      6.0153374633437657      10.046418686952805
    28   3      1.9999280204921972      6.2557999485092726      8.1485341792828088
    29   3   0.0071184695918301956      6.3342373426305327      10.174653523946729
    30   3      1.8634069096263144      4.1233466344200229      10.169189267846829
    31   4  -0.0040130725982646855      7.8784884406915161    -0.14656622446637554
    32   2      2.0675561373909779      10.051267793297159      1.9565449954907026
    33   3      1.8543912123045743      10.180566688471664    0.060226461315376636
    34   3   0.0040089763314084051      10.173260707910854      2.2547547973829931
    35   3      1.9847612410451831      8.1587367100195838      2.1900858978916182
    36   4  -0.0038805240904050318      7.9416521574737011      3.8379297519572591
    37   2      2.1091938845205731      10.052963107971614      6.0025136774431305
    38   3      1.9935110957556568      10.302270322038167      4.1019189726610534
    39   3  -0.0065017319134896947      10.349787571344224      6.1179760435434254
    40   3      1.8735788661291846      8.1610328822963805       6.108785925966667
    41   4  -0.0037920208007248242      7.8922256595358267      7.9478057743481685
    42   2      2.0654711135051773      10.058878834642007      10.022333852698825
    43   3       1.859921855277014      10.175230739651854      8.1284851818166501
    44   3     0.03666726180939358      10.156852973068384      10.353385250843349
    45   3      2.0101674066374211      8.1639499502387309      10.278314099247426
    46   4       4.459809413991521   -0.043051339592796528    -0.01879960862556063
    47   2      6.2410758852661132      2.0487178601500764      2.0306039146564712
    48   3      5.9908080395396022      2.0830000425690565    0.060288679689948277
    49   3       3.939431705402527      2.1403829641840089      2.0106939209466468
    50   3      5.8841070873173997    0.079677789010789077      2.0309612210751689
    51   4      4.4586261851846745   -0.051290592791449326      4.0047229635509547
    52   1      6.1274900114950759      2.0103419763738377      6.0614617544038163
    53   3       5.872131739434737        2.05563896522784      4.0102845936849913
    54   3      3.9588547037844384      2.0791457351962488      6.1975439236569754
    55   3      5.9419194100025026   -0.027644022410608975      6.1130921632298341
    56   4      4.4534729325015388   -0.043755099576181844      8.0633472972506777
    57   2      6.2323765706395857      2.0514090266957505      10.125673540531398
    58   3      5.9933410575824846      2.0925958714075965      8.1555746882173601
    59   3      3.9427089507116504      2.1560387249554536      10.106041832088829
    60   3      5.8762607195523096    0.081971183781040333       10.12122102105779
    61   4      4.4670579497725411      3.9912332919495372   -0.053005685282102255
    62   1      6.1329600594042963      6.0546087976494007      2.0128634737851083
    63   3      5.8744968240119402      6.1043197593358496   -0.036663837339033771
    64   3      3.9609814022907477      6.1136706599598005      2.1497909450690438
    65   3      5.9487584160816738       4.018018667369005      2.0639045073345743
    66   4      4.4663656240933074      4.0078065606612912      4.0150908831137109
    67   2      6.2444052310652083      6.1014800555592243      6.0750833813686373
    68   3      5.9964030598797073      6.1371167620528801      4.1053839958175367
    69   3      3.9482517838432649      6.1916911162483919      6.0613486004092536
    70   3      5.8919439230959316      4.1326014144359595      6.0748226878653719
    71   4      4.4679963464876495      3.9997490083882661      8.0337725247823037
    72   1      6.1293320713663633      6.0571441765142326      10.108782846848584
    73   3      5.8773775308926606      6.1094571728646887      8.0566012721939924
    74   3       3.964441717717333      6.1135686284870507      10.248655804089481
    75   3      5.9555565908429857      4.0230995469778499      10.169023840225712
    76   4      4.4713147048809674      8.0559807434373507   -0.023608876544583886
    77   2      6.2468573302083223      10.153413039405677      2.0306064715773391
    78   3      5.9851081076124126       10.18715745962484    0.059127172381535545
    79   3      3.9453222104875372      10.236000680153779      2.0154847749947393
    80   3      5.8945952348930746      8.1812114275054828      2.0281822420565061
    81   4      4.4764777807501828      8.0496680517398929      3.9915584868493967
    82   1      6.1347407090748316      10.108162679096241      6.0551542374271259
    83   3      5.8780223527962034      10.159016988126172      4.0067827071853443
    84   3      3.9636346094316637       10.16731384907748       6.192505774023811
    85   3      5.9524182739912419      8.0722548172054385      6.1083267856639187
    86   4      4.4716337434074518       8.058748410474454      8.0567989926387575
    87   2      6.2442040396301444      10.147289803159319      10.121417027796538
    88   3      6.0024662916541898      10.188464271411174      8.1530118510337282
    89   3      3.9543615092555675      10.256158662361138      10.110704623625024
    90   3      5.8863237001759181      8.1803624719837966      10.121110050739833
    91   4      8.3793696964114748    -0.20176192387910369     0.13432955450819403
    92   1       10.17131557489798      1.9985518529789996      1.9961793792126044
    93   3      9.9769159953566238      1.8182877071242609   -0.048535119852845046
    94   3      8.1055615219551278      1.9848132051932434      2.1412341719384553
    95   3      10.138184227454429  -0.0089908833617234184       2.327136358358977
    96   4      8.3705742783019943    -0.20750133090674766      3.8487142381019344
    97   2      10.158193601537592      1.8632861194443624      6.0849124683167677
    98   3      10.161389024818424      2.3481841031114281      4.0950131656364075
    99   3      8.1519976352135401      2.2525498004962192      5.9967038799667929
   100   3      10.045534392145427  -0.0048404086859609339      5.8120544793742903
   101   4      8.3580924494895221    -0.19079413785037175      8.2148470993588969
   102   1      10.154831057198086      1.9995458729940057      10.102303058602764
   103   3      9.9774869261613439      1.8090239327230551      8.0530294661657571
   104   3      8.0972213229467265      1.9733344175772807      10.245705326026558
   105   3      10.138288804827253   -0.011974789786359012      10.426625376814416
   106   4      8.3773745115977487      3.8275069618124888    -0.20348273718084958
   107   2      10.153557442470518      5.9056145616736622      2.0359454101154659
   108   3      10.160625044423702      6.3955981155577408    0.043171469677771634
   109   3      8.1539023540737787      6.2968503176420292      1.9423085520536731
   110   3      10.064332336667981       4.037048027378046      1.7601088675682448
   111   4      8.3712183707243124      3.8450997747018083       4.175555012999947
   112   1      10.166586822876347      6.0441014306326704      6.0444192357648641
   113   3        9.97437507809666      5.8732258312155272      3.9988301631286638
   114   3       8.107496518131228      6.0362236401095322      6.1893185053290942
   115   3      10.136297540115816      4.0366939038963991      6.3743922464504443
   116   4      8.3668436722999004      3.8324541796639147       7.890862634412132
   117   2       10.14615223465961      5.9073182112732647      10.137045235732252
   118   3       10.15495576260659      6.3912118891715934      8.1451506595052283
   119   3       8.148182839194325      6.3045998247143844      10.046691299974537
   120   3      10.048820158367381      4.0377919422805562      9.8721474817753823
   121   4      8.3795586443684424      7.8979445322036463     0.13199249615137892
   122   1      10.166654508954219       10.10116912286804      1.9938465527138749
   123   3      9.9824048631922153      9.9317370313022622    -0.05059372352859709
   124   3      8.1085836634178001      10.094213553471398      2.1362777228757852
   125   3      10.132134297089936      8.0913720822681281      2.3141594797527691
   126   4      8.3749281771211503      7.8804662029159784      3.8418342389800273
   127   2      10.150220407895693      9.9561916617828032      6.0839323787269661
   128   3      10.160202547991981      10.445749290134989      4.0922178953818404
   129   3      8.1533837348605385      10.350378337792845      5.9895265047923649
   130   3      10.060363442495685      8.0874363536124552      5.8179358593536827
   131   4      8.3729983032503199      7.8930224310328159      8.2216542332228997
   132   1      10.159766812777212      10.098120051281484      10.095867573564572
   133   3      9.9693516650400724      9.9335085456108381      8.0488964756355976
   134   3      8.1048717715921264      10.086417745537814      10.251465822657103
   135   3       10.12943359450678      8.0914167284781389      10.418782950072051
   136   4   -0.014548467350423876     -0.1593446352517266       11.92271763344398
   137   2      2.1007237515004467      1.9605590672175099      14.096933638336143
   138   3       1.997748210525738      2.2079360476871779      12.200074059243605
   139   3 -5.3967949839867983e-07      2.2713916660499516      14.221785724477481
   140   3      1.8616397060924477    0.070090003303032916      14.217736328641825
   141   4   0.0061871016583947705    -0.22630720653252531      16.025636082936682
   142   2      2.0623100977763289      1.9479135301609496      18.142351850831112
   143   3      1.8433477333003756       2.086291403406042      16.248164658585523
   144   3   0.0069970915917173014      2.0826018848256118      18.450552157398135
   145   3      1.9767647194941944    0.050202804442307208       18.38373562817377
   146   4  -0.0030060594911062604    -0.16674648329278741      20.031091505520266
   147   2      2.0975653286795324      1.9445914801500377      22.207130549914041
   148   3      1.9892238437031389      2.1834079865863871      20.308676730774966
   149   3   -0.010483975652557494      2.2626089814125159      22.327044087727696
   150   3      1.8564948090650382    0.051119679210608053      22.326700184012683
   151   4   0.0036942268552535881      3.8579690203956143      11.995759481474716
   152   2      2.0551852196349771      6.0247032139434182      14.083318852127595
   153   3      1.8693207895781629      6.1400943099051766      12.193296104553195
   154   3    0.021814809746470716      6.1476675348161018      14.404052082315948
   155   3       1.988231490852286      4.1272808824591136      14.334563479022405
   156   4  -0.0019601453653690965      3.9127520982651181      15.978958512263722
   157   2      2.1036818824791297      6.0065209010803917      18.158521247119289
   158   3      2.0059650465299881      6.2518526856978172      16.266168654879177
   159   3   0.0054570838239723085      6.3120603357916725      18.288460973131695
   160   3      1.8663027988873624      4.1079970627084128      18.279640477607515
   161   4   0.0031188253103463306      3.8397058762716325        20.0855877932091
   162   2      2.0624921428143144      5.9971518630009797      22.199045898455331
   163   3      1.8536514350842928      6.1253236159983144      20.307087561616274
   164   3   0.0067175354288755455      6.1269300080031126      22.511553411425155
   165   3      1.9795595555990353      4.1034882463663473      22.439846994977831
   166   4    -0.02828561006818868      8.0054636705595836      11.903315587152969
   167   2      2.0669561749378005      10.094188789229895       14.06671292824055
   168   3      2.0554702924223074      10.285932339957842      12.189746257095056
   169   3    0.026379463100231263      10.326747628444153      14.260155383688243
   170   3        1.88746651250015       8.177839811073575      14.242262310704996
   171   4    0.016001985171829484      7.9322455504749154      16.022076405557826
   172   2      2.0699646590562137      10.065815154048938      18.158110095349546
   173   3      1.8863421075422506      10.168472052712172      16.280650604386185
   174   3     0.02126845914820024      10.156698066003237      18.484425907243015
   175   3      2.0127620193466758      8.1674516014484233      18.414802378795613
   176   4   -0.011550687260755428      7.9713359057811175      20.019570616235107
   177   2      2.0845791150403348      10.042722618063561      22.226082745826602
   178   3      2.0096690830781201      10.293215134875805      20.334635701746347
   179   3 -0.00023240720440068167      10.338384078907165         22.354854642842
   180   3      1.8809985449632816      8.1500293585800758      22.338109739411362
   181   4      4.4693393475189396   -0.060031255549134473      12.104000049623831
   182   1      6.1203968138229481      2.0086162934522189      14.160366827059407
   183   3      5.8649554964791806       2.056531661036427      12.107633107487354
   184   3      3.9537311173748537      2.0773682311041193      14.304134363259225
   185   3      5.9326703731763812   -0.022505099983515919      14.185719668318178
   186   4      4.4624459783678629   -0.061254402070464523      16.147311201556594
   187   2      6.2332082477189443      2.0426581958872259      18.226446240397873
   188   3       5.989304215122238      2.0827930717172185       16.25833390526952
   189   3      3.9383178324640529      2.1304258667955445      18.218042682473939
   190   3      5.8778658853391823    0.075333687185735021      18.239001244503829
   191   4      4.4640578485718176   -0.051996821094401971       20.19021513304337
   192   1      6.1263191806161652      2.0014390345429578      22.265023469121012
   193   3      5.8686693232637115      2.0497494359720805      20.213723007110772
   194   3       3.950354870475929      2.0558974150297211      22.407287875211484
   195   3       5.942499084654675   -0.035226893101599537      22.322443468870027
   196   4      4.4635836607010368      4.0092772198028417      12.107444125537814
   197   2      6.2405737629618843       6.102162400331558      14.178969922859675
   198   3      5.9905488736429797      6.1482806838715938      12.211769082497661
   199   3      3.9430184337391898      6.2172718206113613      14.192683362421429
   200   3       5.885208300928106      4.1355298482284155      14.176377923192423
   201   4       4.461373772505401      3.9971310748005382       16.13689377893537
   202   1      6.1183347801802599      6.0501383744839377      18.212442872213575
   203   3      5.8657375539187848      6.1037941085817264      16.162427338019739
   204   3      3.9606279501870949      6.1121259661090601      18.363629908990841
   205   3      5.9445000793566471      4.0143344558161589      18.270311645799438
   206   4       4.464529421875679      4.0026043670632854      20.213460076269556
   207   2      6.2432096832707984      6.0922485080197912      22.286660872615091
   208   3      5.9905531514819312      6.1428809796110126      20.313913776793434
   209   3      3.9424618095903048      6.1807680585879599      22.266456632482555
   210   3      5.8900271214209194      4.1265202681862396      22.279912018246328
   211   4      4.4613153656880415       8.046260807500456      12.073397973983278
   212   1      6.1303836238881422      10.110982995412908      14.163170773923962
   213   3      5.8625296873260293      10.153246758127972      12.108400884273307
   214   3      3.9540244320299935      10.183398046834975      14.363460135029761
   215   3      5.9426053057656736      8.0783002760431337      14.234242414994124
   216   4      4.3990497672282194       8.010245155393072      16.087281465511566
   217   2      6.1883022374093883      10.100730930985742      18.221487359154224
   218   3      6.0049063184726732       10.26964985217349      16.284804887093443
   219   3       3.961753880307779      10.307888523334091        18.2457032139685
   220   3      5.8980476005962386      8.1874955060480694      18.233601009824515
   221   4      4.4502029455478143      8.0178086561383353      20.239070420803529
   222   1      6.1374304143424441      10.103059429040636      22.272636994791839
   223   3      5.8550774740948892      10.173647059104466       20.22168089796028
   224   3      3.9520901135000361      10.194062807441398      22.401916146407881
   225   3      5.9329608322974341      8.0683629815575966      22.315407121667327
   226   4       8.349770530220546    -0.20664116441290098      11.943483625254412
   227   2      10.138052476282491      1.8488943691765558      14.194831600149527
   228   3      10.151995682019662       2.345462659880118      12.196004692292629
   229   3       8.145211966937433      2.2445491004750684      14.091567689162646
   230   3      10.057746068818103   -0.016478626799098145      13.901745832090976
   231   4      8.3354811154112181    -0.23668470296788974      16.326816526968727
   232   1      10.159502555026178      1.9896201405231095      18.195278227268961
   233   3      9.9701315057508531      1.8175832676292805      16.150672322147546
   234   3      8.0979638381358665      1.9788511240693754      18.346284496916965
   235   3      10.136121529435984   -0.018614468548156588      18.525922734957888
   236   4      8.3631893472967889    -0.21493820435843908      20.038506126972688
   237   2      10.153228233591937      1.8519609767855529      22.286974395025325
   238   3      10.157081909031128      2.3389273179334489      20.294027825609103
   239   3      8.1518294754532157      2.2411503364630079      22.195270230921309
   240   3      10.066350779722915   -0.016568370995315048      22.016434762421131
   241   4      8.3672517310393033      3.8443820878610349       12.27500845176305
   242   1      10.158151633434761      6.0491003971689423      14.151177780008792
   243   3      9.9708534481108977      5.8772490947180644      12.103469716701342
   244   3      8.1012565227091216      6.0428515866864014      14.298030931543543
   245   3      10.126053471819013      4.0383238287036995      14.469020951877262
   246   4      8.3656790102848682      3.8329824767759924      15.995510692003343
   247   2      10.137771969803513      5.9059201981398308       18.24091258295142
   248   3      10.149126431861022      6.3922483529271723      16.248320866080817
   249   3      8.1413847080612314      6.3035581911732654      18.146938403532388
   250   3      10.051907815839286      4.0376442382392188       17.96754174218885
   251   4       8.364882746756324      3.8320456117349666      20.376887035758902
   252   1      10.164131443281448      6.0466458203196334      22.246710151133652
   253   3      9.9693097603755163      5.8807760456668916       20.20102037385616
   254   3      8.1049469665793996       6.041813729760241      22.394272815247287
   255   3      10.134630021755759      4.0366130626946477      22.569838948646009
   256   4       8.369737941232799      7.8852730301710814      11.943169962513144
   257   2      10.136977663792074       9.963010830258602      14.198489525708748
   258   3      10.152781626941557      10.442188672778114      12.201749425037347
   259   3       8.144170245586464      10.356573556927625      14.090916291731082
   260   3      10.051692900116638      8.0943553434292479      13.936128765324044
   261   4      8.3702571976420561      7.8952143078520969      16.330858548938476
   262   1      10.139262042666815      10.127665298620849      18.201060751281521
   263   3      9.9568428467691312      9.9509726177771842      16.159829851394015
   264   3      8.0564002992847161      10.123593138714073      18.357370398020986
   265   3       10.11468951368661      8.1067971276539357      18.512305773492489
   266   4      8.3701268292037323      7.8880922795189035      20.052225127374516
   267   2      10.135835112121956      9.9642233227274808      22.283259297525582
   268   3      10.147706056178775      10.454468735071684      20.291963743559361
   269   3      8.1499317029585434      10.345570507985357      22.205320929567989
   270   3      10.060688212190202      8.0937609022523809      22.011515495974866
   271   4  -0.0037802037220902463      11.996004186798938    -0.20418527204804826
   272   2      2.1054704710591214      14.101733980815899      1.9714790452782027
   273   3      1.9792968370959347      14.351390052083689    0.076089745978556098
   274   3   -0.023693445535488779      14.406301424168053      2.0834135500348063
   275   3      1.8597266469477036      12.206948041566397      2.0737887219051681
   276   4   0.0097161405030354777      11.917040309653219      3.9077048059768709
   277   2       2.065740466020261      14.097452975534086      5.9968527718577853
   278   3      1.8319700231244627      14.223273861933357       4.093075761123214
   279   3  -0.0055144504570377208      14.229947655555687      6.2867111002868699
   280   3      1.9764865478968803       12.20506010147032       6.224633627968652
   281   4   -0.033483592662477947      12.008871212976473      7.8846224366302078
   282   2      2.1240309603638443      14.092271927688916      10.019040608056125
   283   3      1.9888101741115483      14.342357971754279      8.1232690263647687
   284   3    0.039754317330494345      14.337901695520792      10.193044215980775
   285   3      1.8783741132979819      12.189812503023072      10.137799939800017
   286   4    0.014180000805347495      15.983965508564214    -0.12251989618979109
   287   2      2.0629543274959063      18.160407070885402      2.0094092503142176
   288   3      1.8130981017042713      18.273497397544407    0.090213173081572923
   289   3   -0.027104131914161222      18.279523396043274      2.2668277756162549
   290   3      1.9610179299132222      16.256032809415817      2.2015306155390824
   291   4    0.011761424204731002      16.031259226406394       3.881656364854186
   292   2      2.1075131871871489      18.140021437422952      6.0789113212706498
   293   3      1.9756287707666853      18.386973349216866      4.1181634223704373
   294   3   -0.033621884476185256      18.448880778145675      6.0425818473536221
   295   3      1.8523067594893872      16.243014020236526      6.0933091056871458
   296   4  -0.0086399022481731882       15.98793383018848      7.9821163683273477
   297   2      2.0829503379725245      18.122735017158579       10.15890317943586
   298   3      1.8051858906736318      18.267209675440657      8.1004444284094248
   299   3    0.017757556598676411      18.237311535518181      10.253355146860606
   300   3      2.0145889330245126       16.21219665578057      10.228651670929352
   301   4  -0.0084650971001361715      20.085201903663403    -0.15960899750346014
   302   2      2.0908250355756555      22.193073510539492       1.981238325213784
   303   3      1.9731346075299163      22.450835746027678    0.071230781527556367
   304   3   -0.028111019236601021      22.535348555298331      2.0612891834871196
   305   3       1.866083064389144      20.305529408967541      2.0591491790357166
   306   4   -0.035110119365624616      19.957523253111969      4.0432856180367853
   307   2      2.0397775734062584      22.182650088624193       6.009547690387258
   308   3      1.8266060294499051      22.359890763589696      4.0905678840014215
   309   3   -0.015035812224975438      22.401161048737084      6.2420653591910877
   310   3      1.9794126452193106      20.307708766044684      6.1775027275062673
   311   4   -0.063666274666546271      19.885130441654223       8.104091289972434
   312   2      2.0926589268031881      22.195053180124866      10.027039704849301
   313   3      1.9660959937284406      22.476771826545903      8.1224920298459118
   314   3   -0.017684935552762761      22.548126971079117      10.138500215536773
   315   3      1.8489842101438445      20.317125564220035      10.056132036816731
   316   4      4.4593449210785021      12.083064730948385   -0.035689390662200962
   317   1      6.1307211399349253      14.165614916647423      2.0182713097739899
   318   3      5.8832110074368291      14.222491222555714   -0.034655415079472417
   319   3      3.9575559975579764      14.210600879606437      2.1474305123893775
   320   3      5.9484645285746955      12.123185263685492      2.0566422275685619
   321   4      4.4774367508137543        12.1185754737967      4.0181435526651423
   322   2      6.2468405076659526      14.207157634905352       6.070765160686201
   323   3      5.9941482105661654      14.230496419477868      4.1029364103270529
   324   3      3.9420706742907474      14.275936371036074      6.0518325802284814
   325   3       5.899454632026198      12.231981617538045       6.073952663118674
   326   4      4.4813111244524366      12.099509223153712      8.0285222961914045
   327   1      6.1254903059676256      14.165356531423232      10.096603211316589
   328   3      5.8820015295820927      14.209193785170472      8.0490623607549523
   329   3      3.9817373865226693      14.190343819092902      10.216627147896796
   330   3       5.959519338091126      12.120553521669402      10.165097972677055
   331   4      4.4623819355187226      16.194200246480143   0.0026233842259195698
   332   2      6.2472731722317496      18.262666420535226      2.0375519222523835
   333   3      5.9883941744170919      18.279861483962577    0.070320043727193388
   334   3      3.9388464526845044      18.318759318574401      2.0184187982512589
   335   3      5.8940107032576643      16.286867029658726      2.0389461812825904
   336   4      4.4747677788895608      16.171659486542609      4.0102686698993741
   337   1      6.1392452928683685      18.217703556390216      6.0533981754339266
   338   3      5.8652798034697229      18.261890819271613      4.0125106448336609
   339   3      3.9661136882793393      18.254175195535439      6.1841476129010235
   340   3      5.9466539141249353      16.173499873854219      6.0975945815568586
   341   4      4.4740603464819175       16.16901806293237      8.0763708476974454
   342   2      6.2458474386915368      18.270566962510731      10.089933544732471
   343   3       6.025447267925534      18.283625993312217      8.1305691012216954
   344   3      3.9752705688492527      18.325893938505811      10.013502424803956
   345   3      5.8792238501293168       16.28684105858882       10.12335364824864
   346   4      4.4644135258511994      20.227049791630115    -0.03068777830422199
   347   1      6.1296693328460137      22.265896023935365      2.0216813716672752
   348   3       5.870116477510404      22.301792680248212   -0.030760392690337101
   349   3      3.9474263044700382      22.314766496667609      2.1468903637772034
   350   3      5.9406439106132805      20.224929232186884      2.0661105816201837
   351   4       4.454382722700795       20.21529339183796      4.0392805710788497
   352   2      6.2253812239837165      22.301618995453321      6.0800131697866666
   353   3      5.9842342260313739       22.33687729617489      4.1084712348346466
   354   3      3.9254193325690308       22.38984371235728      6.0519158979906313
   355   3       5.880322407095278       20.33136247013951      6.0710937477853486
   356   4      4.4484718930509182      20.200895704295682      8.0588472904164785
   357   1      6.1104642499756707       22.25531358644859      10.122411489932512
   358   3      5.8600874199367441      22.304228532875303      8.0582134184903538
   359   3      3.9433725045540826       22.30481161153515      10.209147008929275
   360   3      5.9489728417430952      20.217353607153598      10.157151557750948
   361   4      8.3764680935458866      11.940903852591266    -0.20613655710167783
   362   2      10.153126962438279      14.015114628789112      2.0342234485528046
   363   3      10.154423309866369       14.50756198262307    0.042224210046752482
   364   3      8.1533870814124807      14.408559508663769      1.9452486902724337
   365   3      10.060873017603447      12.146152190321107      1.7631016432418434
   366   4      8.3808159051505076      11.952801087899388      4.1741084737746998
   367   1      10.165903028427483      14.151401227871032      6.0391618356438528
   368   3      9.9767972095063975      13.979228411354992      3.9976075434381757
   369   3      8.1099398203861899      14.152532017106189      6.1876281881064408
   370   3      10.131405434912304      12.144825430718988      6.3622705520475442
   371   4      8.3691089638752665      11.931311884322083      7.8818635197658802
   372   2      10.133097712931265      14.010060073274545      10.138831882959455
   373   3      10.158634167311751      14.499996220023359      8.1464891685609366
   374   3      8.1474356190458153      14.415474188883733      10.042689477273051
   375   3      10.048470604520057      12.143655865377376      9.8819077221460674
   376   4      8.3731536663609933      16.010319345946375     0.13271608692904727
   377   1       10.17371636101454      18.208977960930028      2.0039439522260656
   378   3      9.9811225097726055      18.017621663772022   -0.034394494821062285
   379   3      8.1100132582953126      18.203139443560392      2.1531892714690124
   380   3      10.138493048914501      16.200150226940249      2.3265578128291882
   381   4      8.3710276986823384       15.98615276847468      3.8369577688497647
   382   2      10.151780903948611       18.06721549076234      6.0777041322207817
   383   3      10.175126951227607      18.566293178891481      4.0991956809637351
   384   3      8.1621711762635165      18.461281554459219      5.9872920732101971
   385   3      10.070866447814796      16.197654464700296      5.8182479450997668
   386   4      8.3777939238484134      16.005051767581389      8.2075071222008624
   387   1      10.161469686726129      18.210300927992211      10.092276390285596
   388   3      9.9850497804403933      18.035823948325298      8.0467602099302873
   389   3      8.1072546357249582      18.197284134206509      10.252805670233503
   390   3      10.136763409679661      16.207069719459813      10.418445379461646
   391   4      8.3776338918454059      20.068591603423553    -0.19297428227084559
   392   2      10.166334819086376      22.120114355211292      2.0482517900582193
   393   3      10.169076662925509      22.598310811276821    0.051638948427673637
   394   3      8.1566153438809526      22.498192932584686      1.9479310521987712
   395   3      10.062253422635829      20.249499476187946      1.7680459928850818
   396   4       8.379027631974159      20.070178204333054      4.1612928523826129
   397   1      10.145412246325614      22.260552191775915      6.0536164443106806
   398   3      9.9693086569119984       22.06945513801795      4.0089330820451323
   399   3      8.0916702868763597       22.23576304065211      6.1968002431431435
   400   3      10.145344048302055      20.255130651609729      6.3869906374106256
   401   4      8.3656472219273308       20.05515536035713      7.8783096198217164
   402   2      10.141266523249284      22.117116882372663      10.140022481963841
   403   3      10.160301763807741      22.619358360427686      8.1426144668547042
   404   3      8.1484737917074597      22.498342258088101      10.047281275834717
   405   3      10.074380301009802       20.24937493451603      9.8425584079627217
   406   4   -0.048364041154131308      12.056178378196707      11.894684049416155
   407   2      2.0761861195181974      14.205530931715126      14.037060876329871
   408   3       1.942613424527903      14.166838395320518      12.164356311960253
   409   3    0.032010244653852701      14.161166831297582      14.410951494640235
   410   3      2.0093679341683615       12.20165596569624      14.396494046957676
   411   4    0.067812197356055093      12.105329498015806      15.926070313560132
   412   2      2.0944582604912916      14.104180454987254      18.173184332191212
   413   3      1.9769502188169989      14.264378595818158       16.31066739540308
   414   3   0.0039207302014015793      14.357374403045847      18.346669332957337
   415   3      1.8480880044977739      12.203413475075317      18.335176639132079
   416   4  -0.0014144367230899523      11.961905480357341      20.082321534315547
   417   2      2.0611258733984208      14.106400326616834      22.221476063340855
   418   3      1.8480806897330211      14.225138015698482      20.337815816304797
   419   3  -0.0059399351982850693      14.230372463454664      22.531213323268005
   420   3      1.9677765429497895      12.211237058644357      22.466921037018466
   421   4    -0.10884519345172335      16.138639498519797      11.807785927388267
   422   1       2.044173953138372      18.201761378973906      14.101891779178487
   423   3      2.0497068724187915      18.418163294142584      12.072292752972045
   424   3   -0.039988511317493453       18.39375717220295      14.191805512012284
   425   3      1.9330277127668605      16.143598244852789      14.308327767249532
   426   4     0.12918926807560779        16.1001187487282      15.902742433903557
   427   2      2.0640412334168694      18.138941143117091      18.165938132835816
   428   3      1.8213591081807143      18.247349461138644       16.30271345892513
   429   3    0.002222411910977995      18.259540645116232      18.503872231579912
   430   3      1.9635674443831157      16.236882107223899      18.427395097551425
   431   4  -0.0049180742943622947      16.046807694404812      20.048894513033872
   432   2      2.0878521535150547      18.160224999766715      22.253822935134817
   433   3      1.9935855194317877      18.384559841292553      20.354130838072308
   434   3   -0.024322824040822422      18.456074583108901      22.361817386876005
   435   3      1.8470585347019419       16.25896525086414      22.362058356516634
   436   4    0.026160069902203868      19.872185539479432      12.013443621168058
   437   2      2.0512046661359027      22.193858902155487      14.057831054764511
   438   3      1.8424904633243442      22.331010882455608      12.161118006531098
   439   3  0.00067010359092232075      22.345101892729812      14.364792860949365
   440   3      1.9918046040791861      20.329595785718158      14.332858835463366
   441   4    0.081576438391589068      20.025152195078096       15.91238187489088
   442   2      2.1062242257186456      22.186574454717704      18.144213877969786
   443   3       1.968778297997829       22.43782716469364      16.256332010056671
   444   3  -0.0071559127012239846      22.489669537865915      18.289720852380704
   445   3      1.8571324940537177      20.291314118391515      18.305300141013515
   446   4   0.0093351571662435486      20.033812026453354      20.106934266941909
   447   2      2.0557366595015027      22.203490311902669      22.211755073286675
   448   3      1.8444091528612074      22.322841705960219       20.31137863107972
   449   3   -0.010275119387201642      22.329027023822878      22.518733437250074
   450   3      1.9647292121619746      20.306323799331512      22.464537276895197
   451   4      4.4250999119118442      12.070562258087007      12.045082225466466
   452   2      6.1962148062728151      14.192146226166196      14.105944341552989
   453   3      6.0015878505722764      14.250646617655406      12.194726690678186
   454   3      3.9840454479281737      14.231509164321388      14.266192127234508
   455   3      5.8722523055284102      12.233125034172369      14.180320112696787
   456   4      4.2727118805477708      12.005150449431289      15.945397795813681
   457   2      6.1078561857854767       14.18948514274912      18.166791085487986
   458   3      5.9293300834951728       14.16636913182465      16.257620161283302
   459   3      3.9801484324233836      14.171144775297114      18.388483703666449
   460   3      6.0093613749188961      12.229141343463274      18.370114485389465
   461   4      4.3819554093477269       12.00289135752257      20.324405605245808
   462   2       6.217506519495565      14.205925691995141      22.308914825784584
   463   3      5.9881089184377405      14.260823358177333      20.291703677539612
   464   3      3.9408821216006009      14.281842091526576      22.285358621741825
   465   3      5.8831502594494083      12.240050571520094      22.279534784791291
   466   4       4.429253820951554      16.243238090476318      12.056476420274018
   467   1        6.12387047679392      18.207782440926366      14.136138014162785
   468   3      5.8471328358527321      18.233712790045288      12.085189860839044
   469   3      4.0297065712962024       18.24393908334342      14.385408898077523
   470   3      5.9484617578860357      16.153221094505131      14.230878520400013
   471   4      4.1863193608613773      16.421592916851935       15.82143384041442
   472   2      6.2066645514791698      18.282233391234765      18.216031412315406
   473   3      6.0507397395005391      18.256941839071242      16.276738069908429
   474   3      3.9514026589517424      18.295263394280024      18.213124637799346
   475   3      5.8864729576041244      16.207573562300311      18.319078850517847
   476   4      4.4280747014392032      16.274615077037755      20.312300018281768
   477   1      6.1342716573124809      18.230797900757281      22.287904197028748
   478   3      5.8343919187772135       18.21988268810458      20.241068594294315
   479   3      3.9456656405189872      18.244034812690355       22.43797176503222
   480   3      5.9225872637617254      16.181920209680275      22.301964960930636
   481   4      4.3851616018233797      20.110777446794774      12.155773957622259
   482   2      6.2308075939529131      22.296182936683156      14.178342842120255
   483   3      5.9788060321462835      22.353584635123088       12.20145624224738
   484   3      3.9320776837036706       22.38035251110956      14.170059013767696
   485   3      5.8668745020313997      20.329567548440217      14.138743522087454
   486   4      4.2674274054579149      20.018161018958942      15.887562069795036
   487   1       6.103855779771723      22.232971879829638      18.190008428185209
   488   3      5.9233966633091493      22.355488588045482      16.144916450846523
   489   3      3.9548161405968481      22.295198186378304      18.348401751452254
   490   3      6.0131515455243916      20.197420423633055       18.35820487482961
   491   4      4.4633284288376629      20.221752666867008      20.239320721504448
   492   2      6.2403357349304454      22.304632638013423      22.284641747572834
   493   3      5.9757020419935003      22.332741578253657      20.319595175072845
   494   3      3.9316481473917331      22.372626015196264      22.285842411448431
   495   3      5.8713068786675464      20.330011744908912      22.289294243923255
   496   4      8.3704955979772304      11.938328354350199      12.275666344091823
   497   1      10.138926977608817      14.160158168437977      14.158299133064242
   498   3      9.9675567886488246      14.012415541378015      12.107163410282313
   499   3      8.0576541230409813      14.145637643000061       14.31270924214142
   500   3      10.119927520810277      12.158183269837451      14.470357892844147
   501   4      8.3535602417082444      11.956986674234207      16.000190958752732
   502   2      10.237958414026401      14.068633082992061      18.249664694679961
   503   3       10.10121711372344      14.525398319947557       16.28178386505099
   504   3      8.0153758170840437      14.342246988275393      18.191333460291549
   505   3      9.9911997468521747      12.196703724920541      17.983021545238849
   506   4      8.3640612942341406      11.962121703559351       20.34222938621426
   507   1      10.155079781629333       14.15962886687052      22.241214593815783
   508   3      9.9080687859227599      13.996233107044246      20.190835332555483
   509   3      8.0810745430501711      14.168298012038928      22.394543945626733
   510   3      10.130415910550381      12.153573708512518      22.572373254237085
   511   4      8.3688158312386793      16.015968802355509      11.927613271648596
   512   2      10.170067606826599      18.109883569554789      14.166294387531794
   513   3      10.164690711583045      18.558527529478649      12.192972128421175
   514   3      8.1374322877561589      18.470288783534411      14.085404002874137
   515   3      9.9968684609878427       16.21530358109483      13.973810811795358
   516   4      8.3998152936827619      16.121318197384667      16.170177174115523
   517   1      10.149695411345476      18.190390917235199      18.195250819756581
   518   3      9.9326113601115136      18.021504706074357      16.154396514629944
   519   3      8.0718809993869503      18.152103211494637      18.378461083976138
   520   3      10.094544254760656      16.167447525595652      18.535163173188462
   521   4      8.4128722447674757      16.095643941888518      20.148241750844626
   522   2      10.166080427110538       18.09069641736361      22.317133461231759
   523   3      10.149317980215981      18.530007140301397      20.297638859288561
   524   3      8.1554506834137648      18.456958239358368      22.202812949312026
   525   3      10.054832646201815      16.210659938764756      22.011805622997922
   526   4      8.3365724323362951       20.06141097279027       12.26510916172162
   527   1      10.163543268652697      22.243660649733052      14.143231036024968
   528   3      9.9928851465673372      22.050629043040555      12.096094466864997
   529   3      8.1006477922579769      22.216201866867777       14.25699944239615
   530   3      10.144586434905904      20.234758685847623      14.484602468188518
   531   4      8.3512774747175715      20.042519380744103      15.995721663782962
   532   2      10.148119961494679      22.105184291739757      18.241009327666891
   533   3      10.144400946801914      22.585142953910136      16.242568767402332
   534   3      8.1433854400374184      22.500511563215809      18.154228842870506
   535   3      10.033986650493054      20.233351527435648      17.970108302371777
   536   4      8.3595557802723093      20.040033961397487      20.355704065226146
   537   1      10.171908815729893       22.24787695234393      22.246758709069621
   538   3      9.9787817288567169      22.058658308258572      20.201942813573151
   539   3      8.1038766389041559      22.226919280844168      22.400282998910722
   540   3      10.151121477542642      20.241430590436938      22.591034477163142
   541   4      12.204205230173738    -0.37282225354731546   -0.045047509513174322
   542   2      14.170423793610711      2.0337649993558609      1.8616757597070459
   543   3      14.248483099961771      1.7568481576615118  -0.0082345612763696889
   544   3      12.213404169233629      2.0159721586852095      2.1701486499119271
   545   3      14.158291270232196    0.042040835358865186      2.3509618650952695
   546   4      12.129062353650083   -0.019044473317224454      3.6748300756539414
   547   1      14.150934048721318      1.9917014576776377      6.0572907329568597
   548   3      14.173148448092801      2.3222929139468915      4.0500058907201195
   549   3      12.106173790266833      2.1452275565283858      6.0857668435150636
   550   3      14.398535530476176   -0.058220783529037992      5.8929085238088161
   551   4      12.144029785215693    -0.32810312670577269      8.1283983596246436
   552   2      14.137155115088301      2.0653492417321697       9.987945195708205
   553   3       14.24916720738749      1.7556741770172208       8.108997599763649
   554   3      12.194567710380287      2.0146730154207795      10.254951644553397
   555   3      14.157190261142928    0.045259289231180472      10.429871049917894
   556   4      12.120941902498156      4.0008054625887661    -0.37286323725875897
   557   1       14.13640234011995      6.0463878612877275      1.9993601597123511
   558   3      14.170567254453406      6.3642139072473149   -0.010899145159693693
   559   3      12.098451612391134      6.2101685710866859      2.0264993243219482
   560   3      14.323604853020186      3.9998151049793949      1.8259109379670386
   561   4      12.197798616362679      3.6772881908908919      3.9954921486878496
   562   2      14.152021143202456      6.0846840281107353      5.9121693287433974
   563   3      14.243316511034182      5.8116621454018205      4.0430840443049547
   564   3       12.20490092703673      6.0693534528920532      6.2169533566426463
   565   3       14.15073299159681      4.0902155734933503      6.4042718815504749
   566   4      12.119785840617562       4.008092319618993      7.7291822529161562
   567   1      14.130862163261078      6.0516023556212639      10.106639860586959
   568   3      14.168054958739571      6.3706714391723729      8.0963210746704668
   569   3      12.091918170942034      6.2093556526152742      10.129791894608561
   570   3      14.321748333807649       4.011622810006946      9.9152545845904321
   571   4      12.182923532195501       7.728120370438524   -0.049297974918220216
   572   2      14.150194197102779      10.137346625738356      1.8570055606756264
   573   3      14.239097081631208      9.8648412184680225   -0.011989342798915397
   574   3      12.203820962609411      10.128049169566074      2.1599635067875953
   575   3      14.141930708483818      8.1435217488591327      2.3450705979906692
   576   4      12.116321622742964      8.0546225116589465      3.6752126697527676
   577   1      14.131465221356112      10.090921798902114      6.0496812701946086
   578   3      14.166613138639891      10.414653860465863      4.0424396963744877
   579   3      12.095526053445298      10.260910051632369      6.0772675653033019
   580   3      14.323676006513978      8.0476412031192215      5.8766915214136715
   581   4      12.181579431889526      7.7255245492547324      8.0546650224589467
   582   2       14.13941082203972      10.133879075240142      9.9634361766454305
   583   3      14.236695047680612      9.8661912532612739       8.094010871769882
   584   3       12.19502933193089       10.12863939613937      10.265804887488613
   585   3      14.132761714363403      8.1444676662515469      10.455622769228038
   586   4      15.934952332972086    -0.20071086718116571    -0.20753339278582222
   587   1      18.170023359101879      2.0192482564679102      2.0013228102964407
   588   3      18.371576481775357      2.0666533936638998   -0.033759540864595566
   589   3      16.155846985236316      1.9532087230115314      2.2460561760070084
   590   3       18.44970242782404   -0.033688200447422559      2.0684994186754291
   591   4      15.944332896996418    0.094293982293688072      3.8587445493745665
   592   2      18.085680806230258      2.0551470619182521      6.1050838579665747
   593   3      18.421361508684399      2.0229968613020639      4.1391301032630885
   594   3      16.221786743007872      2.1428065033380483      6.0619940934512258
   595   3      18.305057592613394    0.036067714564142886       6.165311633426426
   596   4      15.895248333376003    -0.10322770714660444       7.993277790419123
   597   1      18.171770667357123      2.0355990699179864      10.127601934606496
   598   3      18.372652431718166      2.0550781027590821      8.0809594986064184
   599   3      16.149545195584349      1.9517711372182125      10.354805389404991
   600   3      18.459663905243119    -0.01264468420385117      10.116570373125374
   601   4      15.921963740584188      4.1894716659905207    -0.20092189608474098
   602   2      18.057186606417336      6.0810586689055706      2.0508148289291119
   603   3      18.410036018277925      6.0746987982351959    0.078219821373878493
   604   3      16.194956375756647      6.1896973983908774       1.988411532263195
   605   3      18.313278892132992      4.1092018333063658      2.0888458166512276
   606   4      15.929561816612807      3.8437045594023709      3.8422088469063538
   607   1      18.171683981756399      6.0679688778026337      6.0627219815694469
   608   3      18.350785470837419      6.1147131674168866      4.0205189614463093
   609   3      16.149991435065171      5.9955354597029054      6.3032548504447714
   610   3      18.416655874077229      4.0142320025011484      6.1179414307667868
   611   4      15.932751702642726      4.1882063882488181       7.908143486356761
   612   2      18.055722366903776      6.0905461961875949        10.1639652839525
   613   3      18.408128203397929      6.0876164893493705      8.1873917649794059
   614   3      16.193030778564435      6.1980538726973586      10.099975603789931
   615   3      18.312447596230506      4.1215875290995481      10.186180557980643
   616   4      15.926512298654171       7.894861288736756    -0.21816684510788853
   617   1      18.166527937634314      10.108705775448984      2.0071787786770381
   618   3      18.347591529782044      10.167305775961131   -0.030197358395705948
   619   3      16.147103676034551      10.043090030481361      2.2498723940776757
   620   3      18.424696986157389      8.0593926209880298      2.0517089946390183
   621   4      15.922849747483941      8.2259488926997495      3.8495959418937331
   622   2      18.054162006302491      10.123050601440388      6.1063905385009258
   623   3       18.40354747003564      10.124921472118723      4.1318153416954715
   624   3      16.190744905230119      10.243265304264806      6.0450357644220674
   625   3      18.302398725160057      8.1570295814158325      6.1357171425784243
   626   4       15.92718874811797      7.8924024924909411      7.8900528212122145
   627   1      18.157987875088018      10.109029054698198      10.116566675539456
   628   3      18.347694973534328      10.160390764321408       8.073620437432762
   629   3      16.137760253006807      10.041192335020996      10.363556495887016
   630   3      18.427615529864759      8.0680657243220786      10.160078321145274
   631   4      19.856467663113083   -0.017135908845724437   -0.087312700701959803
   632   2       22.21609643070645      1.9705956086235932      1.9454837663615558
   633   3      22.420369143214195      2.0877008795980019    0.050641044224580087
   634   3      20.347784052174333      2.1589024912742363      2.0920989559892358
   635   3      22.277234920007231    0.080484725233161719      2.1953490499777839
   636   4      19.926810852410036    0.061618795422239796      3.9027450477313397
   637   2      22.235236108427053      1.9636456352499083      6.0086148651016753
   638   3      22.322261873560073      2.2202464458975926      4.1113034189530362
   639   3      20.353633200251227      2.0322720542203538      6.1870288569517164
   640   3      22.442022745242717    0.085532010520089713      6.1178863325301656
   641   4      19.879249719248921    0.045229436605624215      8.1726975866333245
   642   2      22.211042361913989       1.984910761229691      10.057545288351754
   643   3      22.451564285528274        2.11054856131463      8.1557819361798067
   644   3      20.351088257489543      2.1852271706497866      10.142081543001098
   645   3      22.296699632187281    0.098321654461911351      10.282691767037244
   646   4       19.83321303011374      4.0230436628435555   -0.045032967459660102
   647   2      22.232736197951734      6.0025576789374435      1.9537067335835117
   648   3      22.318447144727216      6.2405327925711553     0.05849162885652244
   649   3      20.354401210664687      6.0677128478874298       2.135329311767693
   650   3      22.444668001225892      4.1105637414129781      2.0773186959046894
   651   4      19.844660423196753      4.0036806408478833      3.9780021233455867
   652   2      22.192264451936246      6.0162601606244657      6.0030885671035943
   653   3      22.433842299238297      6.1303016344738754      4.1064537626452466
   654   3      20.338406177268034      6.2079110929903614      6.1122317848214269
   655   3      22.306470606708274      4.1271887340765749      6.2516131884111221
   656   4      19.836419917215981       4.041886910169203      8.0893078118298174
   657   2      22.236618205454111      6.0326356759992041      10.058505244903895
   658   3      22.327108941933364      6.2616673124300721      8.1578183241971072
   659   3      20.359886390831505      6.0837133929780789      10.225139050755191
   660   3      22.467677832990002      4.1351775719746229      10.178328165964844
   661   4      19.827054239772313      8.0414651134243229   -0.051359833195168764
   662   2      22.190053916624201      10.049126886192663      1.9539196378964976
   663   3      22.430373646467238      10.161648500000339    0.063200833106034152
   664   3      20.336209602235595      10.249992825550924      2.0644403672374301
   665   3       22.30126802447203      8.1537540083658193      2.1977972498149456
   666   4      19.824792021502851      8.0651121598312017      4.0153522694877744
   667   2      22.229536019435354      10.042414455430492      6.0002940604740607
   668   3      22.316188804009514      10.283268516107844      4.1063104192021216
   669   3      20.352619454481871      10.111879036973882      6.1798128402538328
   670   3      22.451938231728771       8.148899511148807      6.1259099521050491
   671   4      19.825171013001313      8.0488526171443251      8.0655908645227239
   672   2      22.187548054267442      10.110767435134886       10.04718696421274
   673   3      22.438657179646125      10.167512157095487       8.149103363897563
   674   3      20.335403253391551      10.258504784787752      10.163206939099053
   675   3      22.319353786138329      8.1866253485607015      10.295405476814466
   676   4      12.119838963257887   -0.047676574536225487      11.787401388690416
   677   1      14.135039642703566      1.9933030252024646      14.147895544634073
   678   3      14.155856130202267      2.3328293122095212      12.138966039233853
   679   3       12.09014874720493      2.1613611946315925      14.172200055253684
   680   3      14.326840726508669   -0.050144156611154886      13.959467818422317
   681   4      12.177298762124007     -0.3732000662703846      16.158448842179155
   682   2      14.151122506460938      2.0343895909027077      18.056419923371923
   683   3      14.243645629602748      1.7584662293037903      16.187447522901721
   684   3      12.203255313935449      2.0190193427134511      18.356661970755688
   685   3      14.147753487568988    0.039146383945641482      18.543972306282935
   686   4       12.11869971205793   -0.046670062161357856      19.876812912853207
   687   1      14.141635022936732      1.9952065155117436      22.247441690722219
   688   3      14.167094066146518      2.3185510673001701      20.238002846014201
   689   3      12.099992058949507       2.155294034381535      22.275674071777793
   690   3      14.334780854257708   -0.051988541625561081      22.076891580915706
   691   4      12.155309091600392      3.6873479733466112      12.133853575542496
   692   2      14.142580632308611      6.0912724396640598      14.018049424273546
   693   3      14.239961793914299      5.8131618172932269      12.148165009192489
   694   3      12.196485036770673      6.0729499728129648      14.314417887568288
   695   3      14.141279525934594      4.0940253930657819      14.499012463264283
   696   4      12.109445429852151      3.9978455490738143      15.830835585846385
   697   1      14.129430547019963      6.0474022377959384      18.200432558876813
   698   3      14.158715228058485       6.376809071693426       16.19541300928773
   699   3      12.086068302150515      6.2184099531819532      18.227493697593594
   700   3      14.325234749834939      3.9984084093488308      18.017373210725623
   701   4      12.180891493392524       3.672820606800824      20.204307390051294
   702   2      14.148028933797654      6.0881948576580198      22.103796656743064
   703   3      14.237420234600245      5.8115985719650709      20.235882849331361
   704   3      12.203277817769003      6.0743823191793798      22.408838104835954
   705   3      14.144131127908222      4.0927508702420976      22.592935080444459
   706   4      12.103678378507185      8.0528037047207803      11.783713990758281
   707   1       14.12388622788003      10.096915615458528      14.159596763636626
   708   3      14.152702157957915      10.421260879017293      12.152490041297932
   709   3      12.085266560534345      10.277690569917391      14.192425287695031
   710   3      14.317067572608918      8.0540230521822345      13.975324788138741
   711   4      12.170896017183537      7.7291626326504366      16.165108386672991
   712   2      14.136931030640541      10.147790377915385      18.064953147869073
   713   3      14.237775560802156      9.8699265292903586      16.195932821252129
   714   3      12.189517826099852      10.154120947759541       18.35642435169331
   715   3      14.133013613376928      8.1524908206276212      18.548047947606864
   716   4      12.098466770489594      8.0585458663661811      19.873760595391722
   717   1      14.131650591770743      10.096111885309696      22.247332208489372
   718   3      14.163693655993004      10.428133259183301      20.239879338398676
   719   3       12.09198401773719      10.274323596997732      22.266384068199873
   720   3      14.323676671578024       8.050452457101013        22.0717875495105
   721   4      15.950468396868427     0.11416760344432594      11.935015390136259
   722   2      18.064096737336754      2.0308077743057735      14.205351732658549
   723   3      18.429135106341068      2.0339463435190424      12.230035258179594
   724   3      16.199927994863753      2.1456701426389224       14.12550319673395
   725   3      18.320655343291229    0.066758145294621513      14.241121700763593
   726   4      15.940656339324873    -0.21149013596018795      15.991626050994739
   727   1      18.178366261581811      2.0111030957716705       18.20444157875226
   728   3      18.353295341280191      2.0794893415759463      16.167350059920228
   729   3      16.152221303592022      1.9432492215450319      18.447976786381446
   730   3      18.433428723077533    -0.04190751761303841      18.247377848533137
   731   4      15.943931461485585     0.12421862161518706      20.032516224455222
   732   2       18.06301813102856      2.0324833581989399      22.291479077486141
   733   3      18.420113294474113      2.0244078058503359      20.325893246428926
   734   3      16.201526980109723      2.1420286050183068      22.235381846234795
   735   3      18.308006066170229    0.059268978401352132      22.346020730815333
   736   4      15.928940150339875       3.852985521033474      11.965633907652842
   737   1      18.168736556274542      6.0725916909389204      14.168150828098671
   738   3      18.356555633807119       6.122993035097708       12.12717267523556
   739   3      16.144366085452443      5.9995159711860717      14.405057217216065
   740   3       18.42807341372378      4.0200728673377641      14.198594942567464
   741   4      15.927328832877055      4.1763620093008313      15.999928977212791
   742   2       18.05965728080967      6.0806658494330739      18.251262946279283
   743   3      18.416963501457523       6.082920094860806      16.280450873107498
   744   3      16.195758727451562      6.1946799543821678      18.186424591991102
   745   3      18.312226950490523      4.1115538459650161      18.285092850620362
   746   4        15.9243209126297      3.8453654660520846      20.036384994490277
   747   1      18.171236796849797      6.0649945477620015      22.252764139582034
   748   3       18.35813770802698       6.116495892162785       20.21610828410704
   749   3       16.14890282530882      5.9941420217306201      22.493981447710677
   750   3       18.43333153078612      4.0116116024447379       22.29730302764824
   751   4      15.916000317096614      8.2221207821795783      11.960770611746453
   752   2      18.054537099956633      10.132921386399655      14.206526381749596
   753   3      18.405376380630209      10.128188738287227      12.235424110338766
   754   3      16.190098222092494      10.250821203390778      14.145542116254456
   755   3      18.308865329313718      8.1652370988722982      14.240518932845642
   756   4      15.920025686507858      7.8982617899976812       15.99934699809558
   757   1      18.170061883721839      10.115921733464811      18.211536722497204
   758   3      18.361005132059532      10.168049748420355      16.172219500364506
   759   3      16.144903302307942      10.047265740686811      18.448740480082272
   760   3      18.430178064804906      8.0635501045826121      18.252612930723195
   761   4      15.924814995256654       8.233324667935852      20.042879502760467
   762   2      18.057355889339139      10.127731368489378      22.298016160296815
   763   3      18.411476341447241       10.12531296481488      20.329497553920366
   764   3       16.19352869901147      10.242852245387164      22.237011857761839
   765   3      18.304951862309121      8.1590453917601522      22.338769304072695
   766   4        19.8443566031156   -0.022164987560598984      12.112907115727408
   767   2      22.239948266644856      1.9517109702329307      14.103075048000608
   768   3      22.327497824727807      2.2143443871909581      12.205294995655892
   769   3      20.363969443955177       2.038598486466447      14.276362160626649
   770   3       22.44528224498351    0.059697369053871546      14.218058645799532
   771   4      19.841251883745855   -0.073812024360969619      16.143660031789278
   772   2      22.203168698158361      1.9513430941831376      18.143493255078646
   773   3      22.446069252072725      2.0875464715184191      16.246738736773782
   774   3      20.350292884704842      2.1582590620784532       18.24964305009523
   775   3      22.316402869377516     0.05636311695928109      18.373393920555142
   776   4      19.842989026839437    -0.04547517043522379      20.197473836700777
   777   2      22.242352770567617      1.9460319256368352      22.194366664687436
   778   3      22.319411629717873       2.188044772833718      20.298442074590419
   779   3      20.361956303390809      2.0077392856370753       22.38215567809295
   780   3       22.45167103198418     0.05377445565267637      22.327633599050621
   781   4      19.833425310803154      4.0090658514086348      12.124122944403958
   782   2      22.200869859677624      6.0284032648465757       14.10217727954978
   783   3      22.442813410975361      6.1482793706734578      12.203945602659445
   784   3       20.34800150259057      6.2139056832265256      14.205717590218736
   785   3      22.321990390905764       4.129875254798951      14.334441119132887
   786   4      19.834818893279703      4.0226182187997992      16.162655430702255
   787   2      22.242032886096208      6.0096394644561855      18.148152528503982
   788   3      22.331143825111663      6.2454700497032105      16.254267264203502
   789   3      20.364228087792302      6.0719953348697286       18.32689608308565
   790   3       22.46259319264373      4.1092725248095983      18.271430716976798
   791   4      19.836949413431572      3.9958271154682592      20.194550014304383
   792   2      22.195743272852198      6.0068471072029981      22.197172991565779
   793   3      22.434360912998912      6.1242256259890029      20.305141935204993
   794   3      20.342667862100047      6.2063060317967729      22.311596364764476
   795   3      22.302177553577476      4.1099377744577446      22.434732012799312
   796   4      19.833639454895476      8.0850383681587434      12.123949819743576
   797   2      22.241884358067299      10.072513685336425      14.105832628283585
   798   3      22.344608510439812      10.280135845247285       12.21082969188401
   799   3      20.365021360810804      10.116570855653908      14.265722889902593
   800   3      22.475542359774668      8.1619856919934755      14.227711743740587
   801   4      19.832433532250782      8.0566421190571269      16.162116654701244
   802   2      22.205522559396073      10.071882061172985      18.141344483222536
   803   3      22.420014578152195      10.143599614957582      16.258887059108218
   804   3      20.349067150441336      10.247922070680042      18.273375373806484
   805   3      22.316407753284796      8.1626478460057363      18.404219725386596
   806   4      19.839562760087173      8.0747245780416375      20.202670109540581
   807   2      22.232946965015763      10.044683163837551      22.206885234198701
   808   3      22.321733148981622      10.272849058924104      20.321694034901814
   809   3      20.355683280574148       10.11257992501535      22.390181364393801
   810   3      22.455488917483311      8.1462131795790746      22.335870322239643
   811   4      12.107071918854603      12.097491352245237    -0.37267190805549627
   812   1      14.135573487397577      14.145030857303059      1.9971568908509636
   813   3      14.164723099461396      14.475639405560328   -0.010268937845865259
   814   3      12.098700052295195      14.318821475705231      2.0238909720282057
   815   3      14.327938286679004      12.100857845489449      1.8276764681827773
   816   4      12.185634493025518      11.776919417486932       4.002634149093609
   817   2      14.148926140158631      14.188695458334079       5.913023623784694
   818   3      14.244971416189609       13.92915024529179      4.0437426581015981
   819   3      12.201795987206236      14.180142310125939      6.2118688359627301
   820   3      14.137273501422845      12.195007828196545       6.394082836606608
   821   4      12.111049567725614      12.099217084275798      7.7258591994407411
   822   1      14.121838502576106      14.132088625783396      10.104385972696019
   823   3      14.155763964136311       14.46285675242715      8.1002211327201774
   824   3      12.086111963692145      14.319070985791047      10.133907766302487
   825   3      14.319489413339902      12.096184849974081      9.9305179264625032
   826   4      12.187630167196971      15.832445601019204   -0.041782878620442096
   827   2      14.161908253485752      18.242146219622004      1.8660549440000842
   828   3      14.255930698130802       17.98108703077127  -0.0045239208200957342
   829   3      12.212984641263491      18.238851332097035       2.170776718688995
   830   3       14.14465043980206      16.247974184255131      2.3448263705448662
   831   4      12.122924242091321      16.157545452221918      3.6786070107231161
   832   1      14.155559465554838      18.202957753643606      6.0541198611745495
   833   3      14.174177102746256        18.5221637561344      4.0537246053588758
   834   3      12.110221094713046      18.379521895791758      6.0991983719270095
   835   3      14.338211671596168      16.155751079018469      5.9009175114282222
   836   4      12.173027854492769      15.820026889944884      8.0502392523502326
   837   2      14.137642718661601       18.21122694812853      9.9990070419624235
   838   3      14.308170626934768      18.034541112896779      8.1070768159699167
   839   3      12.200484488197278      18.269870719706145      10.225641470018285
   840   3      14.130667941100773      16.246626575776165      10.452600327174459
   841   4      12.147245872601708      20.231748246034297    -0.35653561334096023
   842   1      14.164657653549121      22.249565946430046      2.0264525349028926
   843   3      14.188165673644175      22.561160027149622    0.005591705189882867
   844   3      12.114149050862617      22.408007313548755      2.0485375640648131
   845   3      14.341177645938515      20.206800016214629       1.841345279820825
   846   4      12.205223756199976      19.883407963381362      4.0018170550069536
   847   2      14.067637916456778      22.301797580411044      5.9633676580397186
   848   3      14.308425276635287      22.033646006509315      4.0921606541477722
   849   3      12.181339380111977      22.314246254509747      6.1684275386329714
   850   3      14.194142188036242        20.3334987815715      6.4208742781942894
   851   4      12.084146723609264      20.145603534252402      7.7686719710678975
   852   1       14.15666810320946      22.250289463238467      10.088876151283062
   853   3      14.209967303437475      22.586034202273979       8.065181034891209
   854   3      12.105484087352789      22.417677695397522      10.109558180528536
   855   3      14.360512827842223      20.206030673816919      9.9267857851756585
   856   4      15.930116126084277      12.270654541005227    -0.20783890863501395
   857   2      18.055813821552714      14.170976499557602      2.0491415697972295
   858   3      18.411099536578803      14.167107464902852    0.082541783658220097
   859   3      16.194262465112729      14.300441973608459       1.987563185713717
   860   3      18.300364309115324      12.205731245426577      2.0942593033635171
   861   4      15.926392362843407      11.937878868540462      3.8388221713522364
   862   1      18.172244840483657      14.149516825666478      6.0683753382280488
   863   3      18.345287745457185      14.219727746876719      4.0234327572983766
   864   3      16.147508287408108       14.09012162505954      6.3111157186421147
   865   3      18.420922226613069      12.105797597436085      6.1041909102605123
   866   4      15.917235923576653      12.256477608158464      7.8950453853230833
   867   2      18.033025667230838      14.140713050752208      10.165059849876638
   868   3      18.416801682231082      14.171103790351721      8.1901053595218141
   869   3      16.175836039048001      14.300930239365464      10.097598617800653
   870   3      18.275199493391472      12.188226418185844      10.189354452531791
   871   4       15.93239551014201      15.989840344059894     -0.2125569695833591
   872   1      18.167311174369082      18.210236239152483      2.0084947555638131
   873   3      18.343534664609933      18.292625658171442   -0.023671069443525004
   874   3       16.15513659583851      18.139030559245569      2.2612827818037915
   875   3      18.437726903279955      16.157187806294619      2.0525369529583668
   876   4      15.927052709351068       16.31148033763365      3.8421278869044206
   877   2      18.094503622825215      18.152136135887737      6.0947191897308306
   878   3      18.432412168105973      18.222688765334684      4.1367305072648053
   879   3      16.235512541047076      18.369749150515631      6.0322714681108556
   880   3      18.281849639779249      16.241737524963465      6.1579826577297068
   881   4      15.922225698080261      15.968495682327843      7.9031354363299231
   882   1      18.165117303194457      18.180646505304672      10.106942786054882
   883   3      18.326611666930617      18.289306170092953      8.0547546875104867
   884   3      16.156925186828314      18.138684012721903      10.372297205332591
   885   3       18.43877239489241      16.132773776445919      10.133206398072204
   886   4      15.931971219856353      20.372167495625408    -0.19737416962499651
   887   2      18.114302155851139      22.268301645821417      1.9986424308920758
   888   3      18.405021700735684      22.271255441306806    0.086219154684459245
   889   3        16.2461315175523       22.40631913477872      2.0173718325052095
   890   3      18.293651656666047      20.330867569142601      2.1827453816088842
   891   4      15.948039832209975      20.043842662610736      3.8565336151523049
   892   2      18.195939381562315      22.213860611969984      6.0880175860930406
   893   3      18.288707488800011      22.419267911035632      4.1283062245064359
   894   3      16.286376080601674      22.232910695329728      6.2412625240744184
   895   3      18.377760842590476      20.301691779112147      6.0596784946215889
   896   4       15.89601931715579      20.221729805309007      8.0171154392801718
   897   2      18.095854809313551      22.264507794239478      10.183668102175057
   898   3      18.416106401734456      22.356672332771886      8.1066575951819217
   899   3      16.230066471425001      22.422910772474577      10.051423461921095
   900   3      18.254236004920134      20.322342509503688      10.155344662098212
   901   4      19.832906970544844      12.106288173995422   -0.045539725861219495
   902   2      22.238074538701014      14.076565752955023      1.9575780043257429
   903   3      22.301997592622548      14.331586726087449    0.071198780646878151
   904   3      20.352233903198396      14.166887783559707      2.1543952594546489
   905   3      22.445556363641469      12.184184538474467      2.0788359117142141
   906   4      19.822439464942093      12.077534677286328      4.0009863538326007
   907   2      22.188081492717657      14.081768221818697      5.9900932064125687
   908   3      22.426369990200303       14.19467403370828      4.0997840842188005
   909   3      20.336586040801812      14.290725385391335      6.1155791770765138
   910   3      22.302236898548799      12.186957325719264      6.2449160120505676
   911   4      19.825003261627714      12.121909476712391      8.0596450121927923
   912   2      22.203354893825708      14.190956310348607      10.038178184426668
   913   3      22.334696040745289      14.291771988308701      8.1352182596962752
   914   3      20.332966189806662       14.09672608043199      10.212013418900474
   915   3       22.50561545413856       12.18099684451413      10.178248891657359
   916   4      19.842813036419933      16.113735444135209   -0.061156110149571813
   917   2       22.22212588185241      18.129993371655896      1.9955099790653219
   918   3      22.422267441028282      18.280381422432818    0.087952794795727054
   919   3      20.337610688948921      18.401785780813899      2.0830800750615843
   920   3      22.264476098590954      16.242632786852457      2.2106937769542707
   921   4       19.87036496478331      16.103450913973674      3.9673644300761954
   922   2      22.218305478804808      18.105823414434202      6.1078176539247471
   923   3        22.2761969458419      18.431449093470452      4.1076333260473357
   924   3      20.310422984022583      18.281878717321032       6.156982613966445
   925   3      22.416165395603421      16.216666302966207       6.091380289098919
   926   4      19.859898471613715      16.117210425355882      8.1511263126628393
   927   1      22.245326354509682      18.162067425539092      10.104749257193628
   928   3       22.39359000513824      18.309658061659945      8.0484761931884012
   929   3      20.255556629344696      18.414192623481146       10.13118121283534
   930   3      22.300359205941913      16.120780353662244      10.322337242744622
   931   4      19.899594166621924      20.143618687848154    -0.10331088481796051
   932   2      22.231811378629455      22.197553385824627      1.9764888335577184
   933   3      22.285828311733724      22.459198737750171    0.077272623914005564
   934   3      20.336713197214628      22.282554268183933      2.2139652898838236
   935   3      22.415138409163209      20.317138189821264      2.0690386908458556
   936   4      20.015658488330644      20.001545053904309      3.9072707537796596
   937   2      22.207815217671037      22.196756853677961      6.0191053618053223
   938   3      22.445450287113484      22.378958785570696      4.1104448129095914
   939   3      20.317679896992829      22.439350589936303      6.0688958288724928
   940   3      22.291710279702684      20.336832520223833      6.1579592463680326
   941   4      20.094202967494248      19.877600280786609      8.3310725187508421
   942   2      22.239832222870511      22.178458138840075      10.042894761307531
   943   3      22.321717824583835      22.481029176871729      8.1340602820842456
   944   3      20.344388433066193      22.270885910240953      10.195118099268919
   945   3      22.430984382758158      20.325835557982295      10.125758804778149
   946   4      12.170475512616623      11.774721380562678      12.111701437980543
   947   2      14.148780332778209      14.180512276422665      14.016084756990965
   948   3      14.218897879117652      13.919833747754208      12.145707241733065
   949   3      12.188156146259972      14.205407994185796      14.324218220359279
   950   3      14.129002155486871      12.201874288041164      14.511668819610342
   951   4      12.094456868997527      12.104167079262268      15.830777845961645
   952   1      14.160324806271605      14.157117214022948      18.201470518373831
   953   3      14.165765504510482      14.493517319759356      16.194287272673652
   954   3      12.123863532028578       14.26737206794709      18.253473268998899
   955   3      14.336232454193347      12.109706063730874      18.017436730245056
   956   4      12.178770893554939      11.777507287478663      20.228467575051379
   957   2      14.145256118188032      14.186422917423103      22.111841158855562
   958   3      14.258254927296758      13.920263493978036      20.242769165336277
   959   3      12.198444332506776      14.186966743275702      22.398507157875894
   960   3      14.142527947680723        12.1972003118331      22.595712260426609
   961   4      12.091345905731966      16.112802016209443      11.789720551867934
   962   1      14.143699039647018      18.200450904488939      14.146003399956721
   963   3       14.15580582370071      18.538576402298233      12.137328926518121
   964   3      12.104634547762858      18.329878431572432      14.204246524044255
   965   3      14.311204017146737       16.15081884702769       13.96903802485935
   966   4      12.225846271417064      15.874783009759961      16.093801042425106
   967   2       14.16508000704753      18.244430433138085      18.055434059334676
   968   3      14.232186494359942      17.941341957933545       16.19093704496559
   969   3      12.200466973529165      18.207922393665612      18.368778222937753
   970   3      14.138336928806009      16.244626453936458      18.564270615148388
   971   4      12.165221082798928      16.237605074599145      19.918598489647568
   972   1      14.145520678869076      18.202213309399365      22.253740784487515
   973   3      14.160705738481354      18.523994153378045      20.241419373843481
   974   3      12.108236373946438      18.356717691920174      22.272068270179439
   975   3      14.323510462432882      16.154978895474336      22.065627647950919
   976   4      12.197045242138364      19.919189675178831      12.086046467427735
   977   2      14.158306920628876      22.294862130653041      14.006373408085583
   978   3      14.256669832625601      22.009970696355573      12.135869203532202
   979   3      12.207106050003723      22.265317424937926      14.306999741235344
   980   3      14.150555196939694      20.291290137821427      14.495211091162826
   981   4      12.147606684502156      20.234060130769731      15.845533143920004
   982   1      14.144792520012698      22.243490854021267       18.19298859739844
   983   3      14.165356533421338       22.57547825808274      16.184744723512999
   984   3       12.09738811540025      22.396596033303858      18.217587035321955
   985   3      14.313072661388425      20.196710387986826      18.013144519709204
   986   4      12.185274469387549      19.887298045581908      20.194314296036662
   987   2      14.169921241499495       22.29005992117466      22.106750876695898
   988   3      14.248710189197437      22.005220384344387      20.239602934867236
   989   3      12.218697269850582      22.272428584902812      22.422874670916759
   990   3      14.152887740979965      20.295162193033736       22.59873775687841
   991   4      15.919513086412277      11.923601991600309      11.948965270413188
   992   1      18.180249700396573      14.171918886464304      14.153243647502016
   993   3      18.353271626418415      14.212065781270843      12.111785783370603
   994   3       16.14545408999712      14.098410542987505      14.393427004719388
   995   3      18.430600907557587      12.111302392319949      14.206887032196207
   996   4      15.926882039934359      12.269282005153318      16.010903781549256
   997   2      18.075002170130858      14.178188523418573      18.250440724040423
   998   3      18.420233702250169      14.171948106476306      16.280294362153811
   999   3       16.21039797460741      14.299234893999166      18.185720390680675
  1000   3      18.314628276921386      12.206947544060386      18.286907495164041
  1001   4      15.930955837533737      11.947755577760111      20.036481591562314
  1002   1      18.172108279125521      14.157608380841571      22.256994074443121
  1003   3      18.355816464816073      14.216849427034443      20.222574131983084
  1004   3       16.14994603803898      14.100113387836698      22.506852287718072
  1005   3      18.426936331461128      12.108669867713424      22.303724952194557
  1006   4      15.942983914689949      16.304276810328879      11.971885103272674
  1007   2      18.073731635544156      18.230050593528738      14.197152970647325
  1008   3      18.418442842730848      18.190057358470899      12.226593036556313
  1009   3      16.200669972450701      18.316397637824924      14.124978848391189
  1010   3      18.305863268318539      16.248675059857611      14.252684967046209
  1011   4      15.957388185600294      15.995623668772716      15.974777557393956
  1012   1       18.17998306206005      18.207037593923637      18.213637805340621
  1013   3       18.35947680624448      18.232988735676404      16.183064682205387
  1014   3      16.150560698285489       18.14181007753486      18.452848107853946
  1015   3      18.444481956263687      16.156627398122797      18.255581332157302
  1016   4      15.937388220688836      16.308130898173971      20.051499972763011
  1017   2      18.063027542169497      18.223234782773957      22.301133252347647
  1018   3      18.424923380979617      18.219454724018238      20.334435225702791
  1019   3      16.201359612478566      18.348731758511882      22.228293542554301
  1020   3       18.30886024939656      16.258392282755381      22.350808417174083
  1021   4       15.95773134566312      20.040698305546115      11.938468969633727
  1022   1      18.198909575950736      22.238607449366846      14.132512086210328
  1023   3       18.28652991103769      22.404375045399103      12.098168600713151
  1024   3      16.157644414184993      22.197516966169125      14.401175035121554
  1025   3      18.376307103426019      20.195714311946404      14.257460774670303
  1026   4      15.973804322691509      20.374766451587867      15.960683928123755
  1027   2      18.072852883113317      22.269704633406917      18.242446374200629
  1028   3       18.42579838107422      22.279496586686403      16.275507983852727
  1029   3      16.207275066794953      22.384380436626021      18.183029630147121
  1030   3      18.322816084516028       20.30217294147285      18.287448163498304
  1031   4      15.938132653439531      20.040300093024548       20.04627324199225
  1032   1      18.184619007198368       22.25820821888788      22.246489173225438
  1033   3      18.363609994169042      22.318818191227848      20.213715161205826
  1034   3      16.161997370480737      22.189855010079221      22.501502456160534
  1035   3      18.443606618049074      20.209128545257464      22.293483748008157
  1036   4      19.831677088521129      12.103818626077965       12.11740732256394
  1037   2      22.195365673293317      14.100629986297591      14.102344607207122
  1038   3      22.457322040164694      14.120709893583863      12.215850756318499
  1039   3      20.345068814800108      14.260153240003623      14.195421589845255
  1040   3       22.33280480857308      12.185992960990978      14.359493298676554
  1041   4       19.83817377607847      12.127667854507171      16.164328709498943
  1042   2      22.256283697882221      14.103152205044092      18.132881047965636
  1043   3      22.317313053638507      14.285453858315581      16.256561260483508
  1044   3      20.372758598484147      14.153071561583188      18.350536208333157
  1045   3      22.468657788639405      12.190102573758677      18.305649772984786
  1046   4      19.840859461309346      12.094915843174174      20.194035144501793
  1047   2      22.198815859426162      14.096971158281912      22.209101192642109
  1048   3      22.425120879600222      14.213411077562313      20.327834523129699
  1049   3      20.340357048573832      14.301491683212268      22.330502657743423
  1050   3       22.30791705516048      12.196838127106213      22.461423588443807
  1051   4      19.890681442903276      16.208040239794869      12.018179662135724
  1052   2      22.249930851007342      18.117441383963502      14.083121842154769
  1053   3       22.27342346676615      18.351006299845544      12.210829214520373
  1054   3      20.349158924772315      18.208307240025185      14.288825138863364
  1055   3      22.458875625585588      16.202375308842619      14.222087594372036
  1056   4      19.829555272996878      16.167444910285013      16.139247892152483
  1057   2      22.212908726291033      18.139943518984978      18.146985140869351
  1058   3       22.43801684592005      18.249823867333635       16.26561258657199
  1059   3      20.356728145648322       18.33594640095092      18.276127908927847
  1060   3      22.325723828185151       16.23837075645784       18.41031774113932
  1061   4      19.853509875434266      16.153256367489988      20.199461678259844
  1062   2       22.24343080040061      18.139099870423212      22.222628074189412
  1063   3      22.302256768433381      18.376820654097376      20.333807625179691
  1064   3      20.356366739936327      18.233172720282681      22.433065565365151
  1065   3      22.438400792193949      16.245112355334502       22.35288844966507
  1066   4      20.038149994853867      19.925035100798929      11.911531684880757
  1067   2      22.194039425020012      22.178833970340637      14.077699496690215
  1068   3      22.433506743050575       22.35253285888135      12.182166364741763
  1069   3      20.345876816838803      22.408160888772255      14.192167363642062
  1070   3      22.297212115911396      20.294693944838652      14.320029558284151
  1071   4      19.846653400724563      20.185986187316686      16.133855202236266
  1072   2       22.24786461759011        22.1749373373633      18.132430138474213
  1073   3      22.325280382661838      22.427850375524159       16.24083552933002
  1074   3      20.370278183242704      22.266753019690022      18.325920100493661
  1075   3          22.45685739983       20.28491761327944      18.293135313095398
  1076   4      19.848291957451696      20.178407680122668      20.190181426072417
  1077   2      22.198580745676086      22.206772167959802      22.205074124035484
  1078   3      22.429337861928026      22.325653676811381      20.309870496413694
  1079   3      20.341148446768159      22.416375638310068      22.323214888048557
  1080   3      22.286277551158566       20.31180849858109      22.462177574878368
