(written by ASE)

1080 atoms
4 atom types

0.0      24.299999999999997  xlo xhi
0.0      24.299999999999997  ylo yhi
0.0      24.299999999999997  zlo zhi

Atoms # atomic

     1   4    0.013751546414209132    -0.22507142279937345    -0.13485628792648743
     2   2      2.0647304039154655       1.957032526123641      1.9516206223196977
     3   3      1.8441613704153819      2.0843749810073406     0.05059531227514593
     4   3 -0.00079374410397854852      2.0941861464683114      2.2461834036595114
     5   3      1.9723216894840003    0.068687586899316505      2.1812258461379455
     6   4    0.015963191931976452    -0.16821506884076401       3.857370637899348
     7   2      2.1036630482922241      1.9559542826653069       6.007471993441742
     8   3      1.9834449944045329      2.2100613874881416      4.1027826579441378
     9   3   -0.014160153253260442      2.2700280043568029      6.1195757121854291
    10   3      1.8711375783141344     0.07801360982713261      6.0989979061385142
    11   4  -0.0076502809184568563    -0.22989708159942121      7.9714433738619963
    12   2      2.0650416329385224      1.9612871443044191      10.042414993511887
    13   3      1.8391357827226584      2.1007280911762281      8.1411915411453322
    14   3   0.0048434296884103814      2.1013534091034018      10.344895570960274
    15   3       1.986581990062666    0.075029618288865813      10.260538577511072
    16   4  -0.0062154954603977465      3.8859036732853811    -0.20833866581472604
    17   2      2.1053873423047871      6.0031407360815905      1.9567575659513681
    18   3      1.9929572971479219      6.2422405162499102    0.060268563956703075
    19   3  -0.0087983749170499476      6.3127004238239639      2.0760463192488161
    20   3      1.8651801248302828      4.1120631134311738      2.0713756604355154
    21   4   0.0050903823778360811      3.8295847913032812      3.9046388016592428
    22   2      2.0638919881594222      6.0109637768378343      5.9960132475581513
    23   3      1.8412708692844526      6.1376515331754673       4.096477194447365
    24   3  -0.0013046563664670841      6.1446931048522258      6.2973106582529743
    25   3      1.9739189119662595      4.1220789333105063      6.2295668985177599
    26   4  -0.0070815317300546047      3.8960204135586047      7.8926530381969737
    27   2       2.103646843169753      6.0159505036514878       10.04892319620175
    28   3      1.9874381479781118      6.2556281165888459      8.1491459707476732
    29   3  -0.0044513606204495135      6.3354675918717662      10.172885852816611
    30   3      1.8560489656579777      4.1245095722322853      10.166661610448786
    31   4  -0.0054599271000816598      7.8776647657727343    -0.14386991754679021
    32   2       2.066064181295411      10.054007073634839      1.9564819829692681
    33   3      1.8549228798191995      10.181552429216197    0.061510056272835609
    34   3  -0.0031979894489241878      10.177954376929387      2.2551519800954054
    35   3      1.9783827894362869      8.1603398529444107      2.1913494341712694
    36   4  -0.0013120058593618729      7.9391657450157238      3.8367834034438295
    37   2      2.1036810071176788      10.057741623927445      6.0072740161492533
    38   3      1.9783780941759783      10.301247141529378      4.1050151725649942
    39   3   -0.025437642710463278      10.357711765553077      6.1232678287464068
    40   3      1.8614636059534162      8.1645728766271919      6.1105571234267684
    41   4  -0.0044934137391687019      7.8850637360061357      7.9553289870321642
    42   2      2.0597076512854118      10.064390111694596      10.025501903367855
    43   3      1.8456708980792245      10.178391664653743      8.1287089336854343
    44   3     0.01944535927076111      10.165015432293648      10.351323801290455
    45   3      1.9936576988742831      8.1664662515862805      10.273017176143533
    46   4      4.4633600388755301   -0.043621272554846817   -0.018694104749794438
    47   2      6.2394396112369614      2.0515895508996218       2.033235257343267
    48   3      5.9906860892638312      2.0873088291436686    0.062040108628501262
    49   3      3.9419319926529162      2.1364757972834538      2.0167005844872379
    50   3      5.8895971203956616    0.081713042458724641      2.0320898355290788
    51   4       4.464670863680821   -0.052071617777439294      4.0086593855571131
    52   1      6.1276523144900255      2.0107462450617857      6.0654703774963235
    53   3      5.8751994664730232      2.0609371068877387      4.0135054227098514
    54   3       3.958083719956619       2.078231581835674      6.1945336885459081
    55   3      5.9479485233483986   -0.027343130941075842      6.1124745665874034
    56   4      4.4579536104355713   -0.047830551746135118       8.065487435369997
    57   2      6.2362782601180422      2.0525486372915713      10.125646315416661
    58   3      5.9908927985301235      2.0945915516454452      8.1564035803214452
    59   3      3.9403416111781477      2.1582515238831985      10.107167861240351
    60   3      5.8796263085217415    0.084911033487657259      10.122164759015361
    61   4       4.469582282629883      3.9971128489020611   -0.051531268295926712
    62   1      6.1309653852584312      6.0593007444444984      2.0162100158136327
    63   3      5.8733872239992539      6.1098803080114461   -0.035457933400155746
    64   3      3.9582848673406668       6.115891287532488      2.1520272406255372
    65   3      5.9460907212728644      4.0221845826551084       2.064538510810173
    66   4      4.4690984575258419      4.0118357260875221        4.02070018262555
    67   2      6.2436924556995672      6.1050323847909445      6.0785573877413448
    68   3      5.9921953095415654      6.1392339209722673      4.1092629955729167
    69   3      3.9408430011959714      6.1906049723741736      6.0640277995273753
    70   3      5.8926870748948987      4.1361733210742617      6.0790793398297769
    71   4      4.4713711645033385      4.0050709399207696      8.0438358728377111
    72   1      6.1301556257412448      6.0612271503484338      10.110231604842792
    73   3      5.8743329750299589      6.1146168849265017      8.0588240891787315
    74   3      3.9585722252867703      6.1162244158717822      10.243604063088256
    75   3      5.9511751777573929      4.0267109500566072      10.162852540613969
    76   4      4.4703349770411318      8.0617115424060124   -0.022010160559310533
    77   2      6.2460522117063499        10.1557601637562      2.0350335775209643
    78   3      5.9799542872600782      10.185534621996245    0.062691102948064278
    79   3      3.9413361734025831      10.236887320757155      2.0225627153335433
    80   3      5.8911231852527113      8.1840610695841871      2.0328160214844679
    81   4      4.4748789663944519      8.0558593665816698       3.998327520655752
    82   1      6.1353078851925593      10.112786047964601      6.0607226597510646
    83   3      5.8788307313005443      10.162125312944283      4.0110743983294244
    84   3      3.9556082578164853      10.167144083763766      6.1892139430314606
    85   3      5.9458945808533565      8.0757631898630962      6.1088354745035289
    86   4      4.4709819796522252      8.0665205497547401      8.0614819561939441
    87   2       6.246399590244371      10.148627380300697      10.124086298432401
    88   3      5.9953302081437556      10.185129244386351      8.1558894801886552
    89   3      3.9459386203457294      10.253106255726346      10.109425060210054
    90   3      5.8864294959459791      8.1822149872329568      10.124486077853556
    91   4      8.3702800759512765    -0.20176727599202685     0.13232702280231412
    92   1      10.164908842966959      1.9992651971127982       1.996948560264898
    93   3      9.9741052746695722      1.8216915006302645   -0.050174568822664481
    94   3      8.1037493710240813       1.989480366951264      2.1429931080736337
    95   3      10.132287896258681  -0.0088176048531515214      2.3206917102778117
    96   4      8.3717174397309879    -0.20855681630869735       3.848198413570322
    97   2      10.150155561686256      1.8589429159803972      6.0914848485733071
    98   3      10.157871770440003      2.3467812386128117       4.095975801020022
    99   3      8.1517108020632492      2.2492059616538582      5.9965445301736242
   100   3      10.061952509830119  -0.0093291514975060701       5.811162213548557
   101   4      8.3635541769094264    -0.20408148440474824      8.2309423529012733
   102   1      10.163230299892005      1.9939952561597873      10.098983139134758
   103   3       9.975982900322192      1.8193329929732647      8.0532532691806793
   104   3      8.1004842767123222       1.982539648762158      10.241537307018472
   105   3      10.134717568286165   -0.015663043002958694        10.4275693800501
   106   4      8.3726382587659547       3.832692149015533    -0.20357422166022648
   107   2      10.151915324216027      5.9080538303673338        2.03783463528565
   108   3      10.157001770308861       6.398147981973862    0.043739206018593386
   109   3      8.1523769527398482      6.3020911877343622      1.9448102429369469
   110   3      10.059237965656738      4.0399326630960237       1.763116450434957
   111   4      8.3717116708705905       3.844945299154324      4.1779284798566039
   112   1      10.166466396378791      6.0482597685637502      6.0469370513649485
   113   3      9.9749139898482753      5.8762519933878226      4.0006224053064559
   114   3      8.1062873270543729       6.045721794053426      6.1927616938019403
   115   3      10.132228751792915      4.0408500219148182      6.3732554554889376
   116   4      8.3698731604680869        3.83450135660707      7.8961373607855636
   117   2      10.150135371512862      5.9069811464422814      10.140037538027009
   118   3      10.158596448010508      6.3952204464518942      8.1476065300788303
   119   3      8.1510670479632505      6.3054488298653064      10.047345685768144
   120   3      10.055134030730414      4.0382598403179326      9.8694004244486369
   121   4      8.3757485847999309      7.9001312745998762     0.13384117121529154
   122   1      10.166946951201004      10.102848025954883      1.9956946898851624
   123   3       9.983597032690982      9.9314247932467623   -0.050802974238788053
   124   3      8.1079286661704142      10.095485232394063      2.1375491917694842
   125   3      10.132487478583172      8.0941086382164364      2.3172291602222783
   126   4      8.3762362807816988      7.8847253119433471      3.8452662508608619
   127   2      10.153994183657433      9.9596449557558646      6.0881391911947063
   128   3      10.160690342847985      10.449942429298023      4.0962918959714276
   129   3      8.1560185628168949      10.355095892390558      5.9958156670736757
   130   3      10.061581793856227      8.0913630722996217      5.8198269181436588
   131   4      8.3772161267752807      7.8958297256944281      8.2241330349820174
   132   1      10.165838238305408      10.101206637297791      10.097742961933541
   133   3      9.9748822598751659       9.933470527405488      8.0527579609048967
   134   3       8.107305399868979      10.092955304236719      10.250148522687551
   135   3      10.134976858352106      8.0938714986978262      10.422012527659806
   136   4    -0.01227743914858798    -0.15836729453574286      11.919811934946807
   137   2      2.1014405449119913      1.9605348545465124      14.097174369466725
   138   3      1.9907824327417039       2.206702238905252      12.198679896137616
   139   3   0.0023712777805653426      2.2683602120951192      14.227551013517589
   140   3      1.8708391263328523    0.070931498703723395      14.221543179565201
   141   4    0.022042979265285197    -0.22450488448348754      16.044358621633478
   142   2      2.0655191804387938      1.9474070489531066      18.145681313196775
   143   3      1.8473605296284332      2.0884657267509175      16.248954734122208
   144   3    0.012563482273485096      2.0861849673452832      18.446762578407441
   145   3       1.985456395825691     0.05250928222950605      18.381639226290975
   146   4   0.0052206968456309745      -0.176739308467314      20.045848840003849
   147   2      2.1043514098751102      1.9480083520783404      22.206898939060629
   148   3      1.9915339100396361      2.1873165143768056      20.307666262837781
   149   3  -0.0039526362050281314      2.2526133840956772      22.328995150776009
   150   3       1.875676032940814    0.055192221039150231      22.327350817826527
   151   4  -0.0039259623465988346      3.8481274573521169      11.990907858963181
   152   2      2.0513351822578763      6.0243019142920016      14.082864958401631
   153   3      1.8609817244415794      6.1437097464547392      12.191256640802772
   154   3     0.01774462862321273      6.1485154296165971      14.405479810367645
   155   3      1.9863542987771643      4.1286050146970874      14.333692686110146
   156   4   0.0015439530467956657      3.9045331192123096      15.989565338468026
   157   2       2.104503504495054      6.0080287884885744      18.159625073685618
   158   3       2.003694921253512      6.2559616880528504      16.265489802737449
   159   3   0.0056965363276169243      6.3186185707181526      18.284505205522468
   160   3      1.8705783339499422      4.1120482892905299      18.277538576041998
   161   4   0.0046827951559232309      3.8339530532964439      20.095840417635742
   162   2      2.0609461561214792      5.9981438505311244       22.20019229634903
   163   3      1.8519527990826563      6.1313066559169602      20.306306638505863
   164   3   0.0084850782592287687      6.1370660726413799      22.507844754960992
   165   3      1.9773191045097018      4.1057362795263357      22.437280806775782
   166   4   -0.031621005694277983      8.0030453128520254      11.903778855464793
   167   2      2.0614107771951891      10.096070872451858      14.065083473229132
   168   3       2.042295186965108      10.280160913209867       12.18803221315569
   169   3    0.015792948783741153      10.329234513710066      14.264302107441678
   170   3      1.8814096952972352      8.1798292262315311      14.241528701668747
   171   4    0.017670947202466598      7.9236397607913807      16.032048808925929
   172   2      2.0684741840497809      10.068885220486942      18.159143231787514
   173   3       1.878305776857019      10.172732958320845      16.280751634280303
   174   3    0.016761998183481234      10.161668950349044      18.481496599179682
   175   3      2.0104947343371471      8.1714291706623641      18.412765922075085
   176   4  -0.0098575345366067324      7.9691872225618905      20.024830752530544
   177   2      2.0841126628071023      10.044885014354557      22.225716855665031
   178   3      2.0042897584533086      10.294475429748775      20.333717823356924
   179   3  -0.0020476871769692004      10.337566414037248      22.357415548148346
   180   3       1.883488739975522      8.1528355611976124      22.338911318490631
   181   4       4.471477945675491   -0.062165856847953824      12.101528086783762
   182   1      6.1212744941929298      2.0092110219698069      14.157038402484119
   183   3      5.8667997511070169      2.0643316284000313      12.105642836442486
   184   3       3.954608908991124      2.0831954689898593      14.299698860258657
   185   3      5.9332980260622676   -0.021756121350783093       14.18306897780848
   186   4      4.4629045776537151   -0.062611880375675569        16.1443521210443
   187   2      6.2308065467005465      2.0459146514177364      18.224771873633433
   188   3      5.9891107285982361      2.0850632341117157      16.255994859862007
   189   3      3.9421318172401354      2.1339779424151342      18.218634832097024
   190   3        5.88167704955434    0.077747254963559193      18.240833949042067
   191   4      4.4647513371249046   -0.055267836027709578      20.186788603798284
   192   1      6.1238844514626631      2.0048941364790847      22.265501938409695
   193   3      5.8721011309023385      2.0563250346340247      20.213099735668994
   194   3      3.9570694121810854      2.0680900158237896      22.405242509294016
   195   3      5.9436559920072938   -0.033067827405230323      22.322379145986297
   196   4      4.4639455000678119      4.0117101176567322      12.106712658167986
   197   2      6.2400308065473711      6.1039657903409328      14.176261758564861
   198   3      5.9844124011870008       6.146822507887105      12.209469876227175
   199   3      3.9382928043783734      6.2190619966041192      14.190004592219781
   200   3      5.8859925338867312      4.1386376538903145      14.176230994987016
   201   4      4.4604145132233528      3.9964753611774477      16.134957011618759
   202   1      6.1166550729798415      6.0536205362504791      18.209412603350419
   203   3      5.8643195070990135      6.1110422435880842      16.158394478474175
   204   3      3.9609665231929165      6.1198544165871462      18.362067650755936
   205   3      5.9438518176101658      4.0188348759388859      18.266725236801044
   206   4      4.4656942796301307      4.0044548424588058      20.213741240943509
   207   2      6.2407628527347381      6.0976899176000012      22.286122744557478
   208   3      5.9886845153202275      6.1459197684882527      20.313139641036631
   209   3      3.9416496666179865      6.1814275229889875      22.265001935923141
   210   3      5.8925885218271299      4.1315960107607594      22.282357680340386
   211   4      4.4607248184875603      8.0542517834586533      12.078450538150543
   212   1      6.1296942693192964      10.114653337396541      14.157781403726643
   213   3      5.8588471073237063      10.157815734594289       12.10559068342134
   214   3      3.9470797124706523       10.18542184779538      14.359501355793192
   215   3      5.9355993217401446      8.0813623630676545      14.224277052558389
   216   4      4.3958664190389616      8.0135317942458801      16.082618615348288
   217   2       6.186247807210262      10.101553794385071      18.217863776065993
   218   3      6.0009616606454923      10.264622346433075       16.28070131297002
   219   3      3.9596855442537375      10.309042937293862      18.245041075694793
   220   3      5.8973609080144778      8.1890823391053491      18.234399369545592
   221   4      4.4477517955461323      8.0195063394844315      20.236350975588742
   222   1      6.1348178785320311      10.105201654285754      22.273583722502121
   223   3      5.8581564353979934       10.17877421138032      20.219464693615329
   224   3       3.951298504112196      10.196351886903642       22.39808438173473
   225   3      5.9289042950387563      8.0724262995934986      22.315184313176687
   226   4      8.3529300480573454    -0.22400771787012952      11.943770473997413
   227   2      10.141277358626361       1.851401027292626      14.190386662753928
   228   3      10.155931965376505      2.3443177107411701      12.195460080134495
   229   3      8.1452888443287748      2.2471090308748347      14.091690346554641
   230   3      10.057597128887357   -0.015941603541307209      13.911342093789285
   231   4       8.331081488034684    -0.23361870124773124      16.318307279253307
   232   1      10.155455599761915      1.9921118759590934      18.193903370726606
   233   3      9.9701380794531342      1.8205813711157226      16.149634970132269
   234   3       8.096113579675924      1.9836482318503359      18.343576333048709
   235   3      10.132400762115061   -0.016664442787546332      18.524021006193003
   236   4      8.3546902690556184    -0.21188870844560162      20.032190034829448
   237   2      10.145649483514726      1.8541222139821838       22.28553124799512
   238   3      10.151801943804058      2.3425958583956001      20.292540570777412
   239   3      8.1481296356196147      2.2448878667606409      22.195176067142892
   240   3      10.061832092238642   -0.014138623519583225      22.014506717648665
   241   4      8.3710423661502027      3.8403697029583239      12.273124021263257
   242   1      10.160201395541439      6.0487238836206521      14.149085231268684
   243   3      9.9720576926600266      5.8791685071186661      12.103289713266033
   244   3      8.1007021628412819       6.051727840633867       14.29284524707241
   245   3      10.123646705816176      4.0404774102220005        14.4701918334853
   246   4      8.3640963300184819      3.8282794162237268       15.99385370027095
   247   2      10.135858224841652       5.908259862412657      18.238004883831483
   248   3      10.149455603588171      6.3958335305621112      16.246048654083175
   249   3      8.1397923833664088      6.3072687903031364      18.144042604886089
   250   3      10.051253217350283      4.0400663610328138      17.967255631993748
   251   4      8.3590817077338535       3.834477843676436      20.373835135424287
   252   1      10.159862103919924      6.0506708164110696      22.245211370035335
   253   3      9.9665824507749541      5.8838287037036068      20.198775708268599
   254   3      8.1026082842565543      6.0497048789360059      22.393482459081056
   255   3      10.128822019872384      4.0411333519637607      22.567820951120439
   256   4      8.3730116415208649      7.8841531398846723      11.943316162339469
   257   2      10.136741859013469      9.9630268781539684      14.193866956574752
   258   3      10.160191142765777      10.451278194766804      12.199722212814244
   259   3      8.1462176070867223      10.354146070595664       14.08627450507208
   260   3      10.058893903684829       8.095176144542549      13.928461972511951
   261   4      8.3687651791117599      7.8960896237752998      16.328019012036503
   262   1      10.138002175585612      10.127498624870332      18.198697444959166
   263   3       9.960445768940712      9.9506953654448935      16.155686485795233
   264   3      8.0551030054530131      10.126869959351492      18.350576203712066
   265   3      10.113441319203213       8.108794718674174      18.510899528873757
   266   4      8.3683951318904946      7.8893983903330964      20.050358074424235
   267   2       10.13366866289803      9.9656772412972625      22.283361987861916
   268   3      10.143880541382734      10.456149831530469      20.289917085807183
   269   3      8.1480851134963963      10.346281439425288      22.206040711694772
   270   3      10.060874988935215      8.0956905176266414      22.008884927222709
   271   4   -0.002143502958919981      12.003720077238388     -0.2097023914016026
   272   2      2.1040440326897731        14.1065352308408      1.9731122957753888
   273   3      1.9798437696551661      14.346562463496252    0.079695487118541922
   274   3   -0.029796119294806633       14.40423896772902      2.0884451485837783
   275   3      1.8507965292427804      12.206698054938846      2.0798195106048856
   276   4    0.026957440271732944      11.927124762710045      3.8943719828139494
   277   2      2.0580483246504606      14.109320671743458      6.0010899178877235
   278   3      1.8220354422803238      14.212199584999414      4.0977854080677618
   279   3   -0.037183597382890995       14.21398773203599      6.2902171419784771
   280   3      1.9558261048606054      12.208471234014132       6.223928412777858
   281   4   -0.022912366243181121      12.016872569213664      7.8981464149706833
   282   2      2.1094118481693873      14.103105664301836      10.008184741036031
   283   3      1.9820370263345133      14.320825133239383      8.1202871721210155
   284   3     0.03037915497346742      14.315852294979535       10.21716360370802
   285   3      1.8666891636987182      12.188149086497695      10.140047353565459
   286   4    0.003982547685729085       16.00259924845577    -0.13371173648937731
   287   2      2.0692159000405339      18.158284343836005      2.0118700454945375
   288   3      1.8171099302537703      18.270669089885828    0.091201540626853886
   289   3  -0.0070000303970693583       18.26855283781622      2.2902168170091297
   290   3      1.9654529622630483      16.249962578189777      2.2073030984051152
   291   4   0.0079003028249850817      16.078794201122179      3.8536590570980005
   292   2      2.1034004225001319      18.132956179839656      6.0835333818650605
   293   3      2.0122744710802909       18.39535981179348      4.1149663106767163
   294   3   -0.013183489731390425      18.468479922528271       5.996501034993118
   295   3      1.8431836704220519       16.23938273024444      6.0818971313158023
   296   4   -0.097493833733322766      16.085320944269494       8.023411423657107
   297   2      2.0855110276945461      18.123334753242137      10.163128086710902
   298   3      1.7883922996521655      18.259813298938028      8.0964907986812786
   299   3    0.031711691552291824      18.225425473003607      10.282944044029387
   300   3      2.0137232214747263      16.207684540425319      10.225358588074466
   301   4  -0.0095686360587290201      20.059348711994957    -0.14956540226452839
   302   2      2.0985163595411045      22.192242955707268       1.975580792768838
   303   3      1.9765681742030392      22.453202607130532    0.068081017978273567
   304   3   -0.014522105835920517      22.524518909238449      2.0735076527132961
   305   3      1.8795648683036645      20.304198591095883      2.0570259032776308
   306   4   -0.014298146077122801      19.950851991697302      4.0270422036310025
   307   2      2.0545347434077161      22.183844400784025      6.0085932563965283
   308   3      1.8445843645119611      22.362637683808291      4.0915808729718393
   309   3   -0.013597294212631941      22.385917409764374      6.2450859017682738
   310   3      2.0068597832647477      20.312285237041138      6.1765054328923288
   311   4   -0.075753799135963196      19.895155043734974      8.0880717328043161
   312   2      2.0969984672562663      22.189228251379468       10.02767611144224
   313   3      1.9709793242121472      22.482273139360061      8.1238372289788376
   314   3   -0.004842344110522423      22.542641611979136       10.15132159623149
   315   3       1.862485027696817      20.311628062739455      10.052250684287387
   316   4      4.4594103663665372      12.087513217565967   -0.032933269026053882
   317   1      6.1314596651785394      14.165346404679145       2.023639153008606
   318   3       5.887036376461074        14.2219938757577   -0.033034653639299076
   319   3      3.9558908692603154       14.20424230833798      2.1510740194318565
   320   3      5.9462364961086349      12.123725713416604      2.0572998216530562
   321   4      4.4746332702805232      12.124814764227194      4.0245328409484644
   322   2      6.2491990990013155      14.204537290510064      6.0746636686644067
   323   3      5.9889438820120064      14.223223733938957      4.1083413663232511
   324   3      3.9321827356518728      14.271331517700018      6.0550820948947415
   325   3      5.8949175920180146      12.231180704471555      6.0799264092723364
   326   4      4.4787093433824658      12.109731968721297      8.0387336627526924
   327   1       6.128099960306316      14.168077057850923      10.095903166252448
   328   3      5.8802648392303833      14.206432094897689      8.0509577433771504
   329   3      3.9725451829241272      14.179178167415694      10.215467681487851
   330   3      5.9548803249182374      12.121465659255167      10.159340451282127
   331   4      4.4642852586780792      16.192450696726972   0.0040634140825056859
   332   2      6.2459250491866865      18.259932218331741      2.0389639580466636
   333   3      5.9968946472476681      18.274621429808498    0.069953569211103822
   334   3      3.9484399745266678      18.311206927046385      2.0077483943967254
   335   3      5.8937271210486495      16.282540773993134      2.0438711466548396
   336   4      4.4748740102206535      16.171556915925969      4.0151387400502871
   337   1      6.1425836559491982      18.214098007454947      6.0582517027101668
   338   3      5.8631403214087365      18.259417295463585      4.0164056689399654
   339   3      3.9667411236471861       18.24953680882308      6.2038981447458621
   340   3      5.9457750390620081      16.168994461556743      6.0988874230668007
   341   4      4.4720877403978019      16.171009866794662      8.0809964687730371
   342   2       6.245660034343957      18.266174308443336      10.091652648294438
   343   3      6.0397410307758967      18.279362347080767       8.131317082384566
   344   3      3.9801684026113495      18.319991999429984      9.9868958649677957
   345   3      5.8761724965358351      16.280537111478477      10.124721926473775
   346   4      4.4673357326128293      20.220377465265585   -0.031696566172569551
   347   1      6.1272131985501446      22.262248134537597      2.0244487863942977
   348   3      5.8751491462488863      22.302762344524758   -0.029615042531544289
   349   3      3.9534459817382528      22.321430670878495      2.1411149610043592
   350   3      5.9415183136895147      20.221210285324169      2.0659690157775774
   351   4      4.4543197270867303      20.207964961148154      4.0466261528837135
   352   2       6.236951963734608      22.301659236896089      6.0820951312486748
   353   3      5.9836208935496948      22.337367908175644      4.1106152636995645
   354   3      3.9338104953633994      22.400545293253558      6.0579820515858867
   355   3      5.8799906106795596      20.331912855252309      6.0707407562055389
   356   4      4.4496131969846733       20.18934990174742      8.0549552051033544
   357   1      6.1138600184919696      22.251204284804061      10.121810319520771
   358   3      5.8700996760198727      22.306719839739756      8.0580477314722412
   359   3       3.948461503670996      22.308743799972554      10.207175286313712
   360   3      5.9559274087644898      20.212303481207982      10.160328536118769
   361   4      8.3773595628013009      11.944507108729406    -0.20364444251227454
   362   2      10.151790551964387       14.01396445324564      2.0385852223813443
   363   3      10.151070700936064      14.504410771584073     0.04170911838714142
   364   3      8.1537598166235004       14.40365618024674      1.9495828692131194
   365   3      10.062144821782516      12.145201464044176      1.7625263424903335
   366   4      8.3805238950316472      11.955030765970891      4.1786918002153079
   367   1      10.172185324820358      14.154313061591642      6.0457104926730958
   368   3      9.9834385610347152      13.974895411720798      4.0012943531906746
   369   3      8.1117993450751751      14.146565039893469      6.1898183669805098
   370   3      10.139042663255228      12.147434803316633      6.3716541592423042
   371   4      8.3758354433726847      11.935812676471894      7.8892096950892983
   372   2      10.148703334749264       14.01760295803984      10.137175846404974
   373   3       10.16784065988174      14.506328593770483      8.1504772167670385
   374   3      8.1564014607138198      14.415744402254628      10.048156716594173
   375   3      10.059607113861398        12.1492831797982      9.8785519033818723
   376   4      8.3677925636174315       16.00409894701578     0.13977236173603502
   377   1      10.170131374906815      18.205695347815386      2.0033438912728787
   378   3      9.9776200943107796      18.013323050781473   -0.037720249720738903
   379   3      8.1086529398280831      18.195862080874146      2.1572890430029537
   380   3      10.136871244466189      16.196872260874425      2.3266516338197669
   381   4      8.3789148631257557      15.996460195575137      3.8481369329859985
   382   2      10.165916859297512      18.066830579176948      6.0911539879307588
   383   3      10.173457425973421      18.554076286856432      4.0993147275110626
   384   3      8.1629472004524626       18.45730822178751      5.9861203440834601
   385   3      10.065021291252243      16.196492229585932      5.8183658443632762
   386   4      8.3836694264764535      16.010366432718229      8.2055710608479977
   387   1      10.168271614649553      18.210450170211374      10.092496503945583
   388   3       9.968650994734169      18.022690974693553      8.0534592212600149
   389   3      8.1071243429664914      18.182279648079454      10.264902525779073
   390   3      10.152282017968119      16.207401994031439      10.428304860975409
   391   4      8.3691097640612178      20.064532698114345    -0.19888227856790006
   392   2      10.152425566678437      22.112582498150648      2.0417449181141074
   393   3      10.154045406242322      22.593989185297502    0.044134832919598348
   394   3       8.151627573848236      22.496408980540885      1.9496199664871929
   395   3      10.061376981529975      20.243626358007948      1.7606978821556154
   396   4      8.3807223018883725      20.055366448296507      4.1804820305481476
   397   1      10.169614137336799      22.253616145419041      6.0477484580492638
   398   3      9.9828097314474551      22.072276240826671      4.0032655356311357
   399   3      8.1025418504306117      22.233470373226528      6.1892859192471796
   400   3      10.145079533872277      20.245462387020488      6.3750989083524514
   401   4      8.3788189735532388      20.051429170922511      7.8865568555265808
   402   2      10.158839284014421       22.11552960984848       10.13578416497646
   403   3      10.156752724409595      22.601038292491126      8.1460587405947464
   404   3       8.147621508713522      22.498733491861966      10.050938314222138
   405   3      10.054349238473215      20.244668841241108      9.8623256799063679
   406   4   -0.045571126234410175      12.082424156215355      11.876178736488894
   407   2       2.073888387739228      14.207246425629691      14.038134581375235
   408   3      1.9489664566430447      14.154401471221171      12.170735306018583
   409   3    0.021198535445962476      14.164564721464121      14.411875383159549
   410   3      1.9977808622680049      12.200201765189066      14.398697350935466
   411   4    0.075349368780986942       12.09794856163419      15.936523230437727
   412   2      2.0932426729193674        14.1073650658599      18.170597841523321
   413   3      1.9734697750322805      14.258264546244465      16.309656655350981
   414   3   0.0025343037770302829      14.359404369817394      18.346055916736297
   415   3      1.8441313353567921      12.205059550896623      18.334875091376091
   416   4  -0.0021315546222218668      11.965559496112638      20.083028757978166
   417   2      2.0610876738190052      14.107447707067573      22.221043108215554
   418   3      1.8514593756356785       14.22172918073225      20.338295745385683
   419   3  -0.0041509740939487862      14.230614283332656      22.529867012119777
   420   3      1.9646524819508713      12.210683629775327      22.469161087522544
   421   4    -0.12015157818311793      16.172639232927178      11.810084967586212
   422   1      2.0464766631507523      18.205065151151729      14.098054202695661
   423   3      2.0899143633919883      18.416309831971091      12.071986257210989
   424   3   -0.031052954939726957      18.390891525602026      14.196832258637732
   425   3      1.9368240414968243      16.144143627254866      14.311391152656867
   426   4      0.1202758709653064      16.124814219407014      15.892689090264698
   427   2      2.0677031851344334       18.13692615174708        18.1683458451196
   428   3      1.8263321732711475      18.245666473717446      16.304828684369571
   429   3    0.011110122430550547      18.256834256553319      18.510735771994302
   430   3      1.9682122333238072      16.234735258224802      18.429241060264356
   431   4  -0.0099521753965401989      16.052519358328446      20.051467674659818
   432   2      2.0925121434531686      18.156746983911692      22.253400090226336
   433   3      2.0079758242985841      18.382574960866265      20.354317418902067
   434   3   -0.010774574044018079      18.444685537441043      22.357313270393171
   435   3      1.8563973031458618      16.255293668958711      22.364509412320885
   436   4   0.0081843269827299569      19.877642775151472      11.993674888711759
   437   2      2.0574085868819019      22.191929692482635      14.058377560485681
   438   3       1.855608457198042      22.333277432819475      12.162618518967756
   439   3     0.01396942120128641       22.34478858556832      14.372349058653269
   440   3      2.0049916140373298       20.32897530914704      14.337906642579176
   441   4    0.085767523149659602      20.016327360602542      15.915206321162065
   442   2      2.1122895012657534      22.181010264643721      18.147255710884089
   443   3      1.9782020497310675      22.441930557622349      16.259036998936306
   444   3   0.0043805738402994069      22.492807270916849      18.290760494440747
   445   3      1.8669897807776026      20.288315073115722      18.305128952362605
   446   4     0.00681395794144717      20.021551052890267      20.123766702912459
   447   2      2.0613247003379382      22.197573253247374       22.21081508262067
   448   3      1.8606391621733014      22.327712329499924      20.308954799707607
   449   3   0.0050665430483559188      22.347672648175241      22.490167161701468
   450   3      1.9716427215204662      20.303803852910189      22.462374010770176
   451   4      4.4210635906361304      12.089367887044512      12.036516781046801
   452   2      6.1976199955949571      14.191201448029693      14.104485041996512
   453   3      5.9944146987589972      14.237820935781054      12.192830428304609
   454   3      3.9802721049631082      14.221615272524321      14.270128748710757
   455   3      5.8749484393985547      12.232201530326769      14.184483148371354
   456   4      4.2708443468980279      12.008352537866703      15.940835187018447
   457   2      6.1066438229837425      14.187818675419178      18.163478514939552
   458   3      5.9309883359435629      14.170952855925961      16.254014794206121
   459   3      3.9803585812948761      14.170201970673862      18.384403690437654
   460   3      6.0074907583879824      12.228282497508022      18.361814441968377
   461   4      4.3817168616719533      12.005168244606965      20.325089655456917
   462   2      6.2165417041100142      14.204171879579905       22.30789553863157
   463   3      5.9874493834977409      14.253339796170605      20.290119369059024
   464   3      3.9421752574550926      14.276580033137629      22.289013386613675
   465   3      5.8825543245394281       12.23816483380099      22.282025952855033
   466   4      4.4206937378169551      16.237890933857116      12.053986995543683
   467   1      6.1245797829618533      18.205480921927215      14.130899746128883
   468   3      5.8332475591935662      18.227913624689126      12.083562291093003
   469   3      4.0315254934518263      18.243649448969201      14.390433759067868
   470   3      5.9394304754649649      16.149733391640066      14.219294410665871
   471   4      4.1843961707616728      16.420657272935589      15.820095557371404
   472   2      6.2062148674207611      18.281783652132169      18.211675729855255
   473   3      6.0566788203012658      18.248710779402032      16.273492174324133
   474   3      3.9571562700684249      18.290970229215535      18.210056470586629
   475   3      5.8902968215611935      16.204573800068751      18.323026184735539
   476   4       4.428914992892186      16.273321545146093      20.307858012877091
   477   1      6.1319277642283447      18.226352212129253      22.286678681106348
   478   3      5.8353570710607947      18.219114759752713      20.239540152571848
   479   3      3.9517001424200897      18.245237458817531      22.444088027499117
   480   3      5.9216408945239394      16.178639589638678      22.298698275569432
   481   4      4.3803388260869154      20.105207542811176      12.154804077841316
   482   2      6.2297814871415085      22.294568809497513      14.176193220298417
   483   3      5.9822723292575475      22.353728735611682      12.200254142978965
   484   3      3.9381539541831425      22.381674713746534      14.172064730957812
   485   3      5.8669946157780828      20.328127257921683      14.139010874510236
   486   4      4.2652847182091511      20.016715848511893      15.885781780649269
   487   1       6.103525541669506      22.232383686819325      18.187183263811395
   488   3      5.9254827660329878      22.358757582308932      16.143815212556483
   489   3      3.9618447222578679      22.297036534070308      18.348593745629842
   490   3      6.0168623758724573       20.19614897002737      18.354770166215221
   491   4      4.4663870003157546      20.218595212455849      20.238825504184842
   492   2      6.2366494824352134      22.304917756733587      22.284163073342501
   493   3      5.9778060021109622      22.332245683748173      20.317870819181113
   494   3      3.9395402536292852      22.369505651752323       22.28729552357288
   495   3      5.8770787335605821      20.327515584529969      22.289802553239078
   496   4       8.378718713057534      11.949805673053639       12.27261488401075
   497   1      10.140250387109926      14.160103250505667      14.155625926114585
   498   3      9.9784509863206328      14.003921456317725      12.106580190866715
   499   3      8.0591196968311518      14.147738225063195      14.305876292525582
   500   3      10.118911443846098      12.159227220937167      14.471789779395143
   501   4      8.3496530146310199      11.953806385420837      15.997284904465644
   502   2      10.235924216928607      14.064891470450119      18.248750743187696
   503   3      10.105468956567471      14.526630355833955      16.277660294821995
   504   3      8.0158124666147987      14.338104823483665      18.186328223630564
   505   3      9.9962521161765423      12.194642084053081      17.972021837355484
   506   4      8.3561488357059268      11.957586608790175      20.342604012553942
   507   1       10.15162206417264       14.15771042741591      22.238678146620355
   508   3      9.9082041396902216      13.991502086498437      20.187010487886237
   509   3      8.0800323461792924      14.164799321988083      22.391462446035998
   510   3      10.129419121913903      12.152803395056932      22.572245202992033
   511   4      8.3738388044047269      16.017109980933618      11.921462164986936
   512   2      10.167278219951626      18.106802000060497      14.159346886681393
   513   3      10.173526044902722      18.559346297520211      12.190874787253012
   514   3      8.1407837516748298      18.463979244284726      14.081482319961392
   515   3      10.008210913615633      16.212897524967094      13.969914224928933
   516   4      8.4027610461051818      16.122520863075707      16.176066228565457
   517   1      10.145776582481094      18.190165492451957      18.193275343722831
   518   3      9.9397560320331344      18.018640954130085       16.15098179947131
   519   3      8.0715811661032095      18.147132924455107      18.376169192459169
   520   3      10.089198671697993       16.16548214061492      18.528642930024091
   521   4      8.4072196045806749      16.097430043568604      20.142613288370356
   522   2      10.159975336093273      18.084887924305573       22.31532299499359
   523   3      10.144580097911605      18.525062581926374      20.293503550752614
   524   3      8.1517001641731905      18.449329517467536      22.198417493148497
   525   3      10.055166710415184      16.206478388899818      22.004269092304458
   526   4      8.3506083835642428      20.072157120816851      12.244612196993982
   527   1      10.161517212878476      22.244011618229717      14.143933337212326
   528   3       9.981127372275413      22.050454702380119      12.100235790493841
   529   3      8.0999898323939945       22.21492852213462      14.260782423055174
   530   3      10.144739807319356      20.233844491396287      14.483535841737337
   531   4      8.3448089531579566      20.041505555161333        15.9843506926582
   532   2      10.139778135951431      22.103886868084231      18.239979488984577
   533   3      10.139444996909081      22.586864056348336      16.242631558299781
   534   3      8.1404227635177531      22.502014567705089      18.151712161967254
   535   3        10.0319304584389      20.232572614173943      17.967362941626629
   536   4      8.3553571114561844      20.037291165813034      20.357388880308619
   537   1       10.16136313130178      22.246458827062607      22.242977928514545
   538   3      9.9743083155506476      22.059339930879137      20.199398864907764
   539   3       8.100236571857879      22.227450628671235      22.397130902181893
   540   3      10.140277407284273      20.237037623479786      22.581230417343559
   541   4      12.179290694227589    -0.37023424076357758   -0.047266535885171983
   542   2      14.150480153412541      2.0387456974734848      1.8559884613886082
   543   3      14.243503706755959      1.7600207254181928   -0.012156581521036257
   544   3      12.204949958236263      2.0244881431868129      2.1626585647896981
   545   3      14.146382629013894    0.046319182643612157      2.3462494076957627
   546   4      12.120730728493792   -0.042816880596462298      3.6792861303040909
   547   1      14.138110379905804      1.9988108445142962      6.0528486769969678
   548   3       14.17241248209981      2.3161203148486491      4.0427489280606128
   549   3      12.098358840568913      2.1608734232858526       6.078424686883384
   550   3      14.328268832818404   -0.046594439100439249      5.8832678198247397
   551   4      12.194497370411405    -0.37115486275899962      8.0516456506466039
   552   2      14.153748550018438      2.0355846426711151      9.9673611791296217
   553   3      14.244226632180602      1.7591067744678184      8.0973862247196653
   554   3      12.206319407003152      2.0210476943673013      10.268400183057356
   555   3      14.150781508883147    0.041001882726375748       10.45804503558187
   556   4      12.111918519064517        4.00483144896703    -0.37687661495063024
   557   1      14.133954454835342      6.0456911734956424      1.9967716925520735
   558   3       14.16664714084658      6.3678850856440858    -0.01255708094422741
   559   3      12.096812062023716      6.2121201779138486      2.0252929516949467
   560   3      14.328891875388576      4.0001283148319207      1.8242073532296481
   561   4      12.183441754518206      3.6754559305077095      4.0072636119912115
   562   2      14.150583147797352      6.0861483720666003      5.9112370359846897
   563   3      14.243959871011732      5.8174163108265837      4.0419148468847395
   564   3      12.204860087110871      6.0734606629484293      6.2161550614376324
   565   3      14.147773575989126      4.0926798246899736      6.3993853756918604
   566   4      12.116517420965804      4.0038323126181181      7.7298506056552521
   567   1      14.134458050692881      6.0433323762510875      10.106061133540127
   568   3      14.168839892241499      6.3654410438813507      8.0980996963269547
   569   3      12.096301868359328      6.2080160073122199      10.131636361034234
   570   3      14.334463766486131      3.9975572525288148      9.9313270275941932
   571   4      12.179073029183721      7.7301844603648044   -0.049888076483725188
   572   2      14.149957499902296      10.138471419691461      1.8553522891471383
   573   3      14.236444202085853      9.8659816223632273   -0.013579699087317505
   574   3      12.204045084671613       10.12816960407717      2.1626478667620734
   575   3      14.142028162311158      8.1443945106986568      2.3422068751472742
   576   4      12.117391023506393      8.0556899762060574       3.675099348939256
   577   1      14.135450738705748      10.092670438199489      6.0511967444710351
   578   3      14.168217371945817      10.415994982705117      4.0427075582932925
   579   3      12.099238464335787      10.263684055284488      6.0804844889606056
   580   3      14.328248897713548      8.0494672689826423      5.8826812897726422
   581   4      12.185806771065252      7.7247570077341692      8.0597089862712217
   582   2       14.14868246359636      10.137017557723327      9.9679380321515048
   583   3      14.245810849272845      9.8776596963757797       8.097906002235046
   584   3      12.202794808367123       10.13444379654209      10.265546370342937
   585   3      14.137696704087508      8.1452519023370566      10.452245121096917
   586   4      15.929882518359149    -0.20071923921497245    -0.21450026407368106
   587   1      18.172443450202969      2.0146707727183562      2.0046700175746639
   588   3      18.356440920234764      2.0637058727176818   -0.035419707743715036
   589   3      16.150978844350291      1.9441817482450101      2.2477724159252834
   590   3      18.434937103436788   -0.034890586536057935      2.0520515663325751
   591   4      15.928338613094159     0.14011200386969103      3.8505528859998734
   592   2      18.064811142068514      2.0317210963159082      6.1098281428699455
   593   3      18.414103075629374      2.0224313966878369      4.1328320406894363
   594   3      16.200572545381917      2.1282590381453121      6.0444634829628079
   595   3      18.328466440393516    0.054384724496946396      6.1514387385949565
   596   4      15.926532513195982    -0.19083852193660389      7.8833373686469317
   597   1      18.181052239355591      2.0150557835643679      10.113561741222105
   598   3      18.353444104642605      2.0705919313329502      8.0742245270095641
   599   3      16.156539647178345      1.9395408389716224      10.352060941250844
   600   3      18.433541560161473   -0.046164526881720958      10.156854039219816
   601   4      15.926389849171676      4.1832387487743095    -0.20522790362150675
   602   2      18.057371295569101      6.0775787617203205      2.0497747685463286
   603   3      18.408695295644289      6.0785153030120753    0.077537034406161678
   604   3      16.194198014904796      6.1921227807521486      1.9873771330538004
   605   3      18.304775851888497      4.1092349423604153      2.0859482544980685
   606   4      15.927951393336535        3.84524740529822      3.8360441202955227
   607   1      18.169615661407708      6.0604528365860544      6.0601552066028885
   608   3      18.349787278618138      6.1186385982465472      4.0193260121623986
   609   3      16.149268591804251      5.9958799268012699      6.3054121951138731
   610   3      18.419836420234759      4.0118897699045855      6.1034710356346569
   611   4      15.930695939081209      4.1783886262775454      7.9029085837267257
   612   2      18.060744427136335      6.0813626751664653      10.160224486418537
   613   3      18.408732412197555      6.0811585730364577      8.1853944509914118
   614   3       16.19627765799866      6.1990472670900267      10.098096033533226
   615   3      18.303627797305783       4.114205210430069      10.194908441425326
   616   4      15.925285191641402       7.892323111523754     -0.2161235822842047
   617   1      18.165572644884374      10.107011290332007      2.0033979096250829
   618   3      18.350310199742072      10.165371240520255   -0.032389047584497732
   619   3      16.147121735020338      10.044932082267588      2.2491635211403431
   620   3      18.424413936604161       8.060607268416172      2.0526543055458402
   621   4      15.922222034288975      8.2219448412685505      3.8443508502048775
   622   2      18.055679096761054      10.121534884218745      6.1026875873723565
   623   3        18.4078313885455      10.125007961382616      4.1317100944205478
   624   3      16.194815217683715      10.254594321762927      6.0437533031367083
   625   3      18.300405647248304       8.160023331832722      6.1408395512504024
   626   4      15.928404723799428      7.8852752445266763      7.8938664209753844
   627   1      18.163468943974657      10.098310977556524      10.115301907556637
   628   3      18.348724491894476      10.179612322307186      8.0727286769381816
   629   3      16.145365253322439      10.039598440181589      10.372572629623289
   630   3      18.432789755954598      8.0640900543241667      10.155928844973776
   631   4      19.839682437303416   -0.062695391614887866    -0.05419166591135248
   632   2      22.197047943087526      1.9541001091558918      1.9517608403537148
   633   3      22.432268371920653      2.0841706498483372    0.051381924519181478
   634   3      20.341354658810683      2.1652071574186462      2.0591016507205024
   635   3      22.291680737017249    0.065837648725144124      2.1797022656889808
   636   4      19.840914815448539    -0.02361699177077934      4.0045025516240145
   637   2      22.233803113176922      1.9549363632236172      6.0041060810357134
   638   3      22.312296683888977       2.202858688898973      4.1056320218200808
   639   3      20.352816971648608      2.0346756650993392      6.1890623112479126
   640   3      22.409243572331707    0.066187445401539299      6.1236197225825793
   641   4      19.872333983035944   -0.066368922859659785       8.016837220648835
   642   2      22.195118352302426      1.9634269104103255      10.055278932808365
   643   3        22.4366092980395      2.0960699449977604      8.1554654456099485
   644   3       20.34127465623742       2.183068215461935      10.158379325164811
   645   3      22.296308288700622    0.083817309889614985      10.297532633750279
   646   4      19.832540756892087      4.0142248445587354   -0.040466637565639452
   647   2      22.230152258906909      5.9950257448637263      1.9546045307466102
   648   3      22.321067892093744       6.239940091971854    0.058513823650564692
   649   3      20.352466986344606      6.0705467987661335      2.1298487675833808
   650   3      22.448411034870837      4.1054893306913112      2.0732354169665479
   651   4      19.829266636049876      3.9850404587919623      4.0011048698794491
   652   2      22.192588985807358      6.0072481911813123      6.0013159015975974
   653   3      22.429673780892028      6.1270934173034428      4.1046452578493637
   654   3       20.33767930107124      6.2109611561392688      6.1124288263187347
   655   3      22.299283595305027       4.117220338605617      6.2451449726486006
   656   4      19.833844919717023      4.0145541854843154      8.0679861348370299
   657   2      22.232842566157334      6.0216307722388747      10.058537938016343
   658   3      22.317762511137179      6.2560094498064229      8.1586973168184187
   659   3      20.354920449875504      6.0778286020482115      10.232331689261189
   660   3      22.458758321244424       4.126928259783031       10.17794154100795
   661   4      19.826419748259323      8.0399805631643986    -0.05017592421408526
   662   2      22.191480412607216      10.048742412592121       1.952202297073369
   663   3      22.424107798006734      10.163510339473895    0.061790784676376748
   664   3      20.335574057724127      10.255970994103039      2.0674666688386543
   665   3      22.298724611845504      8.1550053575880348      2.1969416116839926
   666   4      19.828618975546021      8.0566076639336792      4.0080476906633216
   667   2      22.237413147765935      10.036239278129154      5.9969000266659016
   668   3      22.302985148448087      10.289869878825312      4.1072889478984225
   669   3      20.351881992793338      10.127099854048666      6.1985740791913733
   670   3      22.439502272019947      8.1466543090141119      6.1260288979177826
   671   4      19.831558733395745      8.0298943695446052      8.0568164400467879
   672   2       22.18608286305032      10.109612454164973       10.04985266861212
   673   3       22.42335402970598      10.170355528938297      8.1543653343384239
   674   3      20.329304549748642       10.28622830056397      10.170852178077451
   675   3      22.301973696385154      8.1882715145959555      10.300821014075272
   676   4      12.117078432686693   -0.040004525771662046       11.78333362076097
   677   1      14.135646439038313      1.9985391119897837      14.156560670458635
   678   3      14.175090129190464       2.317103777735297      12.147927835096109
   679   3      12.092271312578402       2.159604630846526      14.177469468230175
   680   3      14.327120719788477   -0.047539570382104088      13.970902558252984
   681   4      12.159464607914449    -0.37047209730529568      16.168389089179239
   682   2        14.1457098234075      2.0372525110223054      18.063927513601236
   683   3      14.242610936182171      1.7498490014190864      16.194942305843259
   684   3      12.198832872264612       2.019336170129626      18.359102746037593
   685   3      14.145963933844104    0.039172108529223641      18.548487891451835
   686   4      12.107906237630671    -0.04710554986018875       19.87911305435065
   687   1      14.134557120380519      1.9974224413063739      22.247013991918557
   688   3      14.168200828765796      2.3187385394777364      20.238165768778867
   689   3      12.094051298513415      2.1617244904445378      22.270958196946417
   690   3      14.323711917518892   -0.049233305497692871      22.064189944821969
   691   4      12.178369798498887      3.6737367720012029      12.114589737980635
   692   2      14.146500524277966      6.0861231592504392      14.019400427332155
   693   3      14.245615047702687      5.8147610197635977      12.148729498673006
   694   3       12.19969977698293      6.0724900101474448      14.315169721370552
   695   3      14.145549220080598      4.0921567665481788      14.506336287626493
   696   4      12.105287729733094      3.9995636716872478      15.828937122531189
   697   1      14.127864056822634      6.0470876006000438       18.20261690926208
   698   3      14.159868707835949      6.3741546296481371      16.198153129522996
   699   3       12.08468787753786      6.2193846977876452      18.228701839470698
   700   3      14.323145582065967      3.9987188125160298      18.018023667742611
   701   4      12.173115172366824      3.6764285533327867       20.20710178751634
   702   2       14.14629789505082      6.0881462922785001      22.105525480114874
   703   3      14.239117022301226      5.8106718668016661      20.237161482544771
   704   3      12.200017894018799      6.0744829680388737       22.40685608412517
   705   3      14.144541423299225      4.0932991680444042      22.592036556869289
   706   4      12.112164394123155      8.0508625438293588      11.784755277465935
   707   1      14.126300556889811      10.091508466096986      14.160034935146177
   708   3      14.152756396402303      10.419113043383701      12.155870904367083
   709   3      12.087010230852291      10.281172757289108      14.193273599420726
   710   3      14.321070979908598      8.0499747769244152      13.979365297429771
   711   4      12.173613823085665      7.7281829688303114      16.162227257116726
   712   2      14.136529154632072      10.145808699337655      18.066170352095202
   713   3      14.239266488071683      9.8720986518445031      16.195937051688581
   714   3       12.18889831761286      10.156467031822036       18.35250433958981
   715   3       14.13282802839821      8.1518857244313452       18.54881748739815
   716   4      12.094699144094506      8.0574642704200663      19.874038417392459
   717   1      14.129673160520337      10.094959795573278      22.245842189571668
   718   3      14.162874816655979      10.428573139876057      20.237968057345633
   719   3      12.090341584849789      10.275512545195602      22.262523928944713
   720   3      14.321050194926276      8.0507702370031637      22.068256830311938
   721   4      15.935359326092804     0.14713495434519058      11.960329648584459
   722   2      18.068073054245424      2.0317296064351957       14.20761004987847
   723   3       18.42105525449006      2.0249502278178135      12.234558588379944
   724   3      16.203559569321019      2.1273412320440368       14.14904526422807
   725   3      18.335573338899884    0.057602833686484681      14.231451933930204
   726   4      15.927177259882203    -0.18910149228495279      16.002506913957767
   727   1      18.176797452479974      2.0100412318876621      18.211893665132575
   728   3      18.366599265393859      2.0571895830350759      16.172900996026478
   729   3      16.150613096921976       1.942597080295053      18.445861295736101
   730   3      18.435656580998195   -0.045337453340083836      18.246670204060955
   731   4      15.931393768082895     0.13658993149227544       20.04931194119975
   732   2      18.063167883601729      2.0292432877203015      22.297489018301047
   733   3      18.417195232099203        2.02817760533864      20.324275115442774
   734   3      16.198943960563671      2.1331010996332096      22.231611643494603
   735   3      18.319115594805822    0.059060952211861806        22.3260282585378
   736   4      15.929247168665846      3.8489742912203453      11.940329494606946
   737   1      18.171814541437929      6.0630441082652657      14.168265898140701
   738   3      18.353131505519197      6.1242697933532604      12.127568833307887
   739   3      16.147864791309029      5.9978547872802093      14.411426315913278
   740   3      18.427756777062772      4.0108957284880438      14.211157455583875
   741   4      15.929282223101552      4.1787821788601338      16.006819486579325
   742   2      18.060839213777367      6.0792780078890525      18.254040796563547
   743   3       18.42027409653971      6.0811389981443806      16.282858432679369
   744   3      16.196571602163548      6.1911942934141031      18.186577416969282
   745   3       18.31688749140902      4.1094041082456947      18.279168723295889
   746   4      15.925562799603409      3.8471522069495205      20.038849556917903
   747   1       18.17095587692631      6.0630805958273868      22.255479348258348
   748   3      18.357544879149362      6.1128238121842697      20.217355286184226
   749   3      16.147599280494973      5.9973442277029445      22.494739503905755
   750   3      18.423999066573945       4.011261154210044      22.299361201551157
   751   4      15.923455311126812      8.2072865050088577      11.955220220493038
   752   2        18.0586048952186      10.122412495615761       14.21314001614242
   753   3      18.415818632244015      10.122863430649844      12.240686946640418
   754   3      16.194822605959779      10.250278640075743      14.149190662355275
   755   3      18.309666610540177      8.1603167943874357      14.248289846561383
   756   4      15.921345194054902      7.8929753769443005      16.001276120510063
   757   1      18.170471060370485      10.111408087026744      18.215221153524922
   758   3      18.361313799855054      10.171365684717813      16.176303401092795
   759   3      16.145579395398258      10.047657027889752      18.448292685232992
   760   3      18.431055384094261      8.0613517130260011      18.254582286640971
   761   4      15.922805046233981      8.2319741593596039      20.045815311456327
   762   2      18.057150520577977      10.126955180450603      22.296791336752754
   763   3       18.41186207492559      10.129043557738425      20.328431226559999
   764   3      16.192959712154856      10.240642507426394      22.234495345391974
   765   3      18.309476825424138      8.1586124442477903      22.332596161322996
   766   4      19.856726079964442   -0.036217300047068385      12.146835497938826
   767   2      22.244812839857016      1.9486941418573234      14.108039246157881
   768   3       22.32941972274245      2.2089855124058535      12.208810049311323
   769   3      20.367623833328523      2.0280355312676157      14.276850474957371
   770   3      22.454303738438046    0.055990126166274003       14.22075900395866
   771   4      19.843486557165669   -0.060702742792453267      16.163564133136926
   772   2      22.208101044173933      1.9472244706429289      18.152699224996105
   773   3      22.447106136621368      2.0832544456663102      16.252742956055581
   774   3      20.354014350457469      2.1525097108528688      18.254539904343627
   775   3      22.322057132299115    0.053944138207678752      18.378510998482952
   776   4       19.84037673627903   -0.041314828692993071         20.216108858658
   777   2      22.238474790936717      1.9435542159911319      22.202348557661878
   778   3      22.329964337123833      2.1905535292829201      20.302518025065105
   779   3      20.360240498029462      2.0286477820604749      22.372743144118505
   780   3      22.442502400461098    0.052683904414455585      22.318338830615417
   781   4      19.836363480512574      3.9878767726621214      12.106994683485672
   782   2      22.201845300365921      6.0186893924934228      14.104229339839272
   783   3      22.441187949822364      6.1406709552263381      12.205986752753095
   784   3      20.348627578055993      6.2115963051571672      14.210121498648766
   785   3      22.320985544463436        4.12239242783264      14.338513386925889
   786   4      19.838487933572253      4.0163322123384395       16.17569668412278
   787   2      22.243528499853646      6.0055460732069816      18.152393711103631
   788   3      22.330131885260002      6.2427224115448716      16.256909860723788
   789   3      20.365331454615543      6.0717252437818434      18.328422450694688
   790   3      22.464007048910045      4.1079453855711332      18.273243708296814
   791   4      19.835954474604989      3.9894882082304863      20.203211496696284
   792   2      22.197882950429566      6.0062103643845139      22.199669510243826
   793   3      22.439785803242469      6.1232973469797196      20.306070720900408
   794   3       20.34363833995705       6.199209502358455      22.308678905068735
   795   3      22.314659357028546       4.110936480584451      22.436584583761878
   796   4      19.838352977596706      8.0632817694227885      12.120821795216107
   797   2      22.247083651205291      10.062994119514764      14.109552292474236
   798   3      22.327737072291654       10.28818850958953      12.216315799492856
   799   3       20.36459997946265      10.123312994598196       14.26868297990308
   800   3      22.467438116909417      8.1574011084187426      14.228159100227318
   801   4      19.839973036547786      8.0401852125318118      16.163492653265951
   802   2      22.206146947772474      10.068452682696719      18.144655653619164
   803   3      22.414600813250711      10.145444061768213      16.261635082989116
   804   3      20.348387712961525      10.255356752377404      18.275694362947622
   805   3      22.311739548503709      8.1623371372021527      18.406708896184604
   806   4      19.840038596890192      8.0700766594865421      20.206741030438632
   807   2       22.23301094670343      10.046681911808236      22.207489114475443
   808   3      22.321186284802568       10.27794188964757      20.321712127929491
   809   3      20.354779215752366         10.120338393967      22.387274128045608
   810   3      22.448952180321889      8.1481765155591699      22.334530893186955
   811   4      12.106099205881684      12.097871292187568    -0.37337885575441115
   812   1      14.133692027945422      14.143967367179023      1.9934120987658239
   813   3      14.163790404049241      14.475458288174231   -0.015609655426238827
   814   3      12.097722118908818      14.318942862399995      2.0202459945841755
   815   3      14.325822035895252      12.100949298106695      1.8252612126094099
   816   4      12.188230973966004      11.777990173573624      4.0051647942927682
   817   2      14.151999012053937      14.190024012350969      5.9104948765072773
   818   3      14.246713599691855      13.929091074481256      4.0401956701903545
   819   3      12.207998916297745      14.186426272961457      6.2170362582768863
   820   3      14.141181099015034      12.195929178532024      6.3929776593013035
   821   4      12.118916567249398      12.102690402132781       7.729952461639086
   822   1      14.150527440401374      14.144784316543149       10.10438572054745
   823   3      14.175935284548999      14.465054346746657      8.0989991307663605
   824   3      12.106160187886656      14.325298232311567      10.138522069172796
   825   3      14.340920197560592      12.103212734395578      9.9459136600355809
   826   4       12.18088374934786      15.829615623799008   -0.042414005413645248
   827   2      14.157350205425878      18.236468503938422      1.8586078687851997
   828   3      14.252462315665772      17.970414215280368   -0.011123511348514107
   829   3      12.210218107550224      18.232247294326434      2.1576245529853368
   830   3      14.143865622713314       16.24541155621008      2.3386946947209828
   831   4      12.121387971385328      16.158904812165979      3.6795589009318297
   832   1      14.158772978086368      18.198275847304018      6.0584138040882447
   833   3      14.170114125843934      18.520410253544213      4.0449008907309727
   834   3      12.112844772582458       18.36023773260581      6.1004751246876445
   835   3      14.342841095347591      16.151880402603364      5.8869631371896354
   836   4      12.199910310942062      15.826975900997505      8.0533110496544946
   837   2       14.12994566796732      18.241207798173189      9.9898464856018521
   838   3      14.308690174727367      17.986277686184277      8.1215029518969182
   839   3      12.217985491869122      18.270124113243313      10.222521488235779
   840   3      14.164755530347028      16.268412782094661      10.469623053317759
   841   4      12.137316594220493      20.226737162443801    -0.36135101898637351
   842   1      14.139528101146773      22.254383995161767      1.9987071246679489
   843   3      14.173413344667892      22.569151718491394   -0.012235083223711408
   844   3      12.099858307759188      22.413186119067671      2.0199174594174485
   845   3       14.33342766802271      20.204830535004955      1.8230166869866429
   846   4      12.197363288941048      19.882319060547687       4.003786803434723
   847   2      14.162170033267717      22.288596728704491      5.9115684730570397
   848   3      14.241580146604029      22.017219726261835      4.0408918074789328
   849   3       12.21123588938765      22.276075751074998       6.222530099350589
   850   3      14.158433033291546      20.297739664406862      6.3929663858476449
   851   4      12.129764602826793      20.222116878594527      7.7243965161689614
   852   1      14.155950468871399      22.252648308413672       10.10660577609821
   853   3      14.181867406300752      22.569456184567201      8.0988023547906138
   854   3      12.108549953278825      22.391183177395654      10.134952918437348
   855   3      14.398969093894522      20.196127530632225      9.9564673450369359
   856   4      15.929279519265357       12.27243450873884    -0.21331466754740896
   857   2      18.054583242317701      14.169599679103278      2.0423455357296825
   858   3      18.410309273421962      14.167139608765732    0.079644601107601978
   859   3      16.193473069592677       14.29531295289725      1.9862034322387194
   860   3      18.303083460799108      12.206202230151268      2.0947732546165652
   861   4      15.925510240311835      11.939477080039101      3.8387500535863275
   862   1      18.166183760141987      14.157302297726737      6.0509201866815374
   863   3      18.355803375641621      14.231873578145462      4.0209957770681806
   864   3      16.154738866043012      14.087151864010375       6.300871304521797
   865   3      18.438415483093397      12.114323245421966      6.1002242573615435
   866   4      15.916531760435323      12.259475513799289         7.8934021094341
   867   2      18.071275535236964      14.098070826304081      10.164663538499944
   868   3      18.423752257208584      14.196577126415113      8.2081716356237546
   869   3      16.216464372416702      14.324521625584621      10.101830910368204
   870   3      18.246152710514369      12.189704606550956      10.228770005854258
   871   4      15.931025584191151      15.992298085870441    -0.22013071932775838
   872   1      18.167940481285161      18.209930443481039      1.9882368861361586
   873   3      18.336516032785205      18.276007251757711   -0.035323291921971152
   874   3      16.153678443451973       18.14370486014629      2.2575111826794965
   875   3      18.433063391505133      16.156186370568157      2.0433618429122933
   876   4      15.923864708743483      16.308767295773002      3.8355680925898916
   877   2      18.091463428471712      18.228089823085455      5.9932998550638814
   878   3      18.413399840928587      18.215735633713095      4.1031500070782752
   879   3      16.229496755018673      18.355691182173548      6.0163226260437668
   880   3      18.294768614187991      16.282188289325781      6.2216281815136689
   881   4      15.959683418661726      15.975330820784814      7.8816242867376909
   882   2      18.291373243908762      18.194001998565632      10.044499000685363
   883   3      18.174831906192825      18.331654697017246      8.1409723104133018
   884   3      16.246281473061725      18.146414775251813       10.37502981584689
   885   3      18.363682357632754      16.229100480157193      10.181718208637772
   886   4      15.933323258761495      20.384272714130308    -0.20103368085782242
   887   2      18.063346078898142      22.287647472381078      2.0467044611086656
   888   3      18.409302353282587      22.283573429224088    0.076522925356750135
   889   3      16.200376715904675      22.396873891309582      1.9939231107012954
   890   3      18.308939030393297      20.314396258314257      2.0931623755755111
   891   4       15.91617457779652      20.063020743772459      3.8242226281235698
   892   1      18.175265278516068      22.264430006570947      6.0472814288511012
   893   3      18.379340747257739      22.319522631486421      4.0181603742039487
   894   3      16.160127672313756       22.20424441613758      6.2887457376396201
   895   3      18.454183077343284      20.200038091657504      6.1181708317014429
   896   4      15.951313458949382      20.373491572098125      7.8916083718410395
   897   2      18.087636066093513      22.311918317003386       10.15530506478966
   898   3      18.434503977789412      22.223836303186282      8.1990648054946007
   899   3      16.224611479051415      22.406647790886488      10.116261470453143
   900   3      18.202512017628059      20.262872747618129      10.287559661556692
   901   4      19.836279436667319      12.107323818079724   -0.055655345891392594
   902   2       22.24316782462261      14.084102867436309      1.9451918826730341
   903   3      22.296604576917467      14.343772511317281    0.062270050603326313
   904   3       20.35293278158208      14.184443947302434      2.1553494906524562
   905   3      22.438101411752385      12.191804554174013      2.0710931800618848
   906   4      19.833443805518034      12.062590445120859      3.9816505241908535
   907   2      22.238126913068513       14.07367495185777      5.9732816914890403
   908   3        22.3918992454361      14.194405022619215      4.0922070156788761
   909   3      20.353915571588843      14.358685391761236      6.1629522923340403
   910   3      22.262264197737736      12.190508332472564      6.2622814409722993
   911   4      19.873886482880543      12.070285693616745      7.9990063927774813
   912   2      22.191976732631922      14.204610468772071      10.049822353049416
   913   3      22.305527170568993      14.318319358953026      8.1460658270232837
   914   3      20.313344276543301      14.143431802320622      10.240689751775401
   915   3      22.482458826286752       12.19504485537446      10.183052438110765
   916   4      19.836657377314499      16.131124583087136   -0.061424707305908918
   917   2       22.18262673347898      18.154002480176811      2.0078515643429231
   918   3      22.447671958421953      18.270216935948476    0.091063522543916697
   919   3      20.322533774175344      18.363513025753257      2.0491678998085434
   920   3       22.27725774355579      16.253840534737694      2.2216642108622686
   921   4      19.899825712323477      16.083655740722261      3.9261078240206713
   922   2      22.214931299092619      18.118954127659173      6.0968707562588671
   923   3      22.262191637975153      18.430347047904963      4.1142697446854894
   924   3      20.311818280076864      18.213189694212389      6.2656578150821627
   925   3      22.430920972029952      16.221858007738856      6.0820482515745899
   926   4       19.98029670216539      15.995307073107647      7.9128060928217288
   927   1      22.198079887660938      18.195714000616096      10.091898538639279
   928   3      22.535889964900278      18.212989109668783      8.0418308828978198
   929   3      20.181315190666648      18.356672265083567      10.103392643689727
   930   3      22.340836022365945      16.136334155475804      10.306610328485601
   931   4      19.836866772791421      20.213875372042555   -0.047788807666569816
   932   2      22.244620895559304      22.194020018208125      1.9491283190439554
   933   3      22.323708693429953      22.452590081402981    0.051178081109696023
   934   3      20.357717226810362       22.26157273324397      2.1219505445094651
   935   3       22.43420779766825      20.306400953281404       2.052825098850628
   936   4      19.886254599514945      20.227466763506836      3.9332770490921978
   937   2      22.234492875401983      22.204425755838894      5.9919926165475879
   938   3      22.396508215540287      22.347949853313811      4.0937413252881303
   939   3      20.350430647076891      22.372059758961854      6.1757948345686815
   940   3      22.258749499475332      20.319791260563225      6.2203588280863684
   941   4      19.997862798561876      20.326921310277818      7.9039011308851164
   942   2      22.246093326857476      22.153818577326224      10.053636154495244
   943   3      22.326708623102558      22.465112505138006      8.1531870169377125
   944   3      20.356316500353632      22.230533998018959      10.223988181540967
   945   3      22.463468984802223      20.304988556603696       10.11788028799841
   946   4      12.175965787332505      11.776920400689306      12.109536297679814
   947   2      14.146483761129016      14.174001235587754      14.033523457704469
   948   3      14.252286322491187      13.951187090666437      12.154171507966257
   949   3      12.189668094249562      14.209391645773765      14.314552812623926
   950   3      14.136340243898466      12.202050816019476       14.50999246244794
   951   4      12.086752757346193      12.093096856276457      15.834446127457909
   952   1      14.158127912196251      14.155001657594566      18.201978797156549
   953   3      14.155081213689671      14.500321944744002      16.196718628460474
   954   3      12.121839318121108      14.270164493705758       18.25389864242074
   955   3      14.339101566494232      12.109106308797447        18.0119117027177
   956   4      12.174847712726219      11.776933116355845      20.228757260433298
   957   2      14.142369029308457      14.185802608953725      22.108716489733311
   958   3      14.260362165903253      13.916401479368469      20.239574538248561
   959   3      12.195856387169268      14.185247152769348      22.392072436912446
   960   3      14.141814710489113      12.196311081187005      22.591827901654963
   961   4      12.111542055130904      16.109134723603688      11.797050160078246
   962   1      14.155194891098347      18.204522451832354      14.149827562238174
   963   3      14.188591191351284      18.532846368591073      12.136750239111104
   964   3      12.108774091143284      18.334289003924262      14.198631558454844
   965   3      14.320823907269061      16.154456046278657      13.979612080816151
   966   4      12.210811704446794      15.881921820988039      16.092949121710276
   967   2      14.160117204626374      18.240877211636946      18.062970459715253
   968   3      14.234490475720509      17.942918321256965      16.195291391560236
   969   3      12.196226679410879      18.205682876553091      18.366103741676575
   970   3      14.140574037354945      16.244448941442936      18.565262299630092
   971   4      12.157150070282716      16.232849998311806       19.91849836213569
   972   1      14.141358993174959      18.202737795461701       22.25075071384116
   973   3      14.154798681649407      18.528467602619816      20.238264815894535
   974   3      12.103159226417803      18.357411340108687      22.266794382646665
   975   3       14.32169498283282      16.154357835944658      22.055031960450336
   976   4      12.204412515635839       19.92086154653758       12.11173502485007
   977   2       14.15035421434651      22.300957551840401      14.026638173626615
   978   3      14.238599336713436      21.997659604116791      12.155498685006703
   979   3      12.202331276077073      22.265610636332493      14.318294534977383
   980   3      14.144925566793503      20.290745058917665      14.505751306127745
   981   4      12.132522861971474      20.222460087203348      15.852299449482711
   982   1      14.137499018081744      22.247730025896661      18.201764708698338
   983   3      14.172386728481719       22.57019914836814      16.192697063360221
   984   3       12.09111094936276      22.400496962952325      18.214190547230913
   985   3      14.309186320041009      20.198807146122192      18.005643469857517
   986   4      12.172644915690162      19.888503144757564      20.197894708021792
   987   2      14.154321034359072      22.291384837182328      22.105512250339817
   988   3      14.239978771968614      21.998756883354964      20.238159738300531
   989   3      12.205095103039662      22.268955659938069      22.414469588882966
   990   3      14.149203927610184      20.295294940566173      22.596726224129551
   991   4      15.921943512174133      11.917362942033199      11.963580535039767
   992   1      18.174385153056647      14.153822379996743      14.171949373569817
   993   3      18.349148251912109      14.269667689597114      12.120138580093339
   994   3      16.150029723713615      14.105028117382634      14.411052808265513
   995   3      18.440282978302164      12.108892548810854      14.201932748920184
   996   4      15.933012657574871      12.255536357053513      16.018844475518787
   997   2       18.07674966261925      14.179947599632197      18.250123105013241
   998   3      18.436673632148022      14.183061080328789      16.275881366417206
   999   3      16.211907006481784      14.299590693965573      18.170891811211654
  1000   3       18.31618238514265      12.209656509549731      18.277956450653928
  1001   4      15.929775052852673      11.946699508482981      20.039183890864795
  1002   1       18.17165203810772      14.159357312343397      22.254713374865158
  1003   3       18.34747273056357      14.218730489359933      20.217220991478044
  1004   3      16.148512384626102      14.099823762964675      22.501455116563037
  1005   3      18.422252817343594        12.1089633823564      22.303497187017616
  1006   4      15.920203154505657      16.252493330551584      12.013450850559396
  1007   2      18.085029597054412      18.230084108416662      14.225429811873758
  1008   3      18.406176003673142      18.228719008200844      12.217176099981844
  1009   3      16.221110633526479      18.332406729108875      14.152588721201045
  1010   3      18.344150093703721      16.260130043953939      14.217802569839263
  1011   4      15.938332202358037      15.996357069696952      15.999634219336814
  1012   1      18.179059089534242      18.211633443943754      18.220351910698188
  1013   3      18.347430998481059      18.266639021406551      16.176703297395903
  1014   3      16.148941691273148      18.147349881365077      18.451406862296714
  1015   3      18.445720531811808      16.161484711852378      18.246708457452428
  1016   4       15.93909022326215      16.312680599900247      20.058897058369997
  1017   2      18.062657035451625       18.22836524415974      22.299334374377228
  1018   3      18.425861239943004      18.225343847731288      20.327929734324471
  1019   3      16.198456350348891      18.342501430283043      22.216276422168839
  1020   3      18.308044723883871      16.258192199480217      22.338546964449169
  1021   4      15.935801523211712      20.103915662892941      11.973827927220947
  1022   1      18.184045119017071       22.26464403005177      14.169253990176568
  1023   3      18.403120886838654      22.299437638274885        12.1281874781998
  1024   3      16.156468396887146      22.193194421163565       14.39840381303728
  1025   3      18.465891320171377      20.207543351461776      14.187267795229765
  1026   4      15.932285755427191      20.394225951894754      16.009006373657336
  1027   2      18.070543061075153      22.272648358263602      18.249578726900481
  1028   3        18.4339997632879      22.266279538140797      16.276305602875951
  1029   3      16.206267700373292      22.374722085161125      18.180053786135154
  1030   3      18.332737430887953      20.304482642408033      18.282631513512637
  1031   4      15.931885942425597      20.044037899906968      20.056938664871446
  1032   1      18.176292763748727      22.262771698147972      22.254273916029156
  1033   3      18.364595045099435      22.313302023557263       20.21434049186097
  1034   3      16.151745080369125      22.196961132819872       22.48936871868861
  1035   3       18.42683690951878      20.212316584134211      22.293635207933288
  1036   4      19.867040266901803      12.040972786752103      12.144847290977671
  1037   2      22.214664500635962      14.095354868059665      14.112261034719936
  1038   3      22.437326258695965      14.137058367765063      12.221731187898895
  1039   3       20.34947903445838      14.307043827172233       14.17041570692931
  1040   3      22.312197520781723      12.190783101115453      14.365714427511488
  1041   4      19.843127743490815      12.109192157319029      16.178380362235835
  1042   2      22.258947421985095      14.104857609126595      18.136786617151497
  1043   3      22.300230908163954      14.301291921861772       16.25823995529662
  1044   3      20.372314295973293      14.161096920036861      18.350034514352089
  1045   3      22.464422747217242      12.194024088518015      18.302572580430503
  1046   4      19.843768174216663      12.090760281817122      20.192789324461369
  1047   2      22.196563254838328      14.102251768037389      22.206642651182552
  1048   3      22.427068789467349      14.215035336181089      20.324833680027197
  1049   3      20.337546026002169      14.295236798146199      22.319217705628375
  1050   3      22.310055358477314       12.20139045946034      22.460591299090755
  1051   4      19.910060086743258      16.096924001164339       12.21075733050955
  1052   2      22.249998274588442      18.130679741208766      14.065492704269513
  1053   3       22.28460301382778      18.342245432901681      12.202919059487749
  1054   3      20.354162653394447        18.1979360694287      14.303293544003093
  1055   3      22.460179472206207      16.212192741011368      14.223018139110433
  1056   4      19.860639477817955      16.142705766091535      16.168051661436778
  1057   2      22.216269125951502      18.143211272098871      18.150262079932638
  1058   3      22.453298789988516      18.252982431985998      16.273299040279319
  1059   3      20.357756668413469      18.337911094709202      18.262964578509632
  1060   3      22.327707716274318       16.24168392134948      18.415132479449866
  1061   4      19.848683328589075      16.159685531613668      20.207872988327768
  1062   2      22.232885582956456      18.144287835654413      22.232176518973617
  1063   3      22.312128398146712      18.376805985353897      20.338015205614276
  1064   3      20.353344191293395      18.221211964062579      22.410435493318506
  1065   3       22.44330472844528      16.245918001240291      22.348949722780336
  1066   4      19.898542838582493      20.236134174598952      12.153150240430701
  1067   2      22.223209770586937      22.186733135136102      14.098132477897895
  1068   3      22.442112835515793        22.3310481049126       12.19542342190144
  1069   3      20.366432526614823      22.393635088515797      14.194558203556461
  1070   3      22.301332548008091      20.293371461848547       14.31957902780694
  1071   4      19.862853577773961      20.206460922638882      16.176019135791673
  1072   2      22.255861579760619      22.174356462372167      18.143001686563654
  1073   3      22.341167972516615      22.427221681495933      16.248561777211705
  1074   3      20.377277870277766      22.263243963268263      18.322054919069544
  1075   3       22.46371679903632      20.283825661619904      18.299699709330408
  1076   4      19.844945361824148      20.185404165529004       20.20418551738468
  1077   2      22.205007432049342      22.198908125438749      22.203812603189903
  1078   3      22.441139254046107       22.32449302534534      20.305259470495475
  1079   3      20.348369115323116      22.400293671857099      22.308540644574091
  1080   3      22.311833782669506      20.305363826081003      22.451408434671315
