(written by ASE)

1080 atoms
4 atom types

0.0      24.299999999999997  xlo xhi
0.0      24.299999999999997  ylo yhi
0.0      24.299999999999997  zlo zhi

Atoms # atomic

     1   4    -0.12664939676907697    -0.28851778345206736   -0.095112578910316811
     2   2      1.9876201689783508      1.9758050369192373      1.9460438553249642
     3   3      1.9881088275076433       2.174949111455279    0.062362432199048093
     4   3    0.090895034176397924      2.0820820624231779      2.1912261238104915
     5   3      2.2009889334018715    0.073429252326150218      2.1033369519993959
     6   4    -0.34165984428338436    -0.13318060752225411       3.983051020015588
     7   2      1.9935884043533485      2.0702189440046248      5.9778932986665687
     8   3       2.316940590248767       2.038591621665748       4.073369115858128
     9   3     0.12190203310037678       2.081263878297289      5.9805484242418512
    10   3      2.1763133096521989    0.049017725629657546      6.0312044834806828
    11   4    -0.37163636592936872    0.086462401040993578      8.0042814189846894
    12   2      2.0576279812483098      2.0384983424498246      9.9530197417159183
    13   3        2.06138422522818      1.9473828842966647      8.0592814291297383
    14   3    0.088232570405084434      2.0063275661001825      10.310983922886578
    15   3      2.0711204953980618    0.055876232357819425      10.287480303732671
    16   4    -0.19012908500061204      3.9065264118442777    -0.05644751230805168
    17   2      1.9240066838414847      5.9958141946880223      2.0591156989878545
    18   3      2.0130680262846909      6.1364441965068099     0.11931458920176195
    19   3    0.064828101783647243      6.1225756987865028      2.2470787999897195
    20   3       2.106437377370912      4.0839595986744843      2.1842652748052283
    21   4    -0.35848667542009666       3.996070421613533      4.1274475352232569
    22   2      2.0555419999690021       6.028691295662945      6.1552099144127403
    23   3      2.3616650681114697      6.0886911805033801      4.0290033418097702
    24   3    0.093013143242197588      6.0023839988711387      5.8447563577725798
    25   3      2.2373185949802417      4.0157977653232324      6.0520564241284243
    26   4    -0.43587406797042044      3.8488844204542239      7.9998297512831638
    27   1      2.0467443809208143      5.9793726977572925      10.095096863899148
    28   3      1.8892843170043023      6.1178899102289588      8.0511926318953915
    29   3   0.0089305288747701071      6.1269644471697235      10.245080389062386
    30   3      2.0057246350469002      3.9630988250993902       10.25729197232952
    31   4   -0.021457195234061956      8.1319570416700291    -0.17403192107204768
    32   2      2.0822701663797911      10.008635913052974      2.1293177800241696
    33   3      1.9600848541318536      10.169373464499577     0.10640002819561947
    34   3      0.0631099177949275      10.249353285887537      2.1202069782879458
    35   3      2.1421658397236314      8.1089310935536414      2.0943384009361012
    36   4    0.028774690317667755      8.2043533401890727      4.4902198009665382
    37   1      2.0942732583562074      10.067728079428912      6.0835600828582681
    38   3      2.1060225363249447      10.274687483027417      4.0333552314029406
    39   3    0.048770141991879554      10.252463082531417      5.9645483835818141
    40   3      1.9548650204424636      8.0291932637668015      5.9365687029791614
    41   4    0.061389174533466075      7.7763433318409882      8.2147777724878299
    42   2      2.1168434253659938      10.005925646128558      10.108062561258835
    43   3      1.9651633015143821      10.270817959581244      8.1782054422758588
    44   3    0.023784357441295659      10.285506328087644       10.20425924432827
    45   3      1.9183835816341317      8.1366060060560024      10.123499697807944
    46   4       3.898710340228829   -0.090112305962851039    -0.28162386549758356
    47   1      6.0523722440739798      2.0030944637183681      2.0202648885566701
    48   3      6.2298482015549199      2.1472573520474318    0.015058141438712178
    49   3      4.0301119283301023      2.2247260252103929      1.9909096986465331
    50   3      6.2977383473788349   -0.047654786477668562       2.059706164489151
    51   4      3.9088242728666343   -0.049310001177360029      3.9134951530242481
    52   2      6.0612099329069817      2.1229216906645454      6.0499725052531259
    53   3      6.0337593887467795      1.9504014006120634      4.0886354834241256
    54   3      4.1453078209653222      1.8456961133452587      6.2466756400876031
    55   3      6.3496349479101575   -0.024615088423756849      6.1582961840097115
    56   4      3.8743223898875954   -0.069671487238261151      7.8924523686616208
    57   1      6.0683890962574614      1.9531473641111263      10.066799155231509
    58   3      6.3860166675122958      1.9926944115235039      8.0478227924310328
    59   3      4.0219974675839838      1.9780654460393763      10.190112645822955
    60   3      6.1493683814042166   -0.069909382402022865      10.250488414710604
    61   4      4.2187739130438011      3.6604878431691694   -0.053796989196626711
    62   2      6.0028984003226924       6.074650544487123      2.0156672170300851
    63   3      6.3208953029764778      6.0514961205862541    0.050911678115559876
    64   3      4.1093889761107452      6.1468019118486064      1.9383060540450716
    65   3      6.1697306160090415      4.1213336064615982      2.2101694413529067
    66   4      4.1111441906016433      3.8801155520286605      3.8051088412202092
    67   1      6.1086783135582241      6.0434289632245113      6.0321917567868431
    68   3      5.9769154940741656      6.2921506750365905      4.0121419393724871
    69   3      4.0415626282305928      6.2600637784232207      6.1837507144640496
    70   3      5.9904890230783696       4.014605642961345      6.0573681323016402
    71   4      4.5053302706567004      4.3269964939081991      8.3049372565632478
    72   1      6.1075461509546898      6.0712284305002582      10.179616691974225
    73   3      6.0736664264384332      6.1263940102626302      8.1058649999839076
    74   3      4.0418041195541665      6.1773289801377809      10.031064492100235
    75   3      6.0174956706772456      4.0364695783660869      10.162527633867503
    76   4       3.936840682187313      8.1334340752576839    -0.20076990602535172
    77   1      6.1074319795418104       10.08050413266046      2.0437178386960833
    78   3      6.1932522320906376      10.232565465242875   0.0077931134153864778
    79   3      4.0307159373991981      10.312570851713009      1.9664912140870836
    80   3      6.3478478536975151      8.0693910150686161       1.974382967021328
    81   4       4.030990244378641      7.7946795549909025      4.2848552286824342
    82   2      6.0257386044192209      10.039598945800345      6.0422340624342592
    83   3      6.0069682718540554      10.150229996572948      4.1336816366045488
    84   3      4.1178815109011984      10.199159679837596      6.2422729594687381
    85   3      6.1744412477521333      8.1727516134203935      6.2058706014331158
    86   4      4.2599573955135304      7.7140053882945692      8.2204883164541958
    87   2      6.1809115024017744      10.045903877487348      10.221798335098116
    88   3      6.1167355753947881      10.377992643469581      8.1332056265524226
    89   3      4.0362784551973672      10.209545036646139      10.052268502644383
    90   3      6.0601651390282276      8.1577545263721483      10.054504674150726
    91   4      7.7333854302857779      0.2342872259658331     -0.1747697408900398
    92   2      10.090033082341726      1.9230600581302595      1.9915544538144483
    93   3      10.120750732695024      2.0927405298069486    0.097898784380997583
    94   3      8.1806131896620435      2.1343679218276161      2.2507933913926075
    95   3      10.134075852055204    0.046184255138300899      2.2036265032220612
    96   4      7.8766247467657688    0.086433551517964544      3.8355397291980267
    97   2      10.182359906316281      1.9103832613249743      6.1205384100574527
    98   3      10.249306660919524      2.2347707428272483      4.0776818910323147
    99   3       8.129199297713031      2.1228980986087942      5.8774516179633407
   100   3      10.017804359696052  -0.0077114703378303139      6.0685405961290844
   101   4      7.9809983383812231    0.085252894339002891      7.9825588110181558
   102   1      10.119942814029248      1.9561154400789333      10.095323083102157
   103   3      9.8399758741471022      2.0089459917003252      8.0389207491607344
   104   3      8.1087956575455244      2.0949097431752133      10.294175094653173
   105   3      10.009869030716709   -0.054827506334953403      10.421929866918868
   106   4       7.817530572366465      3.8539684670178298    -0.16993567827014811
   107   2      10.126637899094458      6.0104299597442186      1.8981869042628601
   108   3      10.109968295486118      6.1891551283613797    0.031450387605889744
   109   3       8.185712644768067      6.0582600520458829      2.3175286754693856
   110   3      10.241425022521522       4.109786999377552      2.1106168371751886
   111   4      8.0001978977892794      3.8961685846874445      3.9000389395385278
   112   2      10.035826338297397      5.9541257332428215      6.0465003586553712
   113   3      10.318088008591943      6.1064701397669641      4.1483321690706978
   114   3      8.1599794136386254      6.1719035308452792      6.0464125164196947
   115   3       10.17654842275094      4.0755060271227377      6.1736108500510145
   116   4      8.1194572948963586      3.6950145497226194      8.3958106409790272
   117   2      10.039334235271491      6.0655332612498238      10.223985680003796
   118   3      10.039878928565505      6.2316116519126519      8.1101589375934751
   119   3      8.1316514969431584       6.143129100468026      10.224183407405196
   120   3      10.198549162441701      4.0847657136644191       10.01323416599501
   121   4      7.7139688222173861      8.3000970740553246   -0.073106481431620657
   122   2       10.13974334054943      10.112662364535479      1.9161757403591833
   123   3      10.182253165520443      10.081248712774078    0.030717151651667343
   124   3       8.200584021424584       10.18480449525147      2.2051278719165159
   125   3      10.043758847909917      8.1189284258472831      2.2586847185427739
   126   4      7.9650813763666743      8.0050466113156045      3.7746556597647642
   127   2      10.020748037931462       10.00448865754335      6.0504897483638693
   128   3       10.22603002564116      10.197154703585541      4.1798044396588612
   129   3      8.0999187054164565      10.295576095693887      6.1647400378518684
   130   3      10.145450954051025      8.1411955943482148      6.1769893353891918
   131   4      7.8968512698760565       7.653154381328366      8.0892757947438501
   132   1      10.081515671555684      10.092614748344896      10.131741255492166
   133   3      10.088583105082366      10.362821062133429       8.076941910168836
   134   3      8.0612678477445918      10.257892181947582      10.096264636512881
   135   3      10.323793402516635      8.0571671292715639      10.209728414867934
   136   4    0.087803900197804027   -0.098540318764817225      11.704584142702295
   137   2      2.0428719701012477      1.9329366243611594      14.083813103821573
   138   3      2.1106015375323497       2.005079026679601      12.216961217625617
   139   3    0.011350922932234541      2.1749206665510514      14.212733161889913
   140   3      1.9362809356989272    0.032200206651590624      14.335643761983134
   141   4     -0.1189039138462531    -0.25294308380631064      15.976354062030286
   142   2      1.9430324105420256      2.0175563751517838      18.109648083102766
   143   3      1.8459901507389556      2.1731460588347709      16.234668575384791
   144   3   -0.012009002804835868      2.1358311722804992      18.508612265749218
   145   3      2.0505661764484397     0.10589878112312204      18.313274883138845
   146   4     0.06178396482932242    -0.34110919198707962      20.316768479859356
   147   2      2.0107476188678737       2.012038371746927      22.180498808005044
   148   3      2.1396210322383258      2.0350446094684149      20.312731854404472
   149   3    0.034441495411019048      2.1868257105057372      22.345162673766314
   150   3      2.0561601392260633     0.10978539032704293      22.441819189476391
   151   4    0.061868856716319511      4.0034416847490881      11.726777617072615
   152   2      2.0676313295285076      5.9279083057133661      14.159857967869227
   153   3       2.051858211894904      6.2225885707629223      12.205297114223818
   154   3    0.052828933072796534      6.0737778824887938      14.208968497304543
   155   3      2.0689989502875146      4.0409208040710825      14.211518200157803
   156   4    -0.18767809602013893       4.064435689425137      15.916377517899265
   157   1      1.9414179040917365      6.0372068167282968      18.180921445573116
   158   3      1.9864976029096229      6.2232555987047506       16.13916702996416
   159   3   -0.079950765140100674      6.1260512575023824      18.475613816847389
   160   3      1.9526392564084438      4.0419253261544581      18.480509493655518
   161   4   0.0073374138967389349      4.1151165005999868       19.93581090841327
   162   2       1.933055369209145      6.0233427528138579      22.286331648110753
   163   3      2.1235720743341409      6.1855770836999042      20.408604655246776
   164   3    0.028724095701004794       6.159739134561355      22.393325105798105
   165   3      2.0742725798875079       4.114622549720985      22.392245487615355
   166   4     0.15163826504100075      7.7540151626461968      12.053046492767951
   167   2      2.1407711225273838       10.04481047342767      14.265880336619141
   168   3      1.9637345159693607       10.20931864539598      12.105915598228435
   169   3   -0.024643786189624643      10.244345213916526      14.093153196557253
   170   3       1.843752943017944      8.1312726934746813      14.148615917596796
   171   4   -0.010773845443553212      7.8561767115765475      15.915210781877786
   172   1      1.9699265541534701      10.101572343328179      18.154040122300543
   173   3      1.9634285670023313      10.188322846065359      16.133436516555552
   174   3   -0.072085087133831258      10.110310449002315      18.451611983397882
   175   3      2.0227931879163057      8.0910096536400395      18.340121514303082
   176   4     0.15451656381058013      8.1002342101747775      19.845546726828228
   177   2      2.0609204152940297      10.203568710088874      22.198277102872282
   178   3      2.0501493048722095      10.037871532621644      20.329741402459238
   179   3    0.035979144929385823      10.055986466666848       22.45167808722243
   180   3      2.0626447262474783      8.0922344231426315      22.550904404234998
   181   4      4.1358970989284067    0.040056421158834218      11.781287233273485
   182   1      6.0219637312742176      1.9902422593066544      14.161374565983319
   183   3      5.9966232512589794       2.117781505060913      12.176656416752213
   184   3      3.9415441557303339      1.9880106901978534      14.462461833427202
   185   3      6.0350704469017069   -0.040338870282015445      14.446924501405567
   186   4      4.1472741859297182   -0.096654516646539249      15.996553306480843
   187   1      5.9550436223218046      1.9972456307069812      18.267217908489286
   188   3      6.1650728791711087      2.1440373478550128      16.231809969816045
   189   3      3.9321569822343903      2.2010447720453707      18.188448220602805
   190   3      6.2233224550119495   -0.010719071331037873      18.233528817706937
   191   4      3.8692801382601458    -0.14902670584408864      20.115799302034944
   192   1      5.9842276425486363      2.0423964615567636       22.24276930209615
   193   3      6.2139224129934707      2.0387672266783587      20.267134026159169
   194   3      3.9719600342632466      2.0620737009600241      22.537163662154096
   195   3      6.2574998646230986 -0.00051969609935109305      22.354237236733361
   196   4      4.3443348666009527      3.8121353980405832      11.857524014129202
   197   2      6.1382190214421977      5.9972180208853949      14.218634468895816
   198   3      5.9448536129786564      6.2168806860699357      12.205961995937271
   199   3      4.0163314711117062      6.3184680220631195      14.214796995692474
   200   3      5.8835469864672056      4.0904723382820363      14.252475591776049
   201   4      4.2631531053272909      3.7081919947447477      16.184301459824312
   202   1      6.0630319076502435      6.0987992388533261      18.229708642858608
   203   3      6.1263189941629799      6.1678833187720636      16.184514123234106
   204   3      4.0217350228543429      6.1752636297500967      18.279480871216467
   205   3      6.1000443324428471      4.0779315282099153      18.262325518938468
   206   4       4.018259790614235      4.1436254295578898      19.723687920788112
   207   2      5.9664751195312578      6.0914223199205715      22.223382594222411
   208   3      6.0921539417815582      6.1853584645783251      20.330809843258479
   209   3      4.0678576943880795      6.1795108047344733      22.507090393053062
   210   3      6.1478414084370119       4.141244814680614      22.339729773869127
   211   4      4.0762161624703364      7.6647187606437166      12.001505055879653
   212   1      6.0208902360376166      10.060589399521591      14.226528551275756
   213   3      6.0429570535678305       10.12795685992813      12.110153549627158
   214   3      4.0078758446449667      10.123583682973504      14.069421816464859
   215   3      6.3046198755109337      8.0824977991816418      14.201224189190206
   216   4      3.8164849460217112      7.7224956981016453      16.474058748317749
   217   2      5.9034635409927372       10.16907087681656      18.210015440277683
   218   3      6.2973423682760741       10.11833835011025       16.26481315800196
   219   3      4.0413920954214628      10.095059937547891      18.216645672129079
   220   3      6.2463961918586195      8.1579625967403366      18.217649590339551
   221   4      3.7653289109748918      7.9528753573479527      19.886911808426348
   222   1      6.0159630232594639      10.100064492943321      22.216393782898596
   223   3      6.2306662381656643      10.081173153898341      20.196537379170085
   224   3      3.9944992130662595      10.064921494990999      22.547937159227448
   225   3      6.1823825930359657      8.0586621958598883      22.439178302922986
   226   4      7.9885526810992502     0.15750808180504344      11.798873346030723
   227   2      10.054964026976849      2.0592641173206676      14.062332126914921
   228   3      10.297329044035372      2.1484295343875184       12.16972488709423
   229   3      8.1498598497697312      2.0842959650624042      14.195824646170506
   230   3      10.279808453312661      0.0781540101510243      14.129379748706221
   231   4       7.698268495688219     0.22018212910030885      16.131167388342732
   232   2      10.099532319719293      1.9790384885899148      18.158759804808241
   233   3      10.121184981113657      1.9768341697252958      16.250379372675472
   234   3      8.2026230853621804      2.2028464090272935      18.274733753720312
   235   3      10.117822207048176    0.083299400490817382      18.407955048799057
   236   4      7.6416854715137648     0.20165007377230793      20.195888934086874
   237   2        10.1501132057337      1.9995283247836211      22.138285960265129
   238   3      10.264289298807679      2.2100355873598758      20.267582829844503
   239   3      8.2379924755667293      2.1604720028113529      22.369027713399696
   240   3      10.204455431412297     0.08586686385295289      22.328619595622374
   241   4      7.7612901070710842      3.6922699204436435      11.942410304194802
   242   1      10.062372060437834      6.0334308786603357      14.191407655964895
   243   3      10.392883631835078      6.0156064624153087      12.131430364385331
   244   3      8.0480199960722238      6.0282220944179521      14.016132526642153
   245   3      10.394942765627793      4.0196733104122098      14.243837567885707
   246   4      7.6870959095720908      3.8839805332533812       16.40752464839759
   247   2      10.063589148723398        5.99743027852326       18.12368692686881
   248   3      10.179384319783059      6.2463942314624719      16.246064126727955
   249   3      8.1826517883582923      6.1000940756984452      18.336968147848133
   250   3      10.305988597342953      4.0819690073012307       18.20819826828119
   251   4      7.6283409624715519      3.8750039768569904      20.091772882732844
   252   2      10.025416607119038      6.0447553324072691      22.137885898688655
   253   3      10.290078195633409      6.0504525354843288      20.282403589663122
   254   3      8.1504399648492338      6.0715196335852095      22.269693406398186
   255   3      10.300760713075304      4.1239827003511609      22.449491853279824
   256   4      7.8559098974525092       7.921241511531905      12.409655404818475
   257   2      10.028707430742934      10.080387277819444      14.110626301761231
   258   3      10.402813320751756      10.167967395441778      12.175688387846307
   259   3      8.1559662580471741      10.221001803876828      14.044465177813935
   260   3      10.151369742452498      8.1371302270553798      14.020888882530766
   261   4      7.6773369983246926      8.0950851182072423      16.212018947696844
   262   2      10.095550244959016      10.065265879029717       18.10360558865602
   263   3      10.175440840499737      10.123219220432311        16.1837815806248
   264   3      8.2058068331958829      10.146929771003778      18.330567739439665
   265   3      10.161929993087588      8.1310090907877388      18.368995614005371
   266   4      7.7461860106069311      8.1502788281924126      20.086232069977044
   267   2      10.117050460186125      10.023859317903074      22.184784892123016
   268   3       10.24385853895914      10.236595345821312       20.28164847161208
   269   3      8.2256889182649022      10.150538665981406      22.290065433873163
   270   3      10.185579314294584      8.0892792498962685      22.277023828146749
   271   4    0.081503401696498903      11.830447719153508    0.031730349228597785
   272   2      2.1496768077863186      14.123064286796687      1.9215111999236878
   273   3       1.851305054279941      14.334737291896609    0.050375734578559928
   274   3 -0.00019534580821940718      14.360746948834453      2.1774952855858092
   275   3      1.9619978742053645      12.202294379935749      2.0125702982224358
   276   4    0.046097290911705356      11.765764188067125      4.1717060330212776
   277   2      1.9933102508912512      14.127891603735765      5.9847282324472824
   278   3      2.1321361818696971      14.190813924453444      4.0871982573708987
   279   3    0.059463061143982018      14.275194217204794      6.1061010862176026
   280   3      2.1061097669124558      12.237149487814071      6.2145102524288554
   281   4    0.069738586171411501      11.745250019097114      7.8180124360229959
   282   2      1.9981343741859141      14.117127687864334      10.063571561242346
   283   3      1.9845398991784422      14.330245783416656        8.11862382260251
   284   3    0.046888561007540651      14.381421721178368      10.106319054466322
   285   3      2.0157542601289937      12.240959625016218      10.178214397881238
   286   4    0.046401699628912156      15.944754985137182    -0.15317287957195558
   287   1      2.0132101534373015      18.213931888667062      1.9920630631989844
   288   3      2.0144832291886119      18.290213837834827   -0.027625793395592044
   289   3   -0.012477196487997583      18.259908108459008      2.2316916669572455
   290   3      2.0481767628193781      16.166353703963324      2.2344423729063299
   291   4     0.11432416484625323      16.226909363301136      3.7000777256973332
   292   1        1.96775878103152      18.240852126363407      6.0522512401695652
   293   3      2.2240552656579795      18.304380814456135      4.0411421612172411
   294   3   -0.041758784780734727      18.504010916634989      5.9481520847698244
   295   3      2.2079855030022637      16.186718601918113      6.0627472495333485
   296   4   -0.055552840590614043      15.965424570106848       8.041038641103107
   297   2      1.9473634977990646      18.205624809903124      10.012925914753861
   298   3       2.038842337121388      18.391936574095659      8.1300888066479811
   299   3    0.045666172706882335      18.340330158424326      10.238715453346845
   300   3      2.0818194263233316       16.31246040596157      10.102420392095082
   301   4    -0.17182217787259291      20.038604952006597     0.19210172953336163
   302   2      1.9793684933799927       22.18489123234799      1.9918891507964931
   303   3      2.1329108130881975      22.417141543947821     0.08766725554443669
   304   3      0.1001468700092623      22.410063869428647      2.0560557495521778
   305   3      2.0796016409911866      20.311153884370547      2.0627682496754431
   306   4   -0.012721649933312864      19.934268294776285      3.9616737690099617
   307   2      1.9429662170112858      22.266848883294603      6.0816031573231015
   308   3      2.2575814298071206      22.428642738919724      4.0360804604043459
   309   3    0.076656511733370611      22.229715906409577      5.9641638256902922
   310   3      2.2913109634549809       20.37492266423596      6.0044330155249162
   311   4    -0.26174548549222404      20.273176332890582      7.9943410770389312
   312   1      2.0510894976082867      22.281515977866714      10.021470306807412
   313   3      2.1485613227958629      22.408009051712177       7.987309017823506
   314   3    0.030889066818419526      22.284913421470851      10.285282024316526
   315   3      2.0702421075100723       20.23671113185317      10.350906582711906
   316   4      4.2664563438803045      11.775387346494167     0.01265104291834163
   317   1      6.0424010796393945      14.172382541781076      1.9764399173660883
   318   3      6.3848841212821812      14.104411346864218   -0.062226921955149742
   319   3      4.0269237957285675      14.143741019516172      1.9331289859706919
   320   3      6.1301658146234397      12.147740474509058      2.1428752032418577
   321   4       4.324042990650991      11.996983058320755      3.7089103462515047
   322   2      6.0227342403766277      14.160578560146286       5.962358530921736
   323   3      6.0309840744038841      14.293650963933183      4.0977417959469262
   324   3      4.0901176658883829      14.235849590032794      6.2967435165459751
   325   3       6.070441828181413      12.232801434539022      6.1028536802724149
   326   4      4.0043320590376954       11.85600299759429      7.9291567925888087
   327   2      5.9605125070692919      14.086330520202864       10.06340362611253
   328   3      6.2518795176150865      14.204750723579865      8.1727630165887746
   329   3      4.0524808948160178      14.352472809899849      10.110901693576276
   330   3      6.0114733122768227      12.215527483133929      10.230975280079122
   331   4      3.8211124746648535      16.268976941017918    -0.30720155211362071
   332   2      5.9933267470994975      18.150258405274606      1.9744349644992567
   333   3      6.2506306655229471      18.327605235968221    0.043624524529405538
   334   3      4.1089280088559619      18.256425490632473       1.936053635624013
   335   3      6.2654674775317627      16.261672529959192      1.9653516096659482
   336   4      3.6673534740629909      16.429127491737301      4.0103533167986596
   337   1       6.105101891783498      18.210214696163359      5.9928531030679686
   338   3      6.1335549566741472        18.3831715367489       3.959110683363233
   339   3      4.0981634213427176      18.293644219959734      6.2069192867843155
   340   3      6.0980706707380348      16.185559359822641      6.3003183600258978
   341   4      3.9865719363521368      16.340184466462738      7.6547007269169924
   342   2      5.9879768513757838      18.117279585662498      10.164672918997194
   343   3      6.2394966351147803      18.395330697658551      8.2323642481324857
   344   3      4.0847159247559359      18.388379392550505      10.125075206552593
   345   3      6.1656125008797265      16.245533251552867      10.097060185132802
   346   4      3.8548378576976265      19.987085248070905    -0.23099068359982139
   347   2      6.0596557246847604      22.266208159205163      1.8739256473538328
   348   3      6.2284214227593884      22.364176670114464   -0.014262448334945436
   349   3       4.167166770718465      22.381577339951019      2.0400834146968512
   350   3      6.2406640229281258      20.328726955991463      2.0435023274917041
   351   4      3.8484637452304207      19.908572862136769      4.1249795713266346
   352   2      6.0726407743355688      22.267979270955657      5.9341053345982528
   353   3      6.1840844561679447      22.335189801390076       4.046833479414726
   354   3      4.1754028051176046      22.492222340407643      6.1233715797482482
   355   3      6.1075817933006826      20.351152258457674      6.1943459799501719
   356   4      4.0054479555793945      19.977140020621022      7.7700248304147728
   357   2      6.0441283828010439      22.239682866194944      10.004695687752802
   358   3      6.2001859613432453      22.338403425547451       8.126102622084991
   359   3      4.1248085614081109      22.301419974392068      10.200624931364278
   360   3      6.1412841079255589      20.304346832228159      10.290208378758452
   361   4      7.7206904323837753      12.006363689066317   -0.035675590343164948
   362   1      10.105047158795612      14.133808901917691      1.9857873737663276
   363   3      10.022155446103874      14.284544885966843   -0.055035011484435944
   364   3      8.1147644805941965      14.237745302001727      2.1978477068915954
   365   3      10.207049983699335      12.083684630871618      2.1781096326290088
   366   4      8.0140695904502923      12.203119707297502       3.565917528194674
   367   2      10.109796778982254      14.086422913820389      6.0546736963711174
   368   3      10.184713932980344       14.31488739036155      4.1551090206714481
   369   3      8.0984776796437057      14.335990349751688      6.1091149574726069
   370   3      10.156282298153259      12.219653502053148      6.1649938934812818
   371   4      8.0954761143354315      11.818181083194558      8.1417176576944712
   372   2      9.9630216107389131       14.18403654141613      10.145710180020998
   373   3       10.04243330259232      14.305539014041081      8.1748747448259653
   374   3       8.080498020151655      14.251941596080409      10.310118225408724
   375   3      10.257465717410019      12.273333060762194      10.150717281092733
   376   4      7.9312822890359067        15.8546146554014     0.10099950313984461
   377   2      10.167935096784003      18.138852188806165      1.8954286331989545
   378   3      10.104395523831778      18.314984955759915    0.017340084833883655
   379   3      8.2001641173316315      18.403882173166526      2.1053478606052947
   380   3      10.087000763695491      16.282071755164822      2.1241731939038044
   381   4      8.0541054811145152       15.89290292532919      3.7497862861513505
   382   2      10.119484075184836      18.174635302119444      5.9324337813571741
   383   3      10.204260338079987      18.396841038316317      4.0673528590438703
   384   3      8.1736898333702239       18.40125932102811      6.1542701388723557
   385   3      10.068106871157621      16.292867869916467      6.2207539076247107
   386   4      7.8885326929507045      16.142518907768174      7.8289157136786622
   387   2      10.041016089527462      18.196444530960576      10.065604858674407
   388   3      10.047064221411199      18.302373239581499      8.1870332687126623
   389   3      8.1414857099115761      18.397561125556248       10.29058508702154
   390   3      10.173681794679188      16.274436812188217      10.262171808159126
   391   4      8.0154460521332691      19.856139818751682    -0.31141840044863173
   392   2       10.12528508635782      22.224880919676902      1.8693105433393826
   393   3      10.176858275495823      22.435044772872256    0.012518550073725416
   394   3      8.2005296262513063      22.307969953654684      2.1799648151294018
   395   3       10.23209899124894      20.329422564073386      2.0605219549909508
   396   4      7.9165040137201199      20.035659106262631      3.8278362791910436
   397   2      10.082332226718664       22.21110781892887      5.9612036883188431
   398   3      10.230327292969475      22.260030757702161      4.1073798809875841
   399   3      8.1394041523979848      22.207594655947037      6.1573419841975818
   400   3      10.241528711067838       20.28549616855766      6.2656827993788786
   401   4      7.9326452689048415      20.055898061276871      7.8573286426457862
   402   2       10.08620263091805      22.236818613669552      10.081850745742448
   403   3      10.030754477723137      22.426887061814153      8.1672478288941939
   404   3      8.0896899903849544      22.261949656087374      10.371751366401771
   405   3      10.224915648308395      20.262797423487385      10.248765949112387
   406   4     0.26814136123626026      11.933393109085351      12.176096000226519
   407   1      2.0102999595833766      14.133223512860635      14.102432310822591
   408   3      2.0424009988877767      14.398570690892395      12.051901043973919
   409   3   -0.026379068909147606      14.215651393110976      14.135084569965786
   410   3      1.9520993216140747      12.097718547246034      14.042396153347884
   411   4     0.11245010771717084      12.333293736446965      15.780652564951515
   412   1      1.9086479797980644      14.178935834768083      18.198875139163757
   413   3      1.8421823143693468      14.058500778038761      16.181238280133549
   414   3    -0.10647888611711949      14.136931864552194      18.513682300052587
   415   3      1.9981593895062393      12.118903088917284       18.35891316144026
   416   4     0.14142320510663481      12.119527176371827      19.856618716642988
   417   1       1.978294715614483      14.113506405464108      22.320110674834858
   418   3      2.0941948888330071      14.256487165401388       20.29887830024245
   419   3    -0.10567299651656867      14.382969262831075      22.275598204451516
   420   3      1.9822539968943542      12.092795369913391      22.347535800082849
   421   4   -0.041064225570938945      15.780145164788193      12.270087383852095
   422   2       2.056178393238469      18.153258354348754      14.079272824609339
   423   3      2.2036755618555914       18.27108188462001      12.197711489512916
   424   3    0.050048246056254422      18.435585330428449      14.096385417598677
   425   3      1.9020897615718004      16.263614446290553      14.276512660894779
   426   4     0.12920574778745633      15.796807970751097      15.910689448575615
   427   2      1.9489063989510405      18.108294068340957      18.127700480638865
   428   3      1.8793549361093236      18.354132696489813      16.249815526844955
   429   3    0.073933329398648218      18.304095444023279      18.472771663630024
   430   3      2.0428452425887262      16.229471162164533      18.279895156756947
   431   4     0.13377266055146769      15.778550485743535      20.261223653196048
   432   2      1.9290079694824416      18.246390633265747      22.251522538272123
   433   3      2.1874974483730121      18.265151781066702      20.272502623577136
   434   3   -0.020005668920785501      18.303001034049284      22.201387091178045
   435   3      2.0273712996091318      16.266401761453213      22.360336577501808
   436   4    0.014465234993234894      20.411314422669527      11.807430534500881
   437   2      2.0388224340899117      22.199051325915576       14.11275879359194
   438   3      2.1334820922373829       22.32584996280946      12.244556481527743
   439   3    0.079343697262360957      22.296741536796638      14.310851648840046
   440   3      2.1144317469914933       20.28873383324142      14.275430348264424
   441   4    -0.23243731817543128      20.175326589664863      15.944576622184131
   442   2      2.0251525057428115      22.173422218472055      18.230842015580592
   443   3      1.9785351583067232      22.379975147535237      16.319584307669309
   444   3    0.042673587450116318      22.403355050959732      18.421195094514232
   445   3       2.044957940768783      20.301279170970194      18.392419713144676
   446   4    -0.17915444029208177      19.984575780919176      20.104620835805047
   447   1      1.9994614205498649      22.232688408928954      22.275578443230863
   448   3      2.0936349143554454      22.562867441816607      20.246557679854842
   449   3   -0.045068395784467377      22.489393707306863      22.278777532650071
   450   3      2.1917283533779033      20.223957780609165      22.305585396058866
   451   4      4.1981342168061433      12.034457147595074      12.596406423717159
   452   1      6.0067975748965292      14.132340080323052      14.164148354108306
   453   3      6.0113779767706204       14.36408344329843      12.093051945571947
   454   3      4.0003506339290302      14.317322823191907      14.150295423503819
   455   3      6.0882824743930861      12.116973497132163      14.055788643895491
   456   4      3.6343445056326313      12.487680774864661      16.447403211357084
   457   1      6.0315594643913677      14.158444879213731      18.270633612504643
   458   3      6.1500109245219701      14.168241540265681      16.217265764463903
   459   3      3.9891935145452244       14.06176431557444      18.247427836804825
   460   3      6.1774854533785373      12.096823886618155      18.239362644493813
   461   4      3.6786765483845554      12.393440719204143      19.950836384561672
   462   2      5.9196021299769734      14.149550679422044      22.254126003262048
   463   3       5.961619927718953      14.113379011851524      20.308439996827438
   464   3      4.0529138476117668      14.278093017312266      22.475977370598883
   465   3      6.1920012145032297      12.168398761481386      22.299125196356229
   466   4      4.0089304368333067      15.818776182915762      12.316195431275903
   467   1      6.0054687752243421       18.23479481154493      14.160394046348834
   468   3       6.146744422105253      18.304599237644332      12.123837143172127
   469   3      3.9632077045279459      18.204605444106338      14.440286922654327
   470   3      6.1484019673196615      16.227806996369512      14.310499656678759
   471   4      4.2416861880101537      15.879332770360607       15.89881288638767
   472   2      6.0552149246949467       18.06750729209632      18.269922969766352
   473   3      6.1000953102217732      18.442590358340453      16.293787652411865
   474   3      4.0121406429091078      18.374248589370325      18.221328327119398
   475   3      6.0135422639865572      16.214259502511499      18.170473323774928
   476   4      3.8276835238915092       15.81117837082618       20.00695730369447
   477   1      6.0551614595041707       18.15543469323373      22.273167260886471
   478   3      5.9731615436087457      18.329563845547348      20.214762816105328
   479   3      4.0365233896193882       18.20707392588503      22.450707317694587
   480   3      6.2951460151737324      16.113493534691635      22.336564434384357
   481   4      3.8901206945534357      20.297496713250581      11.839357921424966
   482   2      6.1762155811356081      22.256035593781025      14.085617324578731
   483   3      5.9719579020362161      22.347021676800363      12.202822496897225
   484   3      3.9990825576845572      22.437903699942222      14.414332733688582
   485   3      5.9203367096242507       20.33175391212184      14.286097820328459
   486   4       4.203926443572982      19.998111308851264      16.024904239071788
   487   2      6.1152172739912496      22.222223120164777      18.180295355902448
   488   3      6.0596058094983949      22.309740267829003      16.274492834766843
   489   3      4.0527792077422093      22.471621831626425      18.326661575547401
   490   3       5.948610907082557      20.335890523475268      18.306930860297488
   491   4      4.0571705144897967      19.878930865295025      20.277083261070601
   492   2      6.0169733400713605      22.231545703649374       22.18335810460799
   493   3      6.0397664172654419      22.453068855009537      20.273344148375919
   494   3      4.1235084514813778      22.473591581081944      22.372029836025877
   495   3      6.0348403361016931      20.333600858018098      22.328106440545653
   496   4      7.8461650095903108      12.238663925829021      12.544777992406591
   497   1      10.098796430125544      14.180841246356453      14.185968155260881
   498   3      10.380797534576278      14.218830454070872      12.100983362630874
   499   3       8.090054980527503       14.18637803063875      14.052987530730013
   500   3      10.347302746714448      12.084618217191865      14.159585777028504
   501   4       7.551121858225482      12.249375694373729       16.10554506696047
   502   2      9.9551273329098642       14.18286575402623      18.189106041446628
   503   3      10.114424288655266      14.060405083636903      16.254422227552691
   504   3      8.1161536837048729      14.142608464751875      18.358740547478146
   505   3       10.31607595168497      12.133157991527145      18.241574348719162
   506   4      7.6937093549481723      12.097563285774038      20.284738557497864
   507   2      10.127772361190216      14.058043185673888      22.365255270359196
   508   3      10.478287322333211      14.069216178165821      20.168949986499285
   509   3      8.1837829353197709      14.125908714907906      22.016022994921851
   510   3      10.296649041076018      12.118750217462106       22.28151779861513
   511   4      7.7657411118758635      15.962913142922872      12.482115786734443
   512   2      10.006702046201617      18.235566413220027      14.223198213362595
   513   3      10.312980848351014      18.315916852768162      12.192184022311642
   514   3      8.1119475115153179      18.400392866174183      14.195430107928193
   515   3       10.16147367889587      16.274997380243491      14.077354952295849
   516   4       7.770915184410188      15.813161638863525      15.958823547091303
   517   1      10.037750554573915      18.135088744480921      18.231127243677111
   518   3      10.150374191399541      18.224547632081787      16.180589507017402
   519   3      8.0073632920664988       18.41777250447609      18.264962273690706
   520   3       10.30200054027376      16.104296100368874      18.254285417732522
   521   4      8.0577002373322486      16.253384973915256      20.685114899418512
   522   1      10.150855695949465      18.160098071538478      22.263686040037904
   523   3      10.209943977542213      18.382018302018874      20.221616983446562
   524   3      8.1145942300287288      18.351906400960864      22.142812870995304
   525   3      10.073098457270635      16.114602064651898       21.97788363719534
   526   4      7.8548470760142637      20.072742382205153      12.112427526405705
   527   1        10.0504598787787      22.265729810830898      14.204658564213123
   528   3       10.37355788239431      22.213321524485544      12.175302639411612
   529   3      8.0309421153969129      22.225832642582809       14.19786171651074
   530   3      10.363743481669859      20.195301326344634      14.220795195762017
   531   4      7.9603242770952134       19.91214268296784      16.239354331924307
   532   2      10.110114264358636      22.253309943159053      18.086091461998347
   533   3      10.091691997423691      22.490755246298363      16.240614161341089
   534   3       8.098402822828719      22.252074443388132      18.333060834506405
   535   3       10.22748884652832       20.33698753350706      18.108624490541697
   536   4      8.2411037440167316      19.788520506543438      20.302669971662905
   537   2      10.057098804751854      22.218501140497345      22.152652652587271
   538   3      10.241658067452235      22.325382492706165      20.279755764547662
   539   3      8.1500127542466156      22.290234883427669      22.284984107451365
   540   3      10.258424570712961      20.360401475506961      22.369100079666243
   541   4      12.280997828204056    0.058170174689016661    -0.34967597148965934
   542   2      14.114561994189412       2.119880218564441      2.0121636020489237
   543   3      14.318587148888323      1.9253323710337633    0.098600602355408365
   544   3      12.149050157457296      2.0786416965994756      2.0622297992560346
   545   3      14.135765612239641    0.026041383856761594      2.2633056445961199
   546   4      12.474696627165342    -0.17586403186672875      4.0883945802371704
   547   1      14.097101592032423       2.002569975083623      6.1212250036468836
   548   3      14.081030203966286      2.2457058127312535        4.05706659129351
   549   3      12.072921545201371      2.0286332178180362       6.140624521938773
   550   3      14.284447770527779    0.003822431227592201      5.9923263263518178
   551   4      12.278206363479034    -0.38218445410141855      8.1000940461845605
   552   2      14.023520392170811      1.9460742789032623      10.181010618319423
   553   3      14.436075068875368      1.9007916569162253      8.1543047235529382
   554   3      12.137500942749391      2.0008267685980483      9.9632734261974711
   555   3      14.348635419150389    0.020072417038324984      10.257861824508941
   556   4      12.162096529938376      3.9306285109864687    -0.23221820151389005
   557   1      14.140550928829645      6.0597743739970049      1.9983025910317875
   558   3      14.217053151521492      6.4242179269281952    -0.02141667750587143
   559   3      12.082552704406169      6.3321516536771734      2.0240746056332326
   560   3      14.146202765610658      4.0266391674036548      1.9800478043846534
   561   4      12.104922144482231      3.7839925749351777      4.0632551078907415
   562   2      14.089076566956503      5.9586048434506091      6.1416900050965895
   563   3      14.087562018265443      6.1434819588378922       4.160297011326179
   564   3      12.145420906331173      6.1980873266252212      6.3090447251894899
   565   3      14.222513397027946      4.0733734713264447      6.2004467221951893
   566   4      12.073148688924302      4.0557347161793977       8.434000206227612
   567   1      14.147345271677194      6.0603009383284627      10.132417244676416
   568   3      14.337196144706146      6.2548096108839291      8.0776218158871806
   569   3      12.119280906015383      6.0123782553974658      9.8443073570694271
   570   3      14.167921223313943      3.9908104183528388      9.8722882404958447
   571   4      12.311971609636055      7.9310394149475005   -0.029491397416399927
   572   2      14.283010917015362      10.100762317140322      2.0227001597892502
   573   3      14.124161080981414      9.9623556656158421    0.089463887886253604
   574   3      12.120311869050107       10.03113386318484      2.2104067887598382
   575   3      14.185223877274693      8.1667349954390538      2.3141932047591074
   576   4      12.148616873123565      7.9000059530200462      3.8002519769296494
   577   2      14.006614880473723      10.132305216081935      6.0661773853559193
   578   3      14.117479067376914      10.277492370818033      4.1471274423369895
   579   3      12.135303249155948      10.237637496243078      6.3038390066747461
   580   3      14.236022487747462      8.2036940202268394      6.1235050740479569
   581   4      11.977617203722545      7.8300994522239993      8.3108028118878661
   582   2      14.129003112225313      10.016056183826999      10.125851882540106
   583   3      14.399180343526986      10.217741437013766      8.1379719498829566
   584   3      12.219145138230168       10.28020398574381      9.9428736146990886
   585   3      14.151256554710814      8.1509771914237295      10.155308718548062
   586   4      16.130262197940986     0.17467577684870317    -0.50238750765676188
   587   2      18.103074179428397       1.959464794868623      2.0451821270876547
   588   3      18.169690160241032         2.1531167826724     0.11262158320758174
   589   3      16.206823506332324       2.129423755863435      2.2472043857203197
   590   3      18.232044105996454    0.064773947741006449      2.0773977537659727
   591   4      16.046890379057899    -0.18545064780542608      4.4362187527013104
   592   2      18.143739514171578       2.014900450226234      6.1732552164709862
   593   3      18.458738727023906      2.1490397447646612      4.0179926341915975
   594   3      16.237645270722616      2.1416382693944289      5.8628663783239547
   595   3      18.105900507944209    0.049135756392124801      5.8169585216266197
   596   4      15.773524006462443    -0.10002120804637242       7.942572379283904
   597   1      18.180478292281702      2.0206946520969944      10.097618585573942
   598   3       18.19592713785638      1.9888664178847297      8.0703012925694555
   599   3       16.18297620044827      2.1458193707845878      10.319724227771129
   600   3      18.207742201539137   -0.071394968153130053      10.305389154571971
   601   4      16.123223059954629      3.8233406146320812    -0.31674497289245673
   602   2      18.058858647371455      6.0663321659637717       2.042664478142548
   603   3      18.228343158552001      6.1319314149753223    0.086042967564374448
   604   3      16.195802617630942      6.1144122427771572      2.2204983712636253
   605   3      18.350768183506904      4.0860027617011143      2.0889562505214383
   606   4      15.896086036124984      3.8652251702722409      4.1951968106622735
   607   1      18.137812820763358      6.0677152323113575      6.0608016862298557
   608   3      18.451305873542974       6.066067484485349      4.0362500054405919
   609   3      16.116673613493429      6.2551035001721935      6.0052728529686563
   610   3      18.430776742250938       4.004063623447089      6.0750281870373097
   611   4      15.887589101466356      3.7804553538184407       8.276782849758975
   612   2      18.077158304683575       6.085599661835241      10.018619255616922
   613   3      18.227492745858118      6.0850700373052922      8.1097652259884949
   614   3      16.226958421592357      6.0174347980037304      10.182603756678514
   615   3      18.428582118396236      4.1006445311457584       10.09090953720129
   616   4       16.00301685546119       8.058330180903214    -0.21917264057603941
   617   1      18.159582063046223      10.106957789743445      2.1022445817121103
   618   3      18.282017840906953      10.196354926123743    0.059250411418786113
   619   3      16.151669826026193      10.234660338493422      2.0588474359489366
   620   3      18.379852972515529      8.0429896161775947      2.1316095586451418
   621   4      15.930438025706959      7.7967959997482073      4.0775639528772105
   622   2      18.078015545084845      10.136492222702316      6.0621190769866065
   623   3      18.468029176908697      10.129811932774555      4.1081376924669586
   624   3      16.184227592440976       10.15722874946006       6.031719119728181
   625   3      18.343403899985216      8.1377561667460068      6.0504325968823203
   626   4      16.011014996058133      7.8763254353331291      7.9179317304414578
   627   1      18.167050330856885      10.146506334400666      10.054120302618728
   628   3       18.27623714986807      10.101702662343996      8.0559678503154899
   629   3      16.153218807047981      10.176191317359068       10.41144574073147
   630   3      18.316465986328911      8.0288681398586466      10.225581655861708
   631   4      20.115472631774722    -0.29294203499642862   -0.054987981773171782
   632   2      22.156394611461167      1.9493617077395664      2.0496993743425431
   633   3      22.504026341722355      2.1194439233095808    0.070237289921365062
   634   3      20.275899103346038      2.0892184602114328      1.9138617456754798
   635   3       22.38662123606731    0.069747445060876753      2.0862762917715871
   636   4      19.994312244295983    0.044970921438582008      4.3487757022238833
   637   1      22.219978615298576      2.0175690340597843      6.0198646157702091
   638   3      22.318494956267525      2.1400647015329057      3.9880981156255735
   639   3      20.205557112953198      1.7864019947987613       6.121541763275979
   640   3      22.511758315551539   -0.036751594722247899      6.0157893956752799
   641   4      20.381060325142307     0.49680574345115597      8.1936342703741865
   642   1      22.296179675322289      2.0166765184684365      10.103807063474406
   643   3      22.424237069446043      1.9180806451869032       8.064040995933583
   644   3       20.26315165924046      1.9004729398835456      10.092725214713084
   645   3      22.432352140684618   -0.045808712296544492      10.090994004628357
   646   4      19.941336351801823      3.9343507173636252    -0.08966550320689938
   647   2      22.181483478450151      6.0463591085347712      1.9934974625715998
   648   3      22.497465787573425      6.1559235503595886     0.10187842291041707
   649   3      20.321170712663985      6.0656095468943318      1.9898674569407737
   650   3      22.476987736290877      4.0965220718164694      2.0074203292845989
   651   4      19.914112072466448      4.1055021674823955      4.1496067044653433
   652   2       22.17814810231468      6.1037456027816432      6.0700021985492381
   653   3      22.268353151867458      5.9480627562918746      4.0728353870973493
   654   3      20.307829075463466      6.0836401248538206      6.2469924794125253
   655   3      22.403218283687405      4.0834181665008522       6.128400606572777
   656   4       19.92236155143085        4.15485231977393      8.0485643659104635
   657   2      22.222642961728049      6.0087191767206516      10.207977567883802
   658   3      22.611304858269047      6.0668669000881152      8.0521642054129572
   659   3      20.335985215967842      6.0807070188450831      9.9112917368432125
   660   3      22.424285013645775      4.0759170110117857      10.044796906369049
   661   4      19.788658146148109      8.2744345853465582    0.036516003484029329
   662   2      22.241571181357546      9.9968106812260817      2.1043774245619473
   663   3      22.504563407799036      10.127955414780777     0.10094403650064003
   664   3      20.351334016902538       10.18430239909382      1.9735481758192299
   665   3      22.391319343863895      8.0867416452137793      2.1433724847299418
   666   4      19.847431914357443      8.0872187790023027      4.0828946513900775
   667   1      22.269905237855916      10.083453864476892      6.0462187064667292
   668   3      22.326857052977132      10.286226963108872      4.0075159582021662
   669   3      20.254734937960709      10.119943283782897      6.2662575445467068
   670   3      22.465264257745133      8.0246535187681047      6.0152817348145717
   671   4      19.971247574385927      8.2685940317852467      7.8762727022304686
   672   2      22.322115309153268      10.041120083687952      9.9621135615640366
   673   3      22.451542405056589      10.156166977960554      8.0953633365153514
   674   3      20.376209032343187      10.072300214077012      10.052009957295304
   675   3      22.453984552356555      8.1034812709234636      10.047967669123409
   676   4      11.755452218912133    -0.17031815021062374      12.066535325712119
   677   1      14.146961329255571      2.0222751854687728      14.123475099066017
   678   3      14.108795400939648      2.2772987846090236       12.10079218638408
   679   3       12.15381223339706      2.0101636835644388       14.45528815888377
   680   3      14.354732000666136   -0.019518525624678831      14.176308457193393
   681   4      11.955381138100044    0.034780979090645016      15.864108138910684
   682   2      14.214494423825062      2.0434875003104911      18.156860758412538
   683   3      14.456284608474826      1.9302380596670778      16.228329006186609
   684   3      12.180943007588539      2.0072510900697185      18.226174629574722
   685   3        14.2552732793175    0.038033608604729909      18.379440011953005
   686   4      12.275282393169443    -0.18287782047335635      19.894891906074935
   687   1      14.145628600097428      2.0325177287888851      22.193143661718501
   688   3      14.110403960013493       2.275644946100984      20.202083529142481
   689   3      12.127578163842472      2.0910966087575815      22.556004784595888
   690   3      14.205638425542441   -0.024789425056780143        22.3415894853491
   691   4       11.89504964745125      4.0268621648177749      12.149599845589396
   692   2       14.16036541025192      6.0553674625038783      14.011624551227351
   693   3      14.105542121655285       5.886935161106563       12.15381740546364
   694   3       12.25418018291686      6.2042954815380469      14.318478547424032
   695   3      14.161457743530969      4.1128239500996857      14.417572217333083
   696   4      12.124021846649732      3.9194734532909856      15.873386409929294
   697   1      14.203659247758084      6.0738842674120512       18.20409176173602
   698   3      14.378160448690956      6.2535889681093604      16.145784560229025
   699   3      12.138189499915494       6.284792358231174      18.213450327782038
   700   3      14.154557697299436      4.0350172122197758      18.071488169463425
   701   4      12.394559544663688      4.0251696318158432      19.922120308482555
   702   2      14.093582892169314      6.0495864225617391      22.219327099342383
   703   3      14.114271660143466      6.0063292608942378      20.313800444818209
   704   3      12.165297991034763      6.1589967536831249      22.469002366430139
   705   3        14.1326190625626      4.1338613184485204       22.53405053892574
   706   4      11.809343411043519      8.0710995938270944      12.147343321625266
   707   2      14.138132045200466      10.078767898911812      14.179527246907327
   708   3      14.042701273849001      10.319976884665577      12.125545925308183
   709   3      12.235979205561682      10.036258045304356      14.289243722694751
   710   3      14.387593800761309       8.112702742337035      14.055811911088039
   711   4      12.124744501021675      7.7296255069415629      16.178049811621758
   712   1      14.133645747703287      10.165057599339484      18.142974624782262
   713   3      14.483668583982473      10.109074249471167      16.089531465351726
   714   3      12.123582727452415      10.093740259824193      18.314828186181476
   715   3      14.323191889128163      8.1339222343436859      18.318330159114591
   716   4      12.313567930107096      8.0895061400371588      19.771802643272665
   717   2      14.167248495814947      10.187290899706596      22.126713233862926
   718   3       14.26323402237726      10.227531879636178      20.258269184782161
   719   3      12.209864103359871      10.046163842833202      22.364481862497541
   720   3      14.296747517169043      8.1183785921403206      22.232110298596091
   721   4      16.150806882900863    0.027750972322448664      11.813845160870642
   722   2      18.101080374775194       2.021421289820188      14.246193987023135
   723   3      18.501201519055702      2.0734599116289383       12.21809419019001
   724   3      16.243314965835744      2.1394555794990806      13.989975056522363
   725   3      18.369348167688305    0.021126476326214207      14.172107167133477
   726   4      15.956354270866075   -0.021108146717707017      16.061844236285047
   727   1      18.238896619975609      2.0117103699278309       18.15154637093578
   728   3      18.132060885539904      1.9881089007070547      16.144556720267783
   729   3       16.19270681430627      1.9856833776370559      18.474154127435561
   730   3      18.287631051732198   -0.064278920232400824      18.438831119207531
   731   4       16.11393682866165   -0.017725454582754572      19.941435755437347
   732   1       18.25360997682645      2.0145569885424912      22.319469513595791
   733   3      18.379893247548175      2.1321111764549849       20.29407043284208
   734   3      16.200302006322936       2.153954756528011      22.326213526783853
   735   3      18.305654371998806   -0.028963885299827085      22.298043251882074
   736   4      16.002861533835055      3.8150927246201305      11.981318501951629
   737   2      18.231503696521237      6.1028294347193981      14.027640569355091
   738   3      18.437376177328787      5.9669635971552166      12.122162282751939
   739   3      16.279387795065372      5.9164827217899019      14.124318793811048
   740   3      18.454108281926334      4.0256926006292986      14.213491279423266
   741   4      15.844556166705365      4.1331836817534011      16.118337016587027
   742   2      18.170840203089657      6.0041241982392943       18.10490989137416
   743   3      18.186621976370109       6.093283482221346       16.21054081207161
   744   3      16.293065109644424      6.1980073126560251      18.327525790213162
   745   3      18.290870448074926      4.1195349600153328       18.32334824704202
   746   4      16.335735539952697      3.5327515306159647       20.28651630071051
   747   2      18.147534224340824      6.1069789075676182      22.191913904284242
   748   3       18.36336433915039      6.1060335471860299      20.314219613724024
   749   3      16.213877238808298      6.0968389982520446      22.370688032658418
   750   3      18.274485403519776      4.1536495785302039      22.459125796561928
   751   4      16.403360407482406      8.4670647380658206      12.120770115218626
   752   1      18.202235696752368       10.13143739109641      14.157630208742409
   753   3      18.459090927757373      10.077131916894118      12.109280643990537
   754   3      16.181803149652168      10.195340344276994      13.791517524909903
   755   3      18.264472294028714       8.022020852743367      14.087695249084561
   756   4      15.863795195704007      8.0339118811420125      16.340646029568806
   757   2      18.200154879846828      10.131089896835109       18.07810892831472
   758   3      18.216401872534039      10.107389087654935      16.198610240760452
   759   3      16.289393804045286      10.097951450753506      18.354964885245355
   760   3      18.332702270632879      8.1073979614056402      18.355274790149402
   761   4      15.992113562849774      8.1670495486663448       19.92138472023667
   762   1      18.208877165470245      10.081614219637284      22.238936466505084
   763   3      18.458991651983016      10.113952647792992      20.239879266312901
   764   3       16.14281641570285      10.119933242650696      22.496313617082606
   765   3      18.317708044043968      8.0446826873774526       22.41255368909378
   766   4      20.065453773862735     0.25856138725225997      11.840160358516453
   767   2      22.299159095388884      2.0179540801503331      14.020283400986866
   768   3      22.220000410911734      2.0672664157488954      12.167130743958133
   769   3      20.349764254159705      2.0013249894970055      14.394540835572279
   770   3      22.343470859001886     0.08290215466882811      14.385508499073749
   771   4      20.285272142093458   -0.071784625041115588      15.848019665497356
   772   2       22.23411007052864      1.9420349848156413      18.190174330914488
   773   3      22.466525974583519      2.0951478775433632      16.321422224546811
   774   3      20.339986176493163      2.1354743743754612      18.288161288085206
   775   3      22.310486385038839    0.049453078429907718      18.366947761620398
   776   4      19.815561453664262     0.13300018769558661      20.266701159318956
   777   2      22.225816192652324      1.9884757141193155      22.245829761355019
   778   3      22.218661833741173      2.2074591575538816      20.354155504341339
   779   3      20.343183429258382      2.1769257035625613      22.502906321474732
   780   3       22.31284555416622     0.10664335316787699      22.343685385388493
   781   4      20.032080265475397      3.8268590003644252      11.833856482183263
   782   1      22.236301937671424       6.067922727749429      14.094608711613668
   783   3      22.251415974750952      6.0863833926975444      12.082801979766884
   784   3      20.215728392222687      6.0947370510181811      14.433716688394428
   785   3      22.250100472818996      4.0019752493868364      14.409583210903602
   786   4      20.274245428705004       4.082916618293142      15.841954799346198
   787   2      22.211427104476634      6.0819416135091968      18.167746397249054
   788   3      22.409665671630535      6.1205524303677974        16.2867311792035
   789   3        20.2703409400258       6.135311444529477      18.263291600593377
   790   3      22.367211032221427      4.1188417379396487      18.345388289844106
   791   4      19.986385547979122      3.7951879621489653      20.086278358876587
   792   2      22.148507983244883       6.052216590697701      22.243422340363583
   793   3      22.226264576247857      6.0907568707106137      20.379642116446345
   794   3      20.274391838725123      6.0843885400308517      22.512008064563247
   795   3      22.392195844044284      4.1435323548753216      22.511379089753003
   796   4      19.998581120538741      8.3614981497077636      11.914305426360238
   797   2      22.305839910487581      10.098780526802992       13.99960924699001
   798   3      22.225694106748737      10.131679327518029      12.107641433084931
   799   3       20.33076375223493       10.04981530136606      14.316534005946835
   800   3      22.344550695728959      8.1475294224583994      14.343196287062554
   801   4      20.267317816830694      8.0970115682413031      15.780975395932751
   802   2      22.314950048914618      10.140174375284396      18.090925652630233
   803   3      22.357967003518375      10.109739183548191      16.236029362516636
   804   3      20.301924904310621      10.124563016438508      18.286952796966609
   805   3       22.29869346980318      8.1263813043282696      18.383960157419388
   806   4      19.979351463910429      8.2959619065128578      20.104403871571733
   807   2      22.229412050521095      10.037525318474291      22.237195711170006
   808   3      22.219069004352249      10.130431567402262      20.366841257948259
   809   3      20.353851309748865      10.107656277393982      22.502098416195203
   810   3      22.386766323873662      8.0925073811159738      22.460648318508365
   811   4      12.521994273826104       12.29476426548062   -0.063591455925828558
   812   1      14.173394005184482      14.087750225332767      2.0289765069482901
   813   3       14.12873335413088      14.276624093940066   0.0035653757372576559
   814   3      12.118029870557772      14.281180860095287      2.0433758247177494
   815   3      13.919277094030569      12.072549382148139      2.0186513080466688
   816   4      12.090339710285024      12.178822566404612      3.6535817999341242
   817   1      14.050986095204745      14.147838842236094      6.1480295834301693
   818   3      14.159556129206821      14.199400424911568      4.0770235851690462
   819   3      12.045461676602876      14.396456822678285       6.210594709754659
   820   3      14.328486065020314       12.13170760238741      6.2024985451717605
   821   4      11.846781125538879      11.933252408967235      8.2475639464704269
   822   2      14.039303080021766      14.218427236710781      10.168666119949981
   823   3      14.396222362049151      14.252506910747266      8.2005258636321123
   824   3      12.178299428455929      14.303917852592106      10.031979143248105
   825   3      14.314617296498433      12.266882316932596      10.070517068748904
   826   4       12.29360504674232      15.747559315253966    0.089750073211794956
   827   2      14.268090027381502      18.146552150065034      2.0859497240623366
   828   3      14.208255585531564      18.371268261837447  0.00032583514509676242
   829   3      12.144993687383122        18.3573841506389      1.9695320462700416
   830   3        14.1544472244872      16.259412728017931      2.0296608142476935
   831   4      12.232553697036719      15.749282808162409      3.8464274796362097
   832   1      14.129172372013116      18.232142647084249      6.0428471954308103
   833   3      14.092262723584019      18.412197987183866      3.9876779356157783
   834   3      12.068472644576813      18.246242354027707      6.3262279513779207
   835   3      14.256283142511924      16.225704858893884      6.1578447318478133
   836   4      12.242658515679461      16.211679598783718      7.7203419131124029
   837   2      14.049710707615681      18.255620965009445      10.059982637592446
   838   3      14.268180581263307      18.176794201606267      8.1850631259775994
   839   3      12.158838638234407      18.229905733349728       10.12544485720926
   840   3      14.329264019154396       16.22209967518959      10.224003202652206
   841   4      12.196852768044891      19.962615775357452     -0.1736423572918922
   842   2      14.237925701591834      22.320467213087323      1.9069512890812146
   843   3      14.180616322055837      22.433985801282372    0.016007009624889816
   844   3      12.138761900945724      22.411619285789843      2.1281780511477293
   845   3      14.028258096532108      20.351661492227503      1.9824519825642066
   846   4      12.347609455122893      20.258561895833296      3.8291504433479271
   847   1      14.094122875670669      22.287429216850526      6.0790672540336832
   848   3      14.039319002283783       22.18653485190551      4.0298510705710182
   849   3      12.054993199062803      22.376347999117545      6.3102093939709976
   850   3      14.124925607933381      20.253995273899321      6.2133177770417811
   851   4      12.275142407152762      20.210091704219046       7.734484497651664
   852   1      14.097999080483778      22.248870671688714      10.178668080307354
   853   3      14.273840098224941      22.407198836867696      8.1503152538105592
   854   3      12.080416598991462      22.459758060204166      10.046546465110557
   855   3      14.328620882762731      20.176661704388362      10.178385485520126
   856   4      16.423480004775552      11.747657112420065      -0.113921405793765
   857   2       18.09562531006808      14.140345950529079      2.1189045562494799
   858   3      18.253774459302026        14.2692840047188    0.065310609264970357
   859   3      16.217109407813808      14.171281025853323      2.0928504588945258
   860   3      18.426249899635923      12.214491239000488      2.0565678510929093
   861   4      15.851608417331629      12.455630148431238      4.3501929718829659
   862   1      18.217650526141682      14.160872487976476      6.0939831670753275
   863   3      18.441761292680553      14.193344521112953      4.0399791526880975
   864   3      16.210055813531479      14.229232613652826      5.9729435681603436
   865   3      18.383099565201316      12.113055167777985       6.067795560680274
   866   4       15.85802246822786      12.237673281772842      8.0387075866707818
   867   2      18.123699292836864      14.114744135276858      10.080547699916048
   868   3      18.255636818762628      14.316629242531359      8.1626823470647878
   869   3      16.265422621058949      14.263021123908638      10.258844763618193
   870   3      18.355194880251084      12.221371174689853      10.147231562140055
   871   4      15.937210027187961      15.739086061417318   -0.040525195002828827
   872   1       18.15062470728537      18.162344021762667      2.0549144917137525
   873   3      18.211821262775292      18.380991621473388   -0.034705475884052671
   874   3      16.142580777390325      18.392896598785413      1.9644009941777638
   875   3      18.416195118125859      16.141384793435101      2.0707336803613927
   876   4      15.803273514539249      15.897975221437278      4.3665189619770519
   877   2      18.096228331356201      18.225405598423666       6.019175415468049
   878   3      18.481877771710895      18.262511947507733      4.1031245403450303
   879   3      16.233274315818811      18.335459613425133      6.0191800750489941
   880   3      18.353268166976086      16.290470005987206      6.1003440246535554
   881   4      15.922330981427155      16.023714548855075      7.8161761365578757
   882   2      18.127793668080567      18.208169182696881      10.102596229193443
   883   3       18.32473617161693      18.318111644527569      8.1076222937416382
   884   3      16.267789731014425      18.226488174163794      10.271694244724532
   885   3      18.425314752051221      16.272003006154907      10.133578160185696
   886   4      16.233863668144171      19.941160167704975    0.075555481269533112
   887   2      18.278641301328307       22.21034574500176      2.0753621891824734
   888   3      18.194297438943497      22.412772064456629  -0.0061212092273557573
   889   3      16.167370359182271      22.278507409887247      2.1114997831910807
   890   3      18.273567507198184      20.298157166347639      1.9371815856395105
   891   4      15.895193174000783      20.452402918037102      4.3550653409670508
   892   1      18.195828767000854      22.276404025607786      6.0770802064712379
   893   3       18.36030619251606      22.216958110607546      3.9883199281247759
   894   3       16.17935622533151      22.150002807425981      5.9431758169481057
   895   3      18.469871799231019      20.210048346868721      6.0541242531638666
   896   4      15.811942596183657      20.556598605584131      7.8642219360446655
   897   2      18.186508746986043      22.296044952106261      9.9559182294704911
   898   3      18.119749313626912      22.221733555750774      8.1081418853481981
   899   3      16.297743421467779      22.219763186477721       10.38660436179179
   900   3      18.358005366317812      20.267311812775283      10.201625209465211
   901   4      19.974969712511943      11.852016200340801     0.10105705357518412
   902   2      22.306092896290824      14.072489847512058      2.0245446321872427
   903   3      22.433379557080894      14.367441239220689    0.076560899072352251
   904   3      20.362162218372518      14.261589098111729      1.9608225668140711
   905   3      22.382211627053486      12.192767902034566      1.9721215912280203
   906   4      19.958794378046704      11.973473289273992      4.0637923048371478
   907   2      22.216274313006533        14.0662854329568      6.0336585908329221
   908   3      22.257133245757391       14.21485626838353      4.0957581684394606
   909   3      20.342787308272289       14.29662218472042      6.2319454182955258
   910   3      22.300928255516556      12.207798670541198      6.1579294802053006
   911   4      20.054743077319472      11.875380424515543      7.8699869569513528
   912   2      22.203839035321984      14.048526376364972      10.108589263577558
   913   3      22.488656667571767      14.363460878058032      8.0799674410147446
   914   3      20.332516339820799      14.289862100977119      9.9578717405569837
   915   3      22.321979366778145      12.171718313356358      10.079537646006461
   916   4      20.024120050559048      15.962397267068351      0.1586831627857285
   917   2      22.193679920629261      18.212865203811543      2.0131754124970764
   918   3      22.483447257557334      18.232135845771129    0.019842839414208936
   919   3      20.286517778962107      18.315865870877353      1.9147065042948899
   920   3      22.313886312788888      16.270010677733307      2.2000344732998127
   921   4      19.907866285400157      16.120324679525876      3.9881436397833911
   922   2      22.305963857153166      18.139146937974665      6.0609055260078923
   923   3      22.205487117625282      18.453338859158809        4.08253173966426
   924   3        20.3598456261231      18.306492906598582      6.2337300020173272
   925   3      22.411862547514144      16.264001584564518      6.0891521721447051
   926   4      19.993273891151581      16.007250439136715      7.9859595106605106
   927   2      22.231372205610725      18.156551767315996      10.134779728379607
   928   3      22.522543841498877      18.343056328773507      8.0934876136350837
   929   3      20.354960192148202      18.386594536633019      9.9734550310929908
   930   3      22.380541023598909      16.286610917333164      10.029685176044671
   931   4      20.005220688862352      20.038114386346564     0.14016763114333475
   932   1      22.228674627122629      22.240364914060276      2.0212512781469147
   933   3       22.39150986659342      22.467887171032057   -0.039326505652278479
   934   3      20.190492563647464      22.362980246241168      1.8368836370307349
   935   3       22.44199289415932      20.210560933933575      1.9012235766859045
   936   4      19.979315324116996      20.153612136340335       4.108444247367836
   937   2      22.117963486242186      22.293208108756499      5.9941700519767851
   938   3      22.335244124405129      22.302128877584554      4.0850415853927142
   939   3      20.253454309057123      22.448089643584812      6.0968690786892106
   940   3      22.247059385880107      20.342602009704155      6.2255331198997643
   941   4      20.044181552698724      20.144682667809686      7.9117150322887433
   942   2      22.212496637163387       22.29102043049771      10.168051322395891
   943   3      22.527228009440282      22.351923462686337      8.0554309098168826
   944   3      20.282057844885308      22.305712359921632      9.9860311933519927
   945   3      22.484518395578228       20.28995635268522      10.001572444925991
   946   4      11.792843245515451      12.115786742004239      12.143959121504931
   947   2      14.075229922870905      14.180078877946972      14.190023387397126
   948   3      14.148969798499699      14.170484326861279      12.169387119007233
   949   3      12.219740461668749      14.192661133931178      14.327575741120901
   950   3      14.286967565216866      12.166642854034905      14.225140871243914
   951   4       11.80319707317005      12.287210144334489         16.111582747278
   952   2       14.14684736708211      14.182280647097642      18.299468664442138
   953   3      14.534185013105636      14.168520837860846       16.12120067178283
   954   3      12.258428819175643      14.124518663005656      17.954086696280729
   955   3      14.459776161127794      12.189895093847307      18.075592178272622
   956   4      11.956273230216604      12.064187969179343      20.054333586887402
   957   1       14.18629240342443      14.129155932516493      22.210668306755441
   958   3      14.064234340931954      14.091678011299216       20.18457269979907
   959   3      12.117575406149646      14.302164891848655      22.395929511257364
   960   3      14.138921441790627      12.086357480154085      22.488620309624086
   961   4      11.782302674676407       16.18850170670504      12.290801383888049
   962   2      14.189107374993188      18.315817582378848       14.15772544128861
   963   3      14.208929782495265      18.181586689064737      12.173206758955248
   964   3       12.25037635198558      18.132937568148598      14.303359628721775
   965   3      14.338789698340294      16.142781020860692      14.148334460667289
   966   4      11.955689025763929      16.427634810589776      16.505222365861641
   967   1      14.189948905135539      18.191640673746956      18.196321805999659
   968   3      14.416942080051005       18.13574711124156      16.135204425094525
   969   3      12.166699461793204      18.292317124918895      18.055731594044008
   970   3      14.380943737858281      16.137433366010125      18.129538978045115
   971   4      11.795910379952002      16.091080293737857      20.387133924785967
   972   2      14.131383957795634      18.095809127722585      22.209370445370009
   973   3      14.187180925509326      18.349477707761778      20.304372272119501
   974   3      12.221021822185213      18.276809705293424      22.339353033792744
   975   3      14.289989174584452      16.243266921627143      22.317984756245643
   976   4       11.79514312540933      20.353473132937861      12.274090278319171
   977   2      14.101143790522647      22.387033596836147      14.138856921092115
   978   3      14.211951713634203      22.123953346829428      12.228200883139701
   979   3      12.231282686183279      22.357549675830768      14.325413424321988
   980   3      14.310251914849484      20.245010895962675      14.273564960139845
   981   4      11.981573440384798      19.992354310725215      16.384764882166515
   982   1      14.127314997480758      22.245276342731547      18.147652401783038
   983   3      14.519609773085982      22.316500264959515      16.132913955850618
   984   3      12.080524431502344      22.455249766293413      18.232329438095679
   985   3      14.407646879403551      20.238908409809543      18.124411784052892
   986   4      11.996316574550091      19.800426372981487      19.964835078147601
   987   2      14.100336162353313      22.226809626225826      22.124122163348677
   988   3      14.116348130401189      22.290604807131956      20.255487140791661
   989   3      12.170179870909333      22.449297333272078      22.384430416601308
   990   3      14.154752740684883      20.324694225808468      22.410033110124548
   991   4      16.066394446721201      11.951635091938495      12.127301050101115
   992   2      18.155885389587262      14.153049090113358      14.226317984117879
   993   3      18.544433630820674      14.230513940288374      12.074773122178867
   994   3      16.268074387977506      14.159030831304136      13.905828767458942
   995   3      18.452658450002584      12.197306986762015      14.056110812727132
   996   4      15.952933226851252      12.122175624923907      16.203122919608901
   997   1      18.244485079408307      14.152609825330437      18.140290092331306
   998   3      18.122156445465688      14.221364330480249      16.116365493570235
   999   3      16.246951339030982      14.182666452617429      18.471279259578484
  1000   3       18.23514022367776      12.090796621558345       18.35765356396988
  1001   4      16.202720882404922      12.181454335690441      19.868671325857154
  1002   2      18.187507005996316      14.057664462794616      22.234918203730778
  1003   3      18.408848938755266      14.169939346327139         20.355146325227
  1004   3      16.287449398447929      14.243485548770703      22.323139976451646
  1005   3      18.249715353453283      12.167000665749311       22.41416733278189
  1006   4      16.042043075391256      16.352240338992022      12.289208156169067
  1007   1      18.200800654954456      18.236969569983987      14.120095039749248
  1008   3      18.544761825903407      18.254882186000309      12.043699398169585
  1009   3      16.186951654805643      18.071832530125377      14.028681879869678
  1010   3      18.433325169963982      16.159789124061675       14.04678866385982
  1011   4      15.984491219903486      16.335938966324623      16.135125888837418
  1012   2      18.296633345206011      18.191287261299639      18.044733484158208
  1013   3      18.216614263855348       18.15655611389116      16.193161740822372
  1014   3      16.332223021962321      18.178967144331644      18.436055645043336
  1015   3      18.298279437272392      16.254774976191516      18.422337280956757
  1016   4      16.254784105276631      16.099991208425102      19.858077770024291
  1017   2      18.143790230002043      18.111580503056594      22.286903553311365
  1018   3      18.399588924552095      18.336719135143735      20.377421638231503
  1019   3      16.226748081793517      18.386370041991096      22.316752104457059
  1020   3      18.319242572834863       16.23038757150422       22.35735399400561
  1021   4      15.941303470438758      20.407169068590218      11.963903381182462
  1022   2      18.251835788942628      22.208893077338697      14.041668934476434
  1023   3      18.500819892303753      22.228795871986556      12.162966613477153
  1024   3      16.329355365743812      22.280305769995785      14.064820544406203
  1025   3      18.453534862743851       20.29516423164905      14.178692165052789
  1026   4      15.842308038773419      20.297693393547668       16.30245317674634
  1027   2      18.180084338175856      22.296835686873482      18.127540685192649
  1028   3       18.17894611368045      22.334469827000895      16.241217378792314
  1029   3      16.286549060945465      22.342198983446742       18.42334467658047
  1030   3      18.238014110988193      20.267516362065358      18.342953568973716
  1031   4       15.94549683466045       20.10200968585421      19.879459609647888
  1032   2      18.137128176387062      22.211183330358338      22.230002257898306
  1033   3      18.415650561269015      22.275925199938861      20.319957291020533
  1034   3      16.198470276643334      22.331600552980522      22.274872293358779
  1035   3      18.318700435108603      20.307447928566575      22.393751709253806
  1036   4      19.898647189926617      11.960075022747478       12.06272047255208
  1037   1      22.248405366202785      14.114625936441211      14.056902207997542
  1038   3      22.333102343784006       14.30829624291416      12.005116696606754
  1039   3      20.267626805086568      14.232857292615142      14.346938213380703
  1040   3      22.193026757505248      12.073070440674828       14.29951869997512
  1041   4      20.291756676392968      12.175922147977184      15.742496795377852
  1042   2      22.218720992195752      14.221961437725295      18.103032136313654
  1043   3       22.40372210922672       14.15346846413199      16.234614923459251
  1044   3      20.283058550293426      14.105553650400504      18.301850472849917
  1045   3      22.299035120928469      12.110058850277699      18.381571299930634
  1046   4      20.030330948769951      12.062249063348148      19.976227424864497
  1047   2      22.230239149974459      14.003916625689946      22.266112315482257
  1048   3      22.153547612889085      14.142189137226815      20.377478810287588
  1049   3      20.286525325918191      14.221377393221756      22.532430762467751
  1050   3      22.385028949305752      12.121407748034795      22.474119265201203
  1051   4      20.013078574804958      16.120631690530342      12.215396063477078
  1052   2       22.31199744815536      18.170022726749863      14.205560616074395
  1053   3      22.241305407427241      18.359467710587968      12.102728290126667
  1054   3      20.346335478190827      18.237509075359583      14.268026919896887
  1055   3      22.334653845800592      16.242183755246611      14.152084736202381
  1056   4      20.203826153915365      16.120893210701631      15.789076334904935
  1057   1      22.304747840031951      18.144843054034585      18.183045151318808
  1058   3      22.466760210575508      18.259707459653047      16.147315528308475
  1059   3      20.232401511384094      18.317601929934646      18.336127301328695
  1060   3      22.174980800935696      16.117428263812656      18.384682069439364
  1061   4      20.201402414212044      16.041462295095293      19.922299050704392
  1062   2      22.171848377060506      18.087343414895788      22.246441448547223
  1063   3      22.226788223646636      18.418186363052556      20.360406122623644
  1064   3      20.278047995648652       18.36446050820868      22.450949384490649
  1065   3      22.235497060643219      16.226974498033101      22.297430573706915
  1066   4      20.081437001125497      20.091856577757628      12.112068796478519
  1067   1      22.277398099725669      22.288162846024868      14.085132484788518
  1068   3      22.236857703563217      22.198579481881236       12.06638735379671
  1069   3      20.257104422038452      22.332881775030341      14.483821768097084
  1070   3      22.249242361491586      20.260624836938277      14.351498945100497
  1071   4      20.338742133537522      20.243638701631973       15.80372111560677
  1072   2      22.205374264519538      22.204030051979601      18.243786126004242
  1073   3      22.436873386034051      22.370765688157057      16.350785622373394
  1074   3      20.287729209429894      22.241598665031638      18.253116912822762
  1075   3      22.420862447963664      20.317506222931975      18.328504697384567
  1076   4      20.150435866926191      20.001136067047955      20.056162335766967
  1077   2      22.255359280527898      22.138539080123476       22.31658265646503
  1078   3      22.319028510169655      22.349174194202259      20.323471109342393
  1079   3      20.295814944777167       22.37556484170646      22.434130643362835
  1080   3      22.366830124367407      20.265781553760092      22.429513425360334
