(written by ASE)

1080 atoms
4 atom types

0.0      24.299999999999997  xlo xhi
0.0      24.299999999999997  ylo yhi
0.0      24.299999999999997  zlo zhi

Atoms # atomic

     1   4    -0.25732173285587878    -0.25787792532911502   -0.059324329075622885
     2   2      1.9896376981863195      1.9436210790466402      1.9528793287097355
     3   3      2.0273889949615542      2.1365894038427968    0.066891894151709111
     4   3    0.082633720519344825      2.0920381154042031      2.1518477337468678
     5   3      2.1886159206267806    0.056960368787399615       2.155382898516923
     6   4    -0.31740899322012167    -0.16900736903484759      4.0539327272341259
     7   2      2.0126016276192704      2.0084697325115832      5.9779435644643071
     8   3       2.246542450641702      2.1071465689142639      4.0614744628415851
     9   3     0.11259549263835997      2.0913535496812514      6.0283542746633278
    10   3      2.0702121464700909    0.018330598571841328      5.9253919935610275
    11   4    -0.36982344744757623    0.095796221455263605      8.0195118830302032
    12   2      2.0537462935790765      1.9879411585238389        9.95352195096301
    13   3      2.0730165281847732      1.9350736041292262      8.0617866261013233
    14   3    0.062960902729481835      2.0144918130863871       10.29322780972778
    15   3      1.9976873778439301    0.054810787218409505      10.313536741331392
    16   4    -0.17002690989357663      3.8667951417594035   -0.025373743640683854
    17   2      1.9098757824529082      5.9705700099932217      2.0647489471163332
    18   3       1.992148196567318      6.1754443880362828      0.1194809323294298
    19   3    0.047518161197552207      6.1299837880888122      2.2449622477984033
    20   3      2.0844977837933931      4.0809896566293205      2.1283705993546742
    21   4    -0.33757806033360682      3.9732613483322687      4.1740523908523723
    22   2      2.0647550815649538      5.9722760510632646       6.158589831621434
    23   3      2.3211268855000129      6.0671608562166375      4.0365076759945477
    24   3    0.085880909362277005      6.0420646991415614      5.8690107347320772
    25   3      2.1874676480399091       4.016598256353781      6.0938155642948457
    26   4     -0.4207981285240574      3.8183319600036811      7.9896842751743984
    27   1      2.0481490737720112      5.9579472877289703      10.095981001009882
    28   3      1.9111910419895912      6.1639076862871098      8.0559877555707118
    29   3  0.00098166985124757624      6.1716037217877435      10.193335933151758
    30   3      1.9867834620221558      3.9484539693224088      10.256511400566263
    31   4    0.043538342142019015      8.0638522831257351    -0.20237228741102617
    32   2      2.0637311345074036      9.9834444118953485      2.1140504677714942
    33   3      1.9356775940544033      10.138960233352684     0.11605547785966804
    34   3    0.035841229253405667      10.240881575925123      2.1429574171010728
    35   3      2.1144557662677057      8.1002118912412087      2.1380156116063391
    36   4    0.047924923242874472      8.1621510057314666      4.5044920852005408
    37   1      2.0773248220916405      10.064645590939067      6.0754390492391623
    38   3      2.1081344575881822      10.311745246287243      4.0213708566329824
    39   3    0.033716209440965102      10.237808651253971      5.9737420264694512
    40   3      1.9771038633554796      8.0336919394580306      5.9005340540112172
    41   4    0.086617274193414237      7.7550536000005437      8.2302029089901545
    42   2      2.1142098745023126      10.016505482183437      10.108163490897246
    43   3      1.9892116194617318      10.288641496175309       8.175009745975089
    44   3   0.0085229343757058876      10.282354168267487      10.147091323965721
    45   3      1.9111485305095066      8.1501603320846865      10.118698166176328
    46   4      4.1198311936061582     0.06938958080481504    -0.30012912144763687
    47   1      6.0605759239022472      2.0087141368060375      2.0260419401074921
    48   3       6.194031574606627      2.1963093478129703    0.025402219888227606
    49   3      4.0259635022304812      2.2295022147843913      2.0043037159440638
    50   3      6.3396164252300435   -0.041809951206547992       2.006020637319645
    51   4      3.8919532050467565    -0.11005857103541393      3.9795058398112086
    52   2      6.1692419731088748      2.1002888912614073      6.0086347610513009
    53   3      6.0014140690791313      1.9218799672418438      4.0910029451993148
    54   3       4.077028147267276      1.8404031477807883      6.1736851937495354
    55   3      6.1904460747117795    -0.01408777765896308      6.2729418963563059
    56   4      4.3025114375588114     0.23459261782131297      7.9229596388555699
    57   1      6.0950598786409023        1.94763317259895      10.084745270119631
    58   3      5.9994757486095773      2.0747027610755162      8.0774250700310368
    59   3      4.0063318696018158      1.9669787862037504      10.216279913143435
    60   3       6.015959934866701   -0.097074268216911397      10.204204061259407
    61   4      4.2186995765265509      3.6794507584517477   -0.037892910451327914
    62   2      5.9622869840073989      6.0909503789928294      2.0013382076412576
    63   3      6.2972749042313083       5.987566678193561    0.064189483800106487
    64   3      4.0833455930126528      6.1483796612214663      1.9556366404746606
    65   3      6.1727686214862372      4.1322984730121597      2.2671526537528504
    66   4      4.1377829919915277       3.829412129578925      3.8473527035296522
    67   1       6.085372448118294      6.0296330013853003      6.0381205676613128
    68   3      6.0228582046457593      6.3262967287402363      4.0172674840370011
    69   3       4.031529712292528      6.2589511723754736       6.156750539692875
    70   3      5.9090901734846986      4.0022466563133303      6.0187305885845692
    71   4       4.593565583784768      4.1497050727873379      8.2227878050081884
    72   1      6.0865570725924778      6.0520703454050357       10.17321281362082
    73   3      6.0573377625381957      6.1011061161730007      8.1087741041513546
    74   3      4.0322839628695837      6.2215139410210654      10.118377961182183
    75   3      5.9999519664488066      4.0351825793295646      10.221727641606503
    76   4      3.9906641590808882      8.1308401006263917    -0.24785362361443888
    77   1      6.1077804087155254      10.067535824687829      2.0341248659135434
    78   3      6.1936155287006702      10.247549710969656    0.010194947147810735
    79   3      4.0180391174435712      10.295452993219389      1.9751505266488443
    80   3      6.3527890846785109      8.0524706262349408      1.9536781508529508
    81   4      3.9552447727405844      7.8107028788807717      4.3157347785656182
    82   2      6.0175062313755614      10.038022530364126      6.0619391324860494
    83   3      6.0252028553969321      10.119390592217815      4.1337227752435588
    84   3      4.1080723191911632      10.226033103000299      6.2034501658080163
    85   3      6.1701762182770974      8.1705405385621113      6.2199582625332885
    86   4      4.2180636920643941      7.6482659423994681      8.2452952033944449
    87   2      6.1663425542683825      10.064390682669643      10.215476322231822
    88   3      6.0921068797510252      10.413579443160343      8.1177477868600327
    89   3      4.0333215329882011       10.23155565804098      10.076202670318596
    90   3      6.0727568702805206      8.1727320906314596      10.018093235202649
    91   4      7.7819437530600579     0.24039713001113966    -0.20873753696658057
    92   2      10.074225844994702      2.0398289225064472      1.9455311112432863
    93   3      10.110176379618711      2.0660161390046232    0.086695046878123072
    94   3      8.1741024117599892       2.135440361670244      2.2504544195347727
    95   3      10.125333390122133    0.089014351434165959      2.2612486058159265
    96   4      7.9680522592083607    0.063196548596209351      3.7656362770783653
    97   2      10.308740224591267      1.9599539563204649      6.0602728466138451
    98   3      10.183159656381225       2.174976936582306      4.1351724415165583
    99   3      8.0768904369196086      2.1436690319073737       6.064640592159023
   100   3      10.012979032576354    0.035445614958941753      6.0541085622481337
   101   4      8.4192443574150566   -0.004087032870039458      8.1346332720053578
   102   1      10.153818126172736      2.0012078462636054      10.101013336695342
   103   3      9.8857876391666135      1.9531914355548072      8.0550733752188837
   104   3      8.1060204559471298      2.0875859000091714      10.205207303731681
   105   3      10.072111222670413   -0.020686891067349382      10.198495503525352
   106   4       7.824122475768803      3.8873425005384461    -0.22464392996961613
   107   2      10.106377086817263      6.1105067405167306      1.8744847763342201
   108   3      10.072580736901372      6.1367293358783481    0.033938739962965245
   109   3       8.194945263232265       6.018539486556465      2.3365805332531742
   110   3      10.214302191427668      4.0827706716347967      2.1991520305527303
   111   4      8.0027151592732704      4.0211293444537448      3.8245593797797675
   112   2       10.02841777165303      5.9479284752443089      6.0845518017379243
   113   3       10.29012241610473      6.0346640632402844      4.1907980833688203
   114   3      8.1497914846183139      6.1734521759471237      6.0674344506197935
   115   3      10.144516925386073      4.0584181584430006      6.2835487984257936
   116   4       8.226000982698336      3.6349281731563168      8.3534442100088135
   117   2      10.021432714891294      6.0809954708250205      10.211167300497852
   118   3      10.040119208382627      6.2449094702669328      8.1364621870565568
   119   3      8.1233497876133569      6.1547568310275951      10.245512051560112
   120   3      10.195068136665585      4.0918883894362068      10.001283058217542
   121   4      7.7391400463866464       8.314926312034439     -0.1285007544302452
   122   2      10.131133046126081      10.145192908277997      1.9204179778690398
   123   3      10.165236312201598       10.11253710393019    0.045356508075774175
   124   3      8.2094939112339294      10.155004049494515      2.2028005961950172
   125   3      10.123369930879868      8.0787681515590428      2.2335223414434142
   126   4       7.857070018253304      7.9855138341540517      3.8428422610776183
   127   2      10.022513729103775      9.9900205807197615      6.0436321950873237
   128   3      10.209924465812499      10.141798718140981      4.1697629302587185
   129   3      8.1005864904059912      10.266943936594044      6.1757198472604369
   130   3      10.171823310377807       8.124216227298243      6.1838170659225682
   131   4       7.846452448998086      7.6590168277403921      8.0957240969248474
   132   1      10.074755513212345      10.093797722954958      10.120519317918131
   133   3      10.112079515921119      10.363384408566514      8.0722645160231394
   134   3      8.0544130251536856      10.257764435133765      10.059354355529956
   135   3      10.336813279398939      8.0625501489390761      10.209105050499515
   136   4    0.087177744529314802   -0.084610508256123915      11.748622241548794
   137   2      2.0552504521926194      1.9215991002587973      14.092788928281792
   138   3      2.0406935887613988      2.0503681087065688      12.222454623529611
   139   3   -0.005370088780633382      2.1492979367036145       14.24402149495879
   140   3      1.9676844371389437    0.028618503965027697      14.281396136023382
   141   4    -0.14805811857274162     -0.2777800883274904       16.00711423038998
   142   2      1.9523740995377634       2.024182702867158      18.103677280496118
   143   3      1.9031649567980249      2.1074483317095773      16.235951121480042
   144   3 -0.00058457089292837108      2.1312216104395865      18.484556070115058
   145   3          2.029723655747    0.095286733146662639      18.416017557660041
   146   4    -0.14086210623990439      -0.203354235662907      20.137430024968044
   147   2      2.0053661896057715      1.9814902570473432      22.187114712571162
   148   3      2.0997878634911498      2.0696892537427973      20.336010577743739
   149   3    0.055629541876079637      2.1182957551555672      22.404937614426697
   150   3      2.1633791223978847    0.070823098066544674      22.445716089692851
   151   4     0.12017415967682014      3.9518863478742681      11.738569441638552
   152   2      2.0750613079440083      5.9302210026838251      14.161772823287537
   153   3      1.9908598278928185      6.2102241725246303      12.206695597658202
   154   3    0.040933676351156294      6.0800535836520266      14.252138211503185
   155   3      2.0215171722985623      4.0432033545285293      14.235606397680566
   156   4    -0.17183240935218203      4.1306622709989407       15.88245111105981
   157   1      1.9596853393005884      6.0265066859125458      18.174925885985374
   158   3      1.9989271966770026      6.2338202868101842      16.139186696678191
   159   3    -0.07169407591656668      6.0725998498187836      18.472147146077084
   160   3      1.9950196590440015      4.0162678721197764      18.443348404014774
   161   4    0.027093270478059719      4.1342641108732545      19.929376326502442
   162   2      1.9692087591329701      5.9901175949732739      22.285472942536337
   163   3      2.1176739546818424      6.1471443422940553      20.406051384116207
   164   3    0.051177798678604815      6.1820259772280064      22.396090554309247
   165   3      2.0452871612946937      4.0873489467570128      22.428885499690409
   166   4      0.1433934874804009      7.7534321611403332      12.055115946942081
   167   2      2.1326996623320142      10.047204743734708      14.259534635145684
   168   3      1.9109962366321276      10.206685918790292      12.102474936515749
   169   3   -0.025980517507139082      10.234708485329092       14.13176555542316
   170   3      1.8370511627723707      8.1339200914810412      14.146650040721353
   171   4  -0.0063129351801957034      7.8738129214475858      15.917598582226654
   172   1      1.9658223891334798      10.095166876702747      18.153143712522223
   173   3      1.9761990561697405      10.191850941029019      16.129907218520181
   174   3    -0.07669279371288916      10.107669753084052      18.448491359925864
   175   3       2.001005127142931      8.0871395469388414      18.358041695001766
   176   4     0.16756135997740762      8.0921201312490343      19.844808781985364
   177   2      2.0661761868671236       10.19644915521646      22.205812421764069
   178   3      2.0243265653891886      10.076535875137091      20.334993285498232
   179   3    0.020783469202699974      10.044743983018403      22.478160782505064
   180   3      2.0846197646058604      8.0950892570961877       22.51815861180312
   181   4      4.3379789526260577     0.18886364420335106      11.912325786187761
   182   1      6.0679659910612269      1.9856485685637091      14.144911960705013
   183   3      5.9401732632591386      2.0704575492202753      12.163371449209746
   184   3      3.9535788702507646      2.0108180103523656      14.390986377212791
   185   3       6.041203367080775   -0.039553798350783473      14.368207952449676
   186   4       4.320117292368538   -0.001685509045188193      15.974373946795076
   187   1      6.0479070687842444      2.0385096013090376      18.182176439229096
   188   3      6.0767126539381451      2.2269637565867986      16.185142405505449
   189   3      3.9580512477365661      2.0940527146315895      18.296521896176142
   190   3       6.069110306564454    0.011475580662086572      18.332339409522586
   191   4      4.2101967282443935     0.21770191525385554      19.918424197491358
   192   1      6.0299587185868777      2.0552680913089891       22.24231006920801
   193   3      6.1741723450657204      1.9796866554137602      20.257911993883283
   194   3      3.9927527651140493      2.0846670001396808      22.533653952305858
   195   3      6.0823272200448297  -0.0040454998154871536      22.501447681496064
   196   4      4.3137758319435733      3.8565891274625361      11.835101529791677
   197   2      6.1689866862484593       6.011606168400208       14.20951672300707
   198   3      5.9759733670023021      6.2945079386576968      12.199490713177662
   199   3      4.0066117533403913      6.3005512814901108      14.170692532910834
   200   3      5.8888461908760688      4.1043316310746842      14.180000575956971
   201   4      4.3537014133454699      3.7734911362343553      16.147581345560774
   202   1      6.0686823098667144      6.0911540536040754      18.195961747823041
   203   3      6.0533220022747427      6.1643528348228207      16.160426826076616
   204   3      4.0246788569903931      6.2079739673261694      18.283681429623421
   205   3      6.0235030938510752      4.0861184770469654      18.353408850282865
   206   4      4.0802355057050654      4.1334001927695931      19.729598492239312
   207   2      6.0083094698618487      6.0992777420121307      22.188760282727635
   208   3      6.0829173357684887      6.2459537752638212      20.314421447918065
   209   3      4.0790210900982604      6.1328538051553583      22.499425782865934
   210   3      6.2065767129173945      4.1493371956944634      22.283678396678095
   211   4      4.0596909046497531      7.6765433488494832      11.993560915980455
   212   1      6.0102181281844995      10.076553934694944      14.209010280421419
   213   3      6.0965179830577982      10.079936148663121       12.10511177812471
   214   3      3.9986592610063187      10.149795755255427      14.044645273219741
   215   3      6.3000184773692336       8.095994199436694      14.209689584037793
   216   4      3.8463670069814571      7.7196773563038139      16.459409684061047
   217   2      5.8988743827998027      10.167412081310609      18.216278721572845
   218   3      6.2966355456569083       10.14303171556517      16.257923694496419
   219   3      4.0375584484647682      10.079717808249958      18.213695356194549
   220   3      6.2509199964967541      8.1630595609858716      18.183928607730856
   221   4       3.767476212175938      7.9394906202468407      19.883716114119895
   222   1      6.0076714470414769      10.114096022423455      22.215193739201535
   223   3      6.2215351930829019      10.066553252825324       20.19471315699305
   224   3      3.9882806557473587      10.098195004014714      22.546342779382801
   225   3      6.0750692275046259      8.0679002568529334      22.519448817299914
   226   4      8.2619737331402678   -0.071793570135288545      11.718947003587337
   227   2      10.131555938467233      2.0649057383798706      14.013756159359804
   228   3      10.232979880194058      2.1139977235989962      12.140485586118759
   229   3      8.1729895282147673      2.1769642904411843      14.267496736606063
   230   3      10.114142876598901    0.091711590972026011       14.31251915930563
   231   4      8.0761224792654609   -0.068104438390131999      15.767949351124114
   232   2      10.140518763745447      2.0196281159876572       18.13763409190631
   233   3      10.078839154633439      2.1211420250609572      16.246521684493722
   234   3      8.1887482963678035      2.1886804917281273      18.288483324992196
   235   3      10.130557151647503     0.10806666070620753      18.326522924861944
   236   4      7.7680374281795483     0.22301251779647349      20.040812394087698
   237   2      10.146344506172897      2.0371305700184643      22.132300427653583
   238   3      10.200274411672492      2.1414536499619437      20.256540746225962
   239   3      8.1984335812021527      2.0403500454035277      22.385877414542851
   240   3      10.252756394367035    0.096473002747476264      22.372025906941484
   241   4         7.7586009172432      3.6334362737551849      11.909978989518438
   242   1      10.074092507676394      6.0371226476031872      14.169726211699999
   243   3      10.429711633731769      6.0296402471241608       12.12394481025782
   244   3      8.0647366789998998       6.015383526147966      14.039740909892913
   245   3      10.422315800946528      4.0310782322957088      14.201182561422231
   246   4      7.8520440982243969      3.7087669754219843      16.167440123322685
   247   2      10.011737557863043       6.004014057409802      18.112593681388663
   248   3      10.181860212125155      6.2165919000760725        16.2344942009113
   249   3      8.1573605188898952        6.10488284302963      18.305853535147509
   250   3      10.265959573185816      4.1133277917135249      18.229901165922019
   251   4      7.6451010451648909      3.8583365837160986      20.025631241140751
   252   2      10.062754468220882      6.0497453010162268      22.098517287877318
   253   3      10.264933826120602      6.1430493165096447      20.234982836902379
   254   3      8.1339512816489759      6.2037859509359894      22.285790055784233
   255   3      10.115233424918339      4.1061874794471516      22.382452577235018
   256   4       7.787239076965669      7.9629288623231833      12.349463987150655
   257   2       10.02110674943407       10.12349012294359      14.081895054768689
   258   3      10.394466152079639      10.149063443331084      12.169992901498606
   259   3      8.1556842387492097      10.208615840855721      14.048525527251709
   260   3      10.266602818889032      8.1578012948148793      14.114534552097755
   261   4      7.6707864692495056      8.1394808344805138      16.188154607018813
   262   2      10.113783140043566       10.09944950328506      18.090479611191356
   263   3      10.161782138465941      10.134278955273924      16.176727214052207
   264   3      8.2160372031031681      10.097507472518805         18.338132746044
   265   3      10.203417160809709      8.1201502141387714      18.322749683863993
   266   4      7.7885588176595277      8.1935747924518232       20.04423040931599
   267   2      10.120209437246654       10.05427699240108      22.180752357932544
   268   3      10.279402216860811      10.137743792039123       20.28044676390439
   269   3      8.2115267062698862      10.065039894368159      22.294772942415268
   270   3       10.26466277855862      8.1025592226762946      22.327762129411475
   271   4    0.058323166256869938      11.847346337777022   -0.036234631070754017
   272   2      2.0588396613000071      14.091667599807959      1.9694093525389373
   273   3      1.8568478676560234      14.433109591551652    0.061606253850125033
   274   3    0.015408245167827656       14.38765527864058      2.1756348454980632
   275   3      1.9687432192564518      12.197256453978397       1.966660695750422
   276   4   0.0013070312077762794      11.760332101919646      4.1917130952451016
   277   2      1.9860609963438804       14.14019966118763      5.9772362782524979
   278   3      2.1685607240664528      14.195792303256301      4.0707811763767552
   279   3    0.061177959870369794      14.304179224254453       6.099836385344747
   280   3      2.0801445879289728       12.24724383003211      6.2172658818716942
   281   4    0.050993953467773627      11.749846781027376      7.8201223903973593
   282   2      1.9855998484979704      14.124448036438027      10.063120096177482
   283   3      1.9560993752223206      14.311519514682493      8.1238926282548114
   284   3    0.029895667045096493      14.401862037094256      10.146200993636061
   285   3      1.9786159819459559      12.245667138202071       10.19082249682171
   286   4   -0.046304019623926107       15.95699512212928    -0.14953208652855873
   287   1      1.9831149131732919      18.252500790111959      1.9701391437197524
   288   3      2.1558007003944355      18.248459388082058   -0.060756525030664969
   289   3   -0.026154323547766242      18.195931255990946      2.2690092204430634
   290   3      2.1046946292284754      16.199284754575427      2.1980280633166065
   291   4     0.11572962786705143      16.301690869414628      3.6837279381496195
   292   1      1.9549009342941859      18.261793132323117      6.0529297097729033
   293   3      2.2006760570338404      18.305547800705146      4.0438641268368141
   294   3   -0.058371824894995587      18.506037986658676      6.0665551744921862
   295   3      2.1717078118297639      16.191338377916161      6.0920248382885731
   296   4   -0.044478250050200951      15.983699248078636       7.958559119395014
   297   2      1.9352894358307708      18.203988452335853      10.028105330407548
   298   3      2.0057027498453821      18.404301177778844      8.1491852444201633
   299   3    0.019540853500936602      18.327660812690731       10.27790458830353
   300   3      2.0947254551326502      16.309554489526324      10.111608497098254
   301   4     -0.4305757833970475      20.418315106912431    -0.08386518959119825
   302   2      1.9801376338216996      22.191716246906005      1.9921726347702633
   303   3      2.0735194149223402      22.408796979818902    0.072101930452295973
   304   3     0.10534848630147858      22.382357412132894      2.1589596472177757
   305   3      2.1113639979276804      20.316132361727089      2.0674706812459784
   306   4   -0.083807257366209101      20.045413155028726      3.8207718203143317
   307   2      1.9496603450384584      22.278272148527623      6.1717660324581152
   308   3      2.3177791760055948      22.339601150276565      4.0159849219093777
   309   3    0.070484708919130043       22.18638724089773      5.9327762859639384
   310   3      2.2776124522536656      20.359804566021083      6.0276330896140822
   311   4    -0.20088801939113984      20.229915155727941      7.8850636961940586
   312   1      2.0588556992001381      22.308951003970744      10.044255913193732
   313   3      1.9995687988493891      22.329321376784286      8.0285579092428403
   314   3   0.0045560618094500661      22.277237457781759      10.327003159935682
   315   3      2.0087368930806218      20.223972206477661      10.387511130640501
   316   4      4.2760800777971166       11.79216664819222     0.05651065083902531
   317   1      6.0141260359097206      14.158756388489271      1.9964351764829578
   318   3      6.3807784416700581      14.100633038785954   -0.055875009814318567
   319   3      3.9887121602551927      14.213558665954185      1.8100669475110995
   320   3      6.1012463424618648      12.139389770301992      2.1592521271548915
   321   4      4.2927756111838056      11.911350805771161      3.7595062186073185
   322   2      6.0098508559206856      14.157119528662719      5.9573850241500121
   323   3       6.022586237086764      14.328974011671692      4.0921524238824958
   324   3      4.0786817139304503      14.225624941031379      6.3024872506455107
   325   3      6.0813449833736231      12.228638280261531      6.0474680625626043
   326   4       3.965412121740918      11.870815753654837       7.919205931989115
   327   2      5.9441057514138889      14.108140753389883      10.052536487449105
   328   3      6.2477668479704347      14.157482378268456      8.1565239721943215
   329   3      4.0353166947473751      14.318198347263669      10.117541971073525
   330   3      6.0391313825930597      12.232377409937621      10.266081716073741
   331   4      3.7859720360257771      15.996670298676325    0.096968849292496606
   332   2      6.0104258481807085      18.149220420894295      2.0095298117306317
   333   3      6.1316927277181508      18.433662734540828    0.040668185340249026
   334   3      4.1175125755711353      18.271405473939485      1.9761332392625326
   335   3       6.221014278266594      16.260507538795238      1.8991000541087406
   336   4      3.6612484941335186      16.493407102235533      4.0213967484964028
   337   1      6.0895980872932247      18.214271610503488       6.002943313368923
   338   3      6.1983113930432161      18.293592145695783      3.9700562896513665
   339   3      4.0832824670717276      18.268493628182782      6.2265481541645809
   340   3       6.086082893724349      16.180729799083156       6.324611247321787
   341   4      3.9880118624891563      16.361323339252046      7.6679543066205706
   342   2      5.9796511818101532      18.153142799526975      10.216200869400321
   343   3      6.2279212434617097      18.403045078496643      8.2073304854471179
   344   3      4.0618631250857371      18.421242348674941      10.114903299502613
   345   3      6.1282229403838242       16.24206023367735      9.9958939757391541
   346   4      3.9970241132522792      19.905174709304685    -0.13080606226766958
   347   2      6.0465422017950665      22.279562512955358       1.881892044472451
   348   3       6.285543844540225      22.272614310819623    0.011335968853916962
   349   3      4.1635506472029276      22.405647653796375      2.0015287435857645
   350   3      6.2150236188895773       20.34131690202755      2.1358261050355427
   351   4      3.7439410410095522      20.007070344338469      4.1093846475069382
   352   2      6.0363849246568133      22.291133670838366      5.9491569736802399
   353   3      6.1427408718134355      22.421661065262683      4.0609746095388344
   354   3      4.1360356528584008      22.441492607679628      6.1332902913805238
   355   3      6.1444533036088513      20.354503514924701      6.1191528825500123
   356   4      4.0086093961822877      19.977422243982627      7.7676514067883726
   357   2      6.0116769378676649      22.235949263052543      9.9750237284080114
   358   3       6.215459527213155      22.229310413618389       8.102023040175407
   359   3      4.1052521266064179      22.118068113327151      10.184234702352308
   360   3      6.2298954739228867      20.259008032822354       10.30183423499062
   361   4      7.7268803265905834      12.011716423049863   -0.073234362743630502
   362   1      10.101413577150961      14.134269436603036      1.9905782188510801
   363   3      9.9856321853265975      14.257117397858538   -0.052978784470498926
   364   3      8.0971889369809915      14.252764591511601      2.1817385118418975
   365   3      10.179020292242125      12.085920310828104      2.1983759140574008
   366   4      7.9740364924199403      12.189411788406611        3.57423750285307
   367   2      10.095947977896699      14.073635143982656      6.0431260301982768
   368   3       10.15280689282039      14.336579878849678      4.1470328329460937
   369   3      8.0898715787423843      14.333959964174614      6.0910216234436545
   370   3      10.143713972833512      12.204211021957972      6.1230659008207589
   371   4      8.0982568237368273      11.825815120724039      8.1387582377953933
   372   2      9.9594344635790897      14.190402983023482      10.126987657201447
   373   3       10.06361376770581      14.225229046300344      8.1622288841676074
   374   3      8.0818545914500071      14.278812016233363      10.288489457990559
   375   3      10.249724013491443      12.266177211333213      10.177966446887075
   376   4      7.9685073309341981      15.806471454957519     0.15917229169037139
   377   2      10.162752728191167       18.12705497088935       1.881080501525916
   378   3      10.144856851931275      18.319856705617074    0.010012086565616831
   379   3      8.1798183891985961      18.430884561944094      2.0407353356373776
   380   3      10.056239411755366      16.271680403974884      2.0943779592492739
   381   4      8.0533978822306107      15.871283861842972      3.7832710648301431
   382   2      10.101768288380743      18.141572403679731      5.9349938048082285
   383   3      10.147608631407477      18.377026245164959      4.0666398543549471
   384   3      8.1840768353112718      18.400753246277215       6.185739338019415
   385   3      10.073482505908379      16.275839835766469      6.2462300570474714
   386   4       7.810868006283922        16.1707322923262      7.8902516442678907
   387   2      10.033848058075286      18.182128803998324      10.057163436339192
   388   3      10.129155865691665      18.371222006732289      8.1734811714381888
   389   3      8.1451693618525951      18.250846985706314      10.226994720092719
   390   3      10.280390734304227      16.230292488352177      10.184150185675435
   391   4      7.9992822179356811      19.852480105741321    -0.29989133520211142
   392   2      10.101260560821331      22.218628131765961       1.898460011272503
   393   3      10.126693231706534      22.435188261599361     0.04138523528550031
   394   3       8.205522144214827      22.314195165422227      2.2533476238921231
   395   3      10.248175284391126      20.341644084781091      2.0769931806625066
   396   4       7.885332465801774      20.029388735652446      3.8738559449153387
   397   2      10.058330180325436      22.203076121358553       6.006457910137736
   398   3         10.332828652822      22.353297740685964      4.1091501692225663
   399   3      8.1481505872322799      22.238700819771001      6.0507124978633158
   400   3      10.295676265616185      20.303932083895862       6.205562970575845
   401   4      7.8547448794121193      20.047835967415573      7.9032760485526623
   402   1       10.08357186690456      22.195778645709741      10.052244812100014
   403   3      10.102408156146085      22.501781508898524      8.0374047309853616
   404   3      8.0332564370976094       22.28352782378445      10.377313589399652
   405   3      10.119807604466827      20.173572759812071      10.363905419471143
   406   4       0.246451869830249      11.932768305909523      12.166171579803811
   407   1      1.9966065929737722      14.147846380764012      14.110157411087208
   408   3        2.01691768187181      14.407039968509991      12.059796823488695
   409   3   -0.038443923993433875      14.267000372124343      14.149522480971676
   410   3      1.9311914416252347      12.107278497655846      14.035053791019742
   411   4    0.099267783710839844      12.343772536424895      15.786119016769856
   412   1      1.9059245130683478      14.197967478408913      18.208422206343911
   413   3      1.8448972474854917      14.071497186986292      16.187565509256363
   414   3   -0.098716862155706603      14.129300077242828      18.524514272230437
   415   3      2.0058724420574192      12.118303960152449       18.34067473413964
   416   4     0.16525024222985757      12.115511873487925      19.867995030008821
   417   1      1.9820681670105285      14.104418597136894      22.331249927800275
   418   3      2.1125870737975383       14.21915204540066      20.304184322190107
   419   3   -0.086078318640025811       14.40896691415861      22.275923186588617
   420   3      1.9294139191749049      12.085731123941333       22.40138159714002
   421   4   -0.027403694049161889      15.786786777166755      12.237899021384264
   422   2      2.0927287584789984      18.168547899424546      14.112800817418782
   423   3      2.1386013582488101      18.257397485749184      12.226728982367218
   424   3    0.019893542843844498       18.32189305877634      14.233688969802246
   425   3      1.9477180461408694      16.270457404257414      14.309079395628185
   426   4     0.14242605606073133      15.833619390253446      15.905147722068465
   427   2      1.9377866914422346      18.151618425272815      18.192326044106625
   428   3      1.9397885018566969      18.366779236944026      16.284320161818133
   429   3    0.062488969708879044       18.37358368379115       18.40035009731848
   430   3      2.0478943969037848      16.264421045547422      18.333750293840069
   431   4      0.1095844630104451      15.779680048807753      20.301045069201749
   432   2      2.0097685352766019      18.104859506050673      22.305057624950134
   433   3      2.1346875475488649      18.405179993726883        20.2714748120544
   434   3    0.047252208578448571      18.254786221566384      22.187163847472135
   435   3      2.0893915126022322        16.2352069707336      22.234844626781737
   436   4    0.054381299011046956      20.388454556829284      11.815305032925417
   437   2      2.0264747785662873      22.207999453816761      14.118017232564181
   438   3      2.1249607494342593      22.276073041296996      12.250459411998959
   439   3    0.082316487379927902      22.354023372876448      14.303755218302873
   440   3       2.059717555999498      20.285721778890128      14.297564733456786
   441   4    -0.23097218945096232      20.055667059515635      16.070920334775657
   442   2      2.0740122371442311      22.238515559731159      18.176569021870215
   443   3      2.0044333710945694      22.416214852094072      16.301464586947407
   444   3    0.068962161568218591      22.462017171572082      18.358611318606879
   445   3      2.0517574689268852      20.363824179030164      18.339721321076563
   446   4    -0.19308657557234488      20.019186424004896      20.236941012689524
   447   2      1.9940900376214132      22.229865723737234      22.223464467297738
   448   3       2.097380784965531      22.422009528935003      20.343829706488059
   449   3     0.10217143140544904      22.459050623037498      22.355966621703939
   450   3      2.0480533090391111      20.346913097939638      22.360235330515977
   451   4      4.1523481935215729      12.111375746067024      12.629635011100426
   452   1      6.0129339934350581      14.141674804662525      14.153339653382954
   453   3      6.0248809628384317      14.400888695933046      12.078237591543473
   454   3       3.997293704607201      14.274031372288675      14.117962414030769
   455   3      6.0968630905029846      12.127253156231035      14.023079714420735
   456   4      3.6038637038758616      12.461847108412803      16.468381694383716
   457   1      6.0281319039283607      14.153053196128646      18.265953297858324
   458   3      6.1397857123203945        14.1577221677175      16.211633833200008
   459   3      3.9856117203081438      14.069497241181995       18.24646669457028
   460   3      6.1790558484263061      12.092670851932308      18.242497257972744
   461   4      3.6848965828908096      12.399895536040734      19.954409510596093
   462   2      5.9015379221145023      14.174670044757423      22.269526565663789
   463   3      5.9359114134612021      14.085392024460734      20.313217787344399
   464   3      4.0465642690916708       14.20653014368594      22.536373803740297
   465   3      6.2412929507879626      12.172640350613127      22.295084601379177
   466   4      4.0045373673847404      15.846633377652536      12.330981936381287
   467   1      6.0174298681792893      18.241699541719179      14.143458286831651
   468   3      6.0708631229224883      18.093263767190432      12.119703378471852
   469   3      3.9781783226512411       18.24322358467062      14.428115894977726
   470   3      6.1022501391072925      16.214767278687237      14.321977750607859
   471   4      4.2429720109420943      15.830881201472037      15.919515854525175
   472   2      6.0718345340802617      18.050892710776047      18.264186092045819
   473   3      6.0733197301460207      18.439378100540019      16.305859777630982
   474   3      4.0391250737935946      18.409785349079552      18.264860402436078
   475   3      5.9979526460810382       16.19977303828151      18.187340511005921
   476   4       3.837792024031828      15.798393274231703      20.003226252707282
   477   1      6.0349055419699988      18.145828988040464      22.277556734578848
   478   3       6.026929090013855      18.334531274335045      20.215872398493492
   479   3      4.0218892446487695      18.453128551048763      22.275671441339814
   480   3      6.2551545110830533      16.112168725810079      22.303728545229571
   481   4      3.8773058665417088      20.342285993638338       11.82536397360119
   482   2      6.1024308463823989      22.202234272893733      14.061902006186658
   483   3      5.9615404983584241      22.309789453820571       12.18823110757989
   484   3      4.0305729797679062      22.404789569889637      14.415330806080902
   485   3       5.972918549530978      20.312953838261688      14.318813406102802
   486   4       4.190423339889584      19.974297094839315      16.087498295179184
   487   2      6.1177962767391589      22.239192974581474      18.164997790565749
   488   3      6.0909465613484457      22.353082749361221       16.27293432200079
   489   3      4.0631047512079874      22.458739497892566      18.327346558123413
   490   3      6.0252422721240757      20.354119294205951      18.304128229785647
   491   4      4.1016853915285054      19.876053570071289      20.267339036513309
   492   2      6.0483235696867084      22.240116692495885      22.175302191119876
   493   3      6.0554594751823299      22.471596363297792      20.297737595223634
   494   3      4.1129408202173243      22.362986818036799      22.473210265443917
   495   3      6.1685774916633376      20.350656179405032      22.289106698840811
   496   4      7.8334410532856795      12.279812052683049      12.514886001468854
   497   1      10.099391670580003      14.185937982792858      14.154552030913186
   498   3      10.375634139583964      14.238035362575443         12.100514815098
   499   3      8.0921677093768345      14.216460252902642      14.057262085016795
   500   3      10.330511121298009      12.098779479158798      14.155053075955459
   501   4      7.5377011235659559       12.25527169243396      16.097788518128208
   502   2      9.9475454235163436      14.161338671591169      18.209152236468462
   503   3      10.158824421382539      14.088042402175082      16.256873270287997
   504   3      8.1101416169544596       14.12167355525154      18.357403568638077
   505   3      10.283557291708963      12.119504627077173      18.275684465872988
   506   4      7.6730586461403112      12.147943270638468      20.303032118578738
   507   2      10.130162906367993      14.111149682986369      22.356310753391838
   508   3      10.483567463870363      14.082026270636135      20.164891901606815
   509   3      8.1777456488455087      14.152324071097265      22.000434613369027
   510   3      10.208381369866457      12.115089587706287      22.233114245855639
   511   4      7.7308993962580583      16.031515713506362      12.449078902526443
   512   2      9.9793103252912889      18.276731376176841       14.15456433563291
   513   3      10.297202912080136      18.132843212618809      12.193511334998821
   514   3      8.0979660669044495      18.249485246572018      14.265732564886337
   515   3       10.31451154608043      16.256319186547103      14.232805758087027
   516   4      7.7729796206411077      15.822829878464786      15.916458059278037
   517   1      10.045675778050041      18.133125746035049      18.207238994509453
   518   3       10.19826328915533      18.282207659119159      16.169184388148111
   519   3      8.0176034789206128      18.391196029784769      18.244224194458283
   520   3      10.273092513447992      16.093900121735597      18.235951418847971
   521   4      8.0387044315133451      16.271286978512933      20.698674416965616
   522   1       10.14640005109564      18.150506912763056      22.279438699140179
   523   3      10.218053447644541      18.299122019996055      20.227684335482312
   524   3      8.1101265158231577      18.296612540345809      22.165858709875639
   525   3      10.134462298754416      16.102599066144172      22.001656687323649
   526   4      8.2145387307290072      20.464824607296737      11.905500771661783
   527   1      10.084204869267483      22.210970907289383      14.189551556861755
   528   3      10.237705710907072       22.27139581500392      12.178832426244247
   529   3      8.0137715524047053      22.331884392944009      14.223238900791625
   530   3      10.218615436853977      20.179237608444222      14.100273841287208
   531   4       7.985381071092557        19.8670842567617       16.22419657675864
   532   2      10.112452762076954      22.235346259508205      18.100156859694902
   533   3      10.019685657815648      22.424977898039774      16.240716804750196
   534   3      8.0893266162005961       22.38739186644106       18.37011814005934
   535   3      10.167061690823747      20.336992333387606       18.18771877233495
   536   4      8.2106322834417362      19.764513519341421      20.323318686159141
   537   2      10.067623543616298      22.250726563024088      22.169560396321096
   538   3      10.242214520125463      22.413744956326457       20.28665159647262
   539   3       8.145047215208745       22.44149823585963      22.286918904890467
   540   3      10.159125657625202      20.377394608938545      22.339311626765799
   541   4       12.24048526358291    0.079230196385020907    -0.37955461433352694
   542   2      14.087335669543959       2.089164841139683      2.0290934782570966
   543   3      14.239509778504859      2.0213911105429236     0.11381140599814003
   544   3      12.142654059091441      1.9730679901416233      2.1911436999078533
   545   3      14.225103520318836    0.018817200256302236      2.2083420002630088
   546   4      12.059509955147027    -0.10172600675514572      3.8657474850651403
   547   1      14.128021991693402      1.9820742078259013      6.1307043128304324
   548   3      14.352828913249924      2.0398018044865029      4.0565570720782302
   549   3      12.142484227058167      1.9671649769640602      6.1945181998394947
   550   3      14.465912079839526   -0.057249106484491122      6.0627365935990198
   551   4      11.985610679286923    -0.35755873812019634      8.3705508635318786
   552   2       14.06828861537474      1.9639144876697376      10.216644060767118
   553   3      14.449428475335209      1.9276402754665816      8.1567239713731112
   554   3      12.174151992453341      2.0128325183801579      10.008662288638826
   555   3      14.387186093162626    0.014865828245375015      10.190524246627531
   556   4      12.427069946872587       4.215372846827524    -0.33001783104427662
   557   1       14.13661394508739      6.0567934478682126      2.0171229472305234
   558   3      14.160817471660057      6.2261120502420804    0.016537174643540115
   559   3      12.069583231336777      6.1094348664893188      2.2007331798967686
   560   3      14.053443043507619      4.0197296191783547      2.1850166932380453
   561   4      12.108552610864114      4.1865262945174004      3.7957116564215996
   562   2       14.09814443462384      5.9454730175023451      6.1551415453048355
   563   3       14.08388870103617      6.2107979899433801      4.1710679254072947
   564   3      12.147277936783105      6.1506087038339174      6.3217177648869134
   565   3      14.241323650624897      4.0674988639272431      6.0977388915888984
   566   4      12.137685893860267      4.0683761160382392       8.449516691342696
   567   1      14.165770333952324      6.0616470668215294      10.152657909458499
   568   3      14.359175630722639      6.1708099722134175      8.0900626506026683
   569   3      12.127556853096815      6.0085642628799789      9.8674930958017946
   570   3      14.133245654804353      3.9974016800959369       9.907117093862567
   571   4      12.362461480405305      7.8823726762467929    -0.31279996897922036
   572   2      14.245879631498003      10.079018283550427      1.9804051291433722
   573   3      14.109268010865518       10.12938418100104    0.080375999560065137
   574   3      12.134499294669176      10.103347596775841      2.2481144105728994
   575   3      14.118429523035077      8.1463467386490205      2.2375320743664893
   576   4      12.172133651307721      7.9582254860435384      3.7938102283463322
   577   2       14.01840639051972      10.117388123602186      6.0703370620862191
   578   3      14.184535876333467      10.131203786104813      4.1644745661858185
   579   3      12.140251186937405      10.259835293659991      6.2674111892268201
   580   3      14.188612111344296      8.1847785936312256       6.220895979923255
   581   4      11.998196946408729       7.827428652694203      8.3151187279124574
   582   2      14.153545200265764      10.032803002010569      10.069672310047162
   583   3      14.352253942160331      10.288168818082658      8.1448988499077792
   584   3      12.226738393174639      10.309630929141134      10.000906475080695
   585   3       14.14191662759076      8.1603905557907019      10.102734797608317
   586   4      16.199097764859324     0.15746675073065364    -0.49671710795714247
   587   2      18.112362870881512      1.9632428588278461      1.9856477437053039
   588   3      18.254417607352313      2.0146013090684485    0.090545890060471201
   589   3      16.218710347077003      2.1497146851084574      2.1210377852414335
   590   3      18.170962163664566    0.054217090572497871      2.2542203012283513
   591   4      15.990890776244038     0.14748229247755584      4.2199381830130562
   592   2      18.161299298989348      1.9895598046405589      6.1714611304246541
   593   3      18.362780496978299      2.2176804175484151       4.023623518640095
   594   3      16.253356994731181      2.1434440950199889      5.9470808290552135
   595   3      18.083816453204594    0.038567604915034963      5.7590507165808242
   596   4      15.853134850827988    0.026311872877008625      8.1212992082136068
   597   1      18.181465216227863      1.9874262961630047      10.112537933308042
   598   3      18.246199900568648      1.9349849969987782      8.0761368882156255
   599   3      16.196901537720024      2.2159992878677679      10.236159376092491
   600   3      18.232100420843906   -0.077985242914132863      10.327465824640036
   601   4      15.972167352437054      3.8996710550226137    -0.43666735768502013
   602   2      18.064690572757929      6.0481425077460242      2.0386315842262959
   603   3      18.219505616420619      6.2103557251710102    0.074363097738140552
   604   3      16.196374476723328      6.1273972028746764       2.214921473428916
   605   3      18.353813965607284      4.0771540495506793      1.9984859364917502
   606   4      15.920456020504222      3.8462285031353725      4.2048496432859821
   607   1      18.139988055858936      6.0500395717303981      6.0621735436423494
   608   3      18.448881458278116      6.0191674208734574      4.0288911511808578
   609   3      16.125472169688887      6.2874233982296968      6.0040295318626002
   610   3      18.447837988187516        3.99714019111244      6.1286378440897806
   611   4       15.90866827665503      3.7956025118433301      8.3279856595651598
   612   2      18.076477876105837      6.0721259657819155       10.05047177520326
   613   3      18.258841913467048      6.1659514602875571      8.1192004095822341
   614   3      16.231540705267232      6.0364421408645308      10.187689297477247
   615   3      18.439557111408661      4.1103715301880426      10.044136838116717
   616   4      15.867205566867341      7.8108967165317065    -0.18923150536552916
   617   1      18.157436344123102      10.082306793611137      2.0962322062821932
   618   3      18.298082282123804      10.142278042686188    0.049197235368615193
   619   3      16.136237387861193      10.167608008539426      2.0593250903654843
   620   3      18.404544230481594      8.0228815671121776       2.169468945691909
   621   4      15.926498057730036      7.8179475598872044      4.0687161620455852
   622   2      18.097288591104707      10.124369929813522      6.0370102899463731
   623   3      18.406671458356186      10.163320333292507      4.0993343886672777
   624   3      16.193860724492954      10.065984014959088      6.1334601357581171
   625   3      18.397935912595894      8.1319281198671671      6.0338632316423366
   626   4      16.020919427782061      7.8505183837436174       7.913053490439566
   627   1      18.172085104246342      10.148024235373862      10.046900769331195
   628   3      18.398677154369366      10.034240491825889      8.0570180229255506
   629   3      16.158356634519301      10.168552643896279      10.428669959800006
   630   3      18.361716138265837      8.0360824502094417        10.2119726974949
   631   4      20.453172293080243    -0.39990139607687597   -0.025200799666298929
   632   2      22.161296100004673      1.9501948158738132      2.0837321573846954
   633   3      22.459294930228978      2.1090631165507938    0.084193705087945797
   634   3      20.274884596843084      2.0739570075751446      2.0033250192759549
   635   3      22.375574873512495    0.059764745704330414      2.0805073196229262
   636   4      19.979461145074861    0.040150167086240113       4.323285144776567
   637   1      22.230817101227437      2.0061284031143347      6.0299872123641398
   638   3      22.355994272851042      2.1222207820469161      4.0071998492100835
   639   3      20.214433475770676      1.7688558035756718      6.0714747405292178
   640   3      22.517249665436164   -0.050336341248845222      6.0384386807057222
   641   4      20.389863482981731     0.49410822498528384      8.2173758056598309
   642   1      22.301561317388337       2.016606275009551      10.114331731271754
   643   3      22.394493461354436      1.9231271708524962      8.0703082698291837
   644   3      20.262281962319928      1.9147836500498567        10.1396052489371
   645   3      22.396549518391353   -0.036632499324017957      10.074960151955317
   646   4      19.948884860120302      3.9221022470894642    -0.10638506724036773
   647   2      22.182925411128412      6.0184276485747743      2.0013207601344845
   648   3      22.515674357994293      6.1377351147312389      0.1088759246081594
   649   3      20.318502569763044      6.0461793983889276      1.9792374712830587
   650   3      22.460245381422258      4.0785948733182069      2.0148370852649715
   651   4      19.908694706818761      4.0648616711541932      4.1770268678988787
   652   2      22.176040757137546      6.1144164372586296      6.0789647746999318
   653   3      22.264053866221243      5.9458430941477367      4.0714272131053431
   654   3      20.302444836946481      6.0602653849570194      6.2312497203905419
   655   3      22.412188143285512      4.0825467804790669      6.1199726562679748
   656   4       19.94596787307793      4.1447100613987677      8.0471832643124603
   657   2      22.235340620775542       5.994786846437214      10.211512694628858
   658   3      22.585560951128588       6.072273931736607      8.0473712284511354
   659   3       20.34409078654619      6.0909724342538967      9.9080755405753642
   660   3      22.404476736074745      4.0751487207173929      10.053663587495368
   661   4      19.780573470574389      8.2473371798307937     0.02378206832949456
   662   2      22.266997540148438      9.9777758371021115      2.0691597496088479
   663   3      22.443208040219325       10.17515695651325     0.10763630739306387
   664   3      20.349901491825403      10.253739322355399      2.0315125588469778
   665   3      22.342707064285857      8.0870982512892535      2.1485250281027342
   666   4      19.864360266800855      8.0238401877200918      4.0825895348263606
   667   1      22.266364680932064      10.074232671740161      6.0560271263088277
   668   3      22.278148703105291      10.348255941077671      4.0074536095678761
   669   3      20.246229259712763      10.319815440633972      6.0847712396357467
   670   3      22.416536351784298      8.0340982250684689      5.9882738463897356
   671   4      19.897727849245495      8.1252617422414346      7.9898494593883083
   672   2      22.309994789980131      10.033728026487426      9.9619173268214549
   673   3      22.341399264193367      10.225814520605436      8.0935565807571805
   674   3        20.3704849425283      10.136788877979894      10.141890297449404
   675   3      22.405886687107319      8.1174688181488062      10.029840368934073
   676   4      11.792587235418553    -0.34072829808052923      11.852840469999601
   677   1      14.137302265074748      1.9710858314897739      14.133946863264338
   678   3      14.193751463807294      2.2074852234836779      12.126712555479854
   679   3      12.124601709222553      1.9760978080284235      14.444754295175029
   680   3      14.282230586071609   -0.060348866888261077      14.273485964813709
   681   4      12.031112373409693   -0.023962183325673226      15.830321995570543
   682   2      14.185024028046259      1.9459174068389922      18.162231327506522
   683   3       14.41897421039916      2.0067346839220108      16.237189787087271
   684   3      12.180264218214235      2.0447617395915878      18.176192774135153
   685   3       14.20650386182902    0.031923906505494634       18.34410446538233
   686   4      12.216315329679041    -0.22402248149150061      19.945141811014658
   687   1      14.142980246966316      2.0047184375995828      22.213353105306698
   688   3      14.117620128416933      2.2707197654402687      20.188393167400303
   689   3      12.101947461642204      2.1265381532689211      22.455632384658195
   690   3      14.142118494726164   -0.030037819400726962      22.375096626125018
   691   4      11.939800935865136      4.1270319882739948      12.112309565240729
   692   2      14.194951468475134      6.0411212802210592      14.025083720826816
   693   3      14.049740906966996      5.9641728074455846       12.17940796549788
   694   3      12.281093073807718      6.1689008374374561      14.375082126385111
   695   3      14.176469585258868      4.1120016516829523       14.39389161470139
   696   4      12.124939189826518      3.9602167850129382      15.873033143547573
   697   2      14.135359720214984      6.0348339651367269      18.187011348425923
   698   3      14.428176343242381      6.2544528199528786      16.224214707422263
   699   3      12.210334858409389      6.2717288072302306      18.122854242438212
   700   3      14.198112095548939       4.087176396605928      18.072122751181329
   701   4      12.557754987287872      4.0293169165061515      20.386812287713511
   702   1      14.171646639902354      6.0990565013166149      22.172381175011534
   703   3        14.0787271623809      5.9837871075322706      20.154950306976875
   704   3      12.065590517424836      6.0543580237892112      22.451514245327768
   705   3      14.097891395736623      4.0741624719034277      22.377742739276595
   706   4      11.849297047229431      8.0886551047713837      12.100421031532838
   707   2      14.145220101816069      10.134276111954097      14.147479653752539
   708   3       14.06488778852372      10.224181134047036      12.153732077288485
   709   3      12.239209079105009      10.100714366549466      14.322005774835185
   710   3      14.356150306792584       8.119379688559075      14.164581468724135
   711   4       11.93606941396108      7.9098212311202287      15.970804970569999
   712   1      14.144636418179379       10.14458100889199      18.124757084322557
   713   3      14.523362599392312      10.117113008786548      16.099692869159714
   714   3      12.131132196734573      10.057464095812357      18.302788917253569
   715   3      14.351121673104727      8.0812097434214305      18.324786611926381
   716   4      12.231181555329671      8.1915363320016201      19.852459491020877
   717   2      14.232335969736717      10.165317578257334      22.111640377244722
   718   3      14.209057347125741      10.130253486984595      20.238988717385666
   719   3      12.189620857066627      10.168579830361267      22.407733748922769
   720   3      14.137134059853366      8.1604912280770296      22.371845912787705
   721   4      16.046380060778681    -0.22548357239756617      11.949185260625139
   722   2      18.195687298195264      1.9262520468526623      14.251588968192941
   723   3       18.40451240607479      2.1687709657992778      12.219602556848253
   724   3      16.271067646057812      2.1857353625250537      14.067452888439222
   725   3      18.366929674775083    0.022567411484097171      14.157700288943319
   726   4      15.976402965000094     -0.1852124542120149      16.009832948111811
   727   1      18.218472582565411      2.0251109289369542      18.155467930348518
   728   3      18.131307077187291       2.045196619203832       16.15359345201648
   729   3      16.170953317807971      2.0256464217305825      18.458267671207128
   730   3      18.235452748332701   -0.048280905696651319      18.551625748350414
   731   4      16.259884369631205    0.019386599683392104      19.959765779533331
   732   1      18.249710537600453      2.0078538404791204      22.315688263184487
   733   3      18.346291542388904      2.1699707865585141      20.295888955829199
   734   3       16.19524899264572       2.128043637420812      22.331237247684545
   735   3      18.127420275300231    -0.04202139151896709      22.188013706667679
   736   4      16.159533715113096      3.6671855928583983      12.081547457337189
   737   2      18.248900770932309      6.0720022464465968      14.023656664163981
   738   3      18.450152735779429      5.9871968725472637      12.112859503602698
   739   3       16.27369056538134      6.0104747762373796      14.126165044788296
   740   3      18.368199239928451      4.0830920508780464      14.278226215835611
   741   4      16.039561415085977      3.8227189411086959      15.982275820012399
   742   2      18.168498431957033      6.0126845306252035      18.099060500281805
   743   3      18.167984440192217      6.1773883514824472      16.225821740528392
   744   3      16.270910666002155      6.1640787633786953      18.390649425311992
   745   3      18.327240272401944      4.1253587862831438      18.277108441796624
   746   4      16.287358787014782       3.561580249297331      20.303132463379796
   747   2      18.133896024330312      6.0976772266676145      22.198665164688993
   748   3      18.394145745555495      6.0246100858787655      20.316092644650716
   749   3      16.237066690126628      6.1638491605161443      22.341177583512902
   750   3      18.266914176057739      4.1471471445982626       22.51333852537126
   751   4      16.396053403693966      8.4746041145626965      12.148795154179911
   752   1      18.220318334765015      10.128882551146715      14.174070609395164
   753   3      18.420563402596759      10.094024475535919      12.120715474762113
   754   3      16.199415996499646      10.142186051227572      13.841874186600796
   755   3      18.300126185930946      8.0298579861839485      14.087527773537332
   756   4      15.964149746907205       8.159460976014822      16.122878714101908
   757   2      18.205688971626667      10.137024461485224      18.106869955916377
   758   3      18.193091455822671      10.014777380530951      16.224136687400048
   759   3      16.291082365833645      10.061836889691019      18.394017153125006
   760   3      18.281934437636522      8.0817612372322394      18.448089833432409
   761   4      16.060739135949262       8.192984101211481       19.94945818180258
   762   1      18.216237685419355      10.077318575695317      22.252420407393927
   763   3      18.463203495922127      10.132914629473161      20.252260550731155
   764   3      16.154605856322465      10.108136868889444      22.426711923924405
   765   3      18.440495664749672      8.0367323022379296       22.30449675671689
   766   4      20.091850196444774     0.17075484801882229      11.816666379755983
   767   2      22.306558621168691       2.023426618164196      14.028013393510658
   768   3      22.227268923850708      2.0680594740808194      12.173622172344928
   769   3      20.308432809428385       2.103690139439772      14.331864750804268
   770   3      22.279042345344131    0.095790530494869602      14.374935608099941
   771   4      20.408608113118103    -0.22260186525259895      15.951448152158516
   772   2      22.225809921089503      2.0227617823056434      18.171126866880744
   773   3      22.381604824218012      2.0974837826288901      16.304849556166641
   774   3      20.321796438209748      2.0390753724541502       18.37274877986103
   775   3      22.388153314236604     0.10399428296139127      18.387876979683828
   776   4      19.889553270135821     0.22498508529664984      20.143127157884269
   777   2      22.221243740423549      1.9873176659531357      22.253595691248467
   778   3      22.291659921690979       2.146109339098901      20.365912682372425
   779   3        20.3371645768358      2.1735850323706463      22.441437407517547
   780   3      22.322988471223944    0.095099135938507731      22.403107218663248
   781   4      20.077824270138329      3.7651789974097025      11.804631340680439
   782   1      22.235272010813983      6.0748270585840176      14.093333823401528
   783   3      22.273513781017115      6.1208572274557147      12.082821650297992
   784   3      20.217798847784245      6.0890360245733612      14.440755259435168
   785   3      22.262158038601829      4.0166556878684361      14.406044663781378
   786   4      20.278937629862366      4.0879256185511501      15.836335023893632
   787   2      22.205606220564079      6.1173408062858519      18.177779596883667
   788   3      22.404371163529174      6.0871491561354212      16.301219901664378
   789   3      20.264995072081128      6.1376647807194304       18.25749961991637
   790   3      22.336476835834599      4.0933544626221581      18.376323889983855
   791   4      19.941278716806465      3.8470088724671903      20.109911585685722
   792   2      22.170883847388122      6.0330522430752715      22.255825779248454
   793   3      22.241853244012852      6.0656620941885544      20.387054898457958
   794   3      20.306727935091573      6.0185944360683603      22.538443226164084
   795   3      22.444698914082231      4.1177189100530232      22.507260829204011
   796   4      19.982407083445263      8.3615142361689525      11.946615895717681
   797   2      22.309984791823254      10.097832574666135       14.00822965512665
   798   3      22.273303665660343       10.13716641867345       12.11852772816356
   799   3      20.333200994303887       10.07594486841087      14.325769080369588
   800   3      22.334706878040986      8.1515392741860211       14.35799798006799
   801   4       20.23860320371967      8.1173786303130324      15.786062484628886
   802   2      22.305556487051099      10.159060310482875      18.105172500052294
   803   3      22.351203078097289      10.117714952968246      16.248912363941958
   804   3      20.296717043454013      10.070274588122988      18.278230240092313
   805   3      22.333440875788298      8.1019750026276043      18.371986552213901
   806   4      19.951602327324188      8.2821294333099083      20.176837485416964
   807   2      22.239508710986168      10.025927707574038      22.225900618909929
   808   3      22.229970783050799      10.104338854842176      20.359159675029279
   809   3      20.365824506451936      10.158880586855917      22.493445601469656
   810   3      22.360372157407653      8.0875440299727011      22.469750291488275
   811   4      12.469782325977596      12.224507025187494    -0.24733386862086484
   812   1       14.17462674024353      14.086299825216431       2.006290375699991
   813   3      14.170188160464351      14.275874608973737   0.0025448576466238142
   814   3       12.12197211739535      14.261496974584865      2.0689258947602536
   815   3      14.068227799062017      12.074275731764043      2.2488879489741755
   816   4      12.084450755703614      12.211658609153188      3.6540893841703252
   817   1      14.060779488594692      14.136500784354238      6.1055929589265396
   818   3      14.194786739636424       14.23821908634036        4.06107088153896
   819   3       12.04718962361272      14.365434900888602      6.1816415124529485
   820   3      14.378888184479647      12.115227914871664      6.0892468314522823
   821   4      11.845902147512954      11.921470668449656      8.2295425849383648
   822   2       14.05422754051415      14.144209298505679      10.103266864356778
   823   3      14.365693937412075      14.217034066112346      8.1903555925268972
   824   3      12.190780621319446      14.234656187247428      10.062146023572945
   825   3      14.303290695037525      12.244686142903658      10.244920580736331
   826   4      12.339507929406015      15.724242294217406    0.098361029563479724
   827   2      14.309795616169842      18.176102672915469      2.0516879972474587
   828   3       14.09279850651809      18.346711477483765    0.011531037993628944
   829   3      12.106615158147985       18.33539964380175      2.0493778870580748
   830   3      14.137481204753906      16.278199361506797      2.0138473872410221
   831   4       12.26597880169874      15.773577261374692      3.8312779834579649
   832   1      14.126670192240525      18.253942647556546      6.0102920368437101
   833   3      14.093128487444851      18.402152774768243      3.9731304605799069
   834   3      12.064700104576183      18.242113378659461      6.2947821629001375
   835   3      14.239395439612295      16.232540458239839      6.1599349763563067
   836   4      12.255674945714521      16.183815290766141      7.6940990312841926
   837   2      14.130192026519801      18.247241593027201      10.034062202394363
   838   3      14.214495458321718      18.231939625912709      8.1518650631827221
   839   3      12.187492187976938      18.277091905039384      10.167176340508783
   840   3      14.307797770653089      16.199120951564304       10.22549930784986
   841   4      12.203369013631098      20.004240084201026    -0.21051653770121759
   842   2      14.184647967666745      22.323400228602587      1.9159272212060645
   843   3      14.174997510955704      22.377278464670713    0.046935200694531228
   844   3       12.14475968627541      22.514832716918161      2.1066049774310671
   845   3      13.957751721431263      20.348072326300844      2.0159000399178302
   846   4      12.314251931646508      20.071986295313167      3.8452656252713129
   847   2      14.102953345076708      22.296050196411354      6.0696393821689094
   848   3      14.052464109684307      22.204263080335057      4.0955648010026273
   849   3      12.152674994221975      22.467641868762932      6.2630871185543002
   850   3      13.986001294941033      20.294132996274307       6.285511359212399
   851   4      12.147271223309817      20.071144650663612      7.8767509970444998
   852   1      14.158256098562726      22.219851507048656      10.132298995948346
   853   3      14.399177901723283      22.351809966367014      8.0911849088636352
   854   3      12.152888932761849      22.364038493471842      10.125034364994757
   855   3      14.311413738738125      20.185281098212876      10.207840582018015
   856   4       16.44730993710504      11.688001414208591   -0.052511185723168111
   857   2      18.134672864771002      14.116429851529547       2.147043939217379
   858   3      18.208023741480435      14.410125164203784   0.0071118858042313309
   859   3       16.23540304000954      14.243808923548823      2.0585105595475293
   860   3      18.292523629496575      12.220039024239506      1.8967213151844617
   861   4      15.764534506141491      12.348617539403584      4.1008546114465547
   862   1      18.228936498454168      14.149041521565026       6.051571931023827
   863   3      18.381081583487145      14.195857489016232      4.0248049955197311
   864   3      16.204108975800153      14.264363593997242       6.074507982279699
   865   3        18.1854288348841      12.111303233845687      6.2405162572215254
   866   4      16.071659415226108      12.335019289558927      7.7385383744787335
   867   2      18.127641089631645       14.18106568974232      10.062548425065152
   868   3        18.2257048165573      14.332202725848921      8.1611667976882956
   869   3      16.242334146044684      14.246157648317395       10.32182655549258
   870   3      18.344912568814603      12.235093138912843      10.163480067263585
   871   4      15.978284678760156      15.735178277140554    0.020548791267963083
   872   1      18.164809061297284      18.202005628638883      1.9992532602115758
   873   3      18.386984314330597      18.182951429142147   -0.062208905310508107
   874   3      16.158555635482614      18.398561002129924      1.9337783203888073
   875   3      18.438853161970702      16.175158599785991      2.0709612012029339
   876   4      15.826755856646404      15.877532018451271      4.3377033676056449
   877   2      18.061398786259396      18.239427478106386      6.0647793582068878
   878   3      18.430358717636111      18.330402709539626      4.0823929217404435
   879   3      16.195154224575532      18.383543127621564      6.0648112347328942
   880   3      18.350284776876908      16.283114886549768      6.0185732696847465
   881   4       15.94270661500353      16.028972360163682      7.7541049363648824
   882   1        18.2052584488424      18.216329428992474      10.066800413328799
   883   3      18.356018202543673      18.240379370890047      8.0335832097653075
   884   3      16.189177165358718      18.220326916493658      10.363546628754003
   885   3      18.343795409837902      16.173869567182539      10.320916528268731
   886   4      16.208394854140014      20.173538317107223    -0.13785449827963947
   887   2      18.265913473964201       22.24867828357511      1.9859779858868043
   888   3      18.053439689266966      22.537157413236347    0.047192106988520111
   889   3       16.12749380297609      22.196989976271553      2.1963463876631524
   890   3      18.260096257212325      20.316160336272741      1.7867139979018027
   891   4      16.236593203696312      20.484424177532343       4.071471952969115
   892   1      18.157483407669531       22.29092905464071      6.0421915650893414
   893   3      18.244618925779257      22.017546142638679      3.9681022026357353
   894   3      16.126842853857031      21.942972067628407      5.9451626922741152
   895   3       18.46401653538544      20.207334126630627      6.0805592684264687
   896   4      15.949480636500944      20.400336332872882      7.8720030788774169
   897   2      18.195485724178784      22.288356222192768      9.9213717311002512
   898   3      18.063178420022062      22.247626932129094      8.0759800700845723
   899   3      16.288396921521926      22.225392604867277      10.372764034838664
   900   3      18.314317961191584      20.320735712193482      10.237122792820058
   901   4      20.006066743533054      11.820130823299946    0.098379524196745061
   902   2      22.254389310915222      14.097684214709835      2.0346562590490662
   903   3      22.478682205453978      14.336564770968739    0.075193012120133421
   904   3      20.327942627444365      14.221138533648931      1.9123929128541102
   905   3      22.393416743477705      12.228069429138243      2.0035701649491315
   906   4       20.20192240756969      11.766395116426368      4.1201929416608811
   907   2      22.181587897331919       14.10076479237884      6.0282852941145393
   908   3      22.242923221204386      14.255305522831225      4.0907231909502002
   909   3      20.319715195497359      14.256321829936137      6.2480616185141669
   910   3      22.368500496716916      12.242979163110791      6.1136237659318011
   911   4      20.038980013376289       11.85100234348061      7.8975018812171456
   912   2      22.219530097307999      14.048457618740812       10.08755176039349
   913   3      22.491452669121625      14.335547542100356      8.0974853279163774
   914   3      20.323217079317764      14.292713185749001      10.026427815819686
   915   3      22.333502727120514      12.183529561452772      10.130565751154695
   916   4      19.937388772249221      16.096078546195351     0.15959555409714263
   917   2      22.228141772119713       18.22721156871097      1.9155165220945762
   918   3      22.425355569307371      18.257409751647621 -0.00074613073684764097
   919   3      20.312835666440311      18.348255636862977        1.98439188416959
   920   3      22.299340463825427      16.270298303600306      2.1638159568285866
   921   4      19.860248824811201      16.261626827772456       3.957002748918919
   922   2      22.297298719149502      18.156398805851182      5.9743605868039857
   923   3      22.231225947063287      18.395367747260128      4.0819758250342515
   924   3      20.357647042634301      18.257868676452407      6.2172334349013356
   925   3      22.407342720468012      16.268474961409034      6.1559466312846425
   926   4      19.907024615516772      16.132566682908571      7.9437366840854766
   927   2      22.228503373808984      18.149792586615312      10.042600200272446
   928   3      22.447085459292961      18.365223255269211      8.1282134370515937
   929   3      20.335792212234221      18.386236423551193      10.105440530005497
   930   3      22.322233205480515      16.280599703346535      10.049117558406659
   931   4      20.014033010729296      20.043322063914694    0.015117635446133801
   932   1      22.237989761977047      22.234060418471977      2.0751436975204562
   933   3      22.418017368661626       22.40005593588139    0.033961110409731411
   934   3      20.182532169268164      22.371592884740373      1.8950975902647047
   935   3      22.482147941664046      20.214845270273944      2.0081983253883013
   936   4      19.949681131935616      20.183869930868489      4.0563780363684847
   937   2      22.092817162474475      22.281316856612996      6.0319510758729384
   938   3      22.325990758870947      22.298700892493226      4.1125061001558674
   939   3       20.23196280254199      22.466152514063669      6.0710483410507035
   940   3      22.215438438144517      20.321573787071994      6.2319863820828596
   941   4      20.001622717136069      20.052508613627154      7.9360610620555008
   942   2      22.251539285591026      22.285351130743777      10.178246185347298
   943   3      22.503185391332849      22.337125691316245      8.0643307043035595
   944   3      20.269374651993839       22.30604938633811      10.015908969057646
   945   3      22.409083362836554      20.281508958812299       10.11759396318137
   946   4      11.810369007285015      12.117360834056614      12.067148671072792
   947   2      14.135911609522189      14.227491867982108      14.119900444766659
   948   3      14.126229355196621      14.249613916934518      12.194308780911129
   949   3      12.269934251957674      14.155608971945803      14.388513818904178
   950   3      14.329537729682983      12.183527695268593      14.238327274529645
   951   4      11.856250962660374      12.311410781351801       16.04350561740733
   952   2      14.116528558134284      14.173317090394043      18.277318266440652
   953   3      14.551900510124026      14.160711917236034      16.162229802796098
   954   3      12.237473463368008      14.088772130028644       17.98056882389486
   955   3      14.469564824963159      12.180971347468137      18.104681166583187
   956   4      11.991654110380216      12.151891420936007       20.11891705383939
   957   1      14.191891923062618      14.134928445853635      22.205860264301691
   958   3      14.056688771659079      14.084858097647123      20.175311409404937
   959   3      12.119352383460621      14.124161626666048       22.45710908845669
   960   3      14.144494246539626       12.09305675087562      22.400105583970014
   961   4      11.796302833157542      16.171659054822399      12.198471319038104
   962   2      14.100802075675773      18.269618940921191       14.13593093783008
   963   3      14.207755458624833      18.141213504805886      12.226630737168794
   964   3       12.24051474475425      18.223402849972022      14.334494500403391
   965   3      14.303368052382169      16.197337955043363      14.300410402989852
   966   4      11.738012749049922      16.245802555118058      16.222014709851774
   967   1      14.163431453115555       18.17224161791232      18.203780735008568
   968   3       14.44852984891876      18.211051602624259      16.141969750668572
   969   3      12.151254166433302      18.329885567935509      18.166961473730101
   970   3      14.405873304532934      16.132453878650672      18.161961670466805
   971   4      11.741115708299324      16.270622068967132       20.21546505827569
   972   2      14.110102682857496      18.083539671217345      22.229564435799325
   973   3       14.21645323071122      18.343552121686102      20.323930488277391
   974   3      12.201895372600829        18.3493795328706      22.291559839092709
   975   3       14.19522920361814       16.23247550942607      22.306952167010884
   976   4       11.83364574035066      20.483068693673381       11.95364120493411
   977   2      14.080217558144016      22.282632221493948      14.135358858321409
   978   3      14.230359087806045      22.283023040447443      12.223117253156692
   979   3      12.202825474486758      22.323627159166847      14.322437620471693
   980   3      14.369877839904609      20.232572931673438       14.23187310090378
   981   4      12.031461075175827      19.894401933882275      16.462113580439066
   982   1      14.126563965053725      22.237191761689935      18.166450454880664
   983   3      14.470496114021955      22.274858407707079      16.152656134978486
   984   3      12.061715583846961      22.450063267602729      18.220588999784827
   985   3      14.373000305817152      20.236612625642032      18.161743497317513
   986   4      11.995645558177392      19.811529825085696      20.005884848871563
   987   2      14.163290442484479       22.25409998789339      22.125473576339207
   988   3      14.053902151219125      22.291442563300695      20.263762133612655
   989   3      12.153137983077807      22.395722876261644      22.441795077835913
   990   3      14.177649796785294      20.321370999686447      22.452193285957456
   991   4      16.156937483049056      11.938443319031837      12.060532341460265
   992   2      18.175513635532617      14.096883837305286      14.249166824377578
   993   3      18.560286398589632      14.166056443643205      12.152102378681233
   994   3      16.283903153486371      14.218949829021076      13.962954534310564
   995   3      18.398997750200461      12.183384420269013      14.154002503510462
   996   4      15.944126163385853      12.146076272615581       16.20258360944857
   997   1      18.248026326070644      14.156878357197055      18.154089752851618
   998   3      18.108239871622924      14.263586567145685      16.136846348739454
   999   3      16.253178572410263      14.174698075953364      18.510314088874669
  1000   3       18.24748869667577      12.080094543576124      18.334450861548611
  1001   4      16.166467244558181      12.206913162829338       19.87686094406336
  1002   2      18.160428917019257      14.052229284789238      22.261755218725451
  1003   3      18.468264717464077      14.114689416095825      20.364004123609941
  1004   3      16.276555206178433      14.293287204025845      22.244687795031059
  1005   3      18.235934979118241      12.168745148063746      22.454627751928737
  1006   4      16.156377526231172       16.33543291498663      11.832636135577381
  1007   2      18.196111927938848      18.172652041402394      14.081825215931067
  1008   3      18.459933458808663      18.359920577354583      12.217226623771277
  1009   3      16.308857088255756      18.144694377578727      14.107299402154402
  1010   3      18.477522585212945      16.241614211836495       14.10876967137615
  1011   4      15.920691116146401      16.231822227865784      16.226064266308803
  1012   2      18.290176905426602      18.160033173073426      18.116206412457871
  1013   3      18.259428759667582      18.157686349803615      16.229998578369742
  1014   3      16.335044367584985      18.218806688748014      18.433205455858303
  1015   3      18.287918466037134      16.258264936867672      18.493591922698371
  1016   4      16.185343385777728      16.053907442421281      19.915793911254095
  1017   2      18.130553340693769      18.121261212967891      22.275476984890627
  1018   3      18.340292810863414      18.472456787345156      20.366331122128042
  1019   3      16.209539795993727      18.353029580281447      22.387059772806175
  1020   3      18.349271648182715      16.247782460429367      22.190624353960086
  1021   4      16.140815827227833      20.200487132726693      11.773775335145144
  1022   2       18.28386109367792      22.146002623948256      14.088287439868591
  1023   3      18.464484088723449      22.222549731722903      12.217334199259907
  1024   3      16.340652703130583      22.420518592768339      14.136402911432224
  1025   3      18.299680276704152      20.242007052743592      14.334037842558583
  1026   4      15.813260204907865      20.212856028033102      16.329312274214242
  1027   2      18.166283503715341      22.250970909256946      18.138202697359759
  1028   3       18.18793266437579      22.460096523703456      16.263058161177192
  1029   3      16.272398909761115      22.373331585483463      18.420089420468852
  1030   3      18.257202747949904      20.296744919298483      18.267096244601575
  1031   4      15.923611278126193      20.104184612599752      19.899485758303239
  1032   2      18.279217763294159       22.28116809253223      22.208522935723984
  1033   3      18.333948713349908      22.152346250742912      20.320928073691636
  1034   3      16.145974506776408      22.301831660264302       22.34753785879661
  1035   3      18.175609282234745      20.314024805624761      22.611524438109853
  1036   4      19.906830769224491      11.947056011767909      11.992855257481237
  1037   1       22.24873875873708      14.121679898550285      14.049290432183374
  1038   3      22.300679874898481       14.36409617173957      12.017098629966823
  1039   3      20.265518582546605      14.218948539176756      14.400017636718305
  1040   3      22.220717074672908      12.082051755789871      14.315288775843438
  1041   4       20.33889762022077      12.177528961593897      15.771486651423642
  1042   2      22.234325530350084      14.231031610885411      18.130076176590681
  1043   3      22.389726804567605      14.143889322123455      16.251350784768828
  1044   3      20.291670745850585      14.114832640483627      18.310144566307653
  1045   3      22.288181876153438      12.105250813739097      18.395703702907419
  1046   4       20.00856105773553      12.081031387763947      20.020350105737926
  1047   2       22.21519817785391      14.031056596532775      22.285484489492703
  1048   3      22.165793347696813      14.187992499032758      20.380107614276305
  1049   3      20.293972496860935      14.199693989638005      22.515539269573516
  1050   3      22.421502750209985      12.142413494968833      22.441136830638587
  1051   4      20.095730675244344      15.986073505085116      12.016472021196835
  1052   2      22.338058109777105      18.210603921537658      14.090175912875917
  1053   3      22.241056884244209      18.297146665045865        12.1528772524714
  1054   3       20.29916015255343      18.320869430399497      14.348719738161043
  1055   3      22.228336558513671      16.275096362736349      14.277515852420422
  1056   4      20.409791369698528      16.075936005965723      15.865552541917083
  1057   1       22.30207893649213       18.14624759167808      18.202186915498139
  1058   3      22.337578827263197      18.364263261300948      16.187447453622973
  1059   3       20.22272677970696      18.351119949199273      18.380735200389353
  1060   3      22.190937257468654      16.123510026400904      18.343094725977846
  1061   4      20.192144635175644      15.967496226093431       20.00896641181086
  1062   2       22.20782204539357      18.177252691776918      22.190240762309887
  1063   3      22.273067244703753      18.383346070421023      20.292901534515874
  1064   3       20.27998561288268      18.439046606028093      22.313679284493329
  1065   3      22.249547039508265      16.266053480376993      22.319431778265997
  1066   4      20.126741633354481      20.133652366012434      11.848481952297162
  1067   1        22.2797130205524      22.264535579645806      14.090183521470706
  1068   3      22.181070627563518       22.28858729197951      12.079600296623461
  1069   3      20.231154736103047      22.308724500308823      14.475558553279493
  1070   3      22.286986452877677      20.248360381296742      14.351307841181001
  1071   4      20.528579978213433      20.092402103420344      15.974949001010119
  1072   2      22.208449966319737      22.204289470493393       18.31945139221293
  1073   3      22.362609674523611      22.461027732553319      16.350840009145486
  1074   3      20.276474841750236      22.386715823987011      18.292891794597494
  1075   3       22.35544623865535      20.324972611013276      18.272615644035717
  1076   4      20.213817372038257      19.999014223045393       20.10737835536197
  1077   1      22.237709369847718      22.242598216643948      22.250335309216755
  1078   3      22.419500525329774      22.373698144054408      20.251008538684484
  1079   3      20.180921266495528       22.30991278857114      22.521507441962164
  1080   3      22.468170282113377      20.217388150188224      22.371799048160209
