(written by ASE)

1080 atoms
4 atom types

0.0      24.299999999999997  xlo xhi
0.0      24.299999999999997  ylo yhi
0.0      24.299999999999997  zlo zhi

Atoms # atomic

     1   4    -0.25933522926662217    -0.26254436826727989   -0.063667218934950448
     2   2      1.9887457470912422      1.9386160227942784      1.9523686865271426
     3   3      2.0373664773660818      2.1522615278587791    0.065518826733655736
     4   3    0.078585392851943145      2.0966206530437037      2.1269682520133588
     5   3      2.1835820725690467    0.052423384697548203      2.1363742389169005
     6   4    -0.31436432567736555    -0.17939432345952938      4.0679659889195356
     7   2      2.0123267581185322      2.0025641851374321      5.9780409585033167
     8   3      2.2293372812303525       2.099306916082047      4.0559906143382429
     9   3     0.10957411337777108      2.1055759398053895      6.0306220927300345
    10   3      2.0627801869515601    0.022919417423779297      5.9497875170096854
    11   4    -0.37011823321459558     0.10469219290926844      8.0207495759945253
    12   2      2.0497860332079942      1.9884498084598468      9.9566192321650853
    13   3      2.0809369119539576      1.9810018218361909      8.0604224275707548
    14   3    0.057528029209316781      2.0906869668479473      10.265064055391278
    15   3      1.9252918103534438    0.058336642158246597      10.259956910733543
    16   4    -0.17196824517698492      3.8574771938244665   -0.014334195116094271
    17   2       1.916671176614285      5.9631229849265655      2.0616219659521642
    18   3      1.9919231693914941      6.1683894220604261      0.1089922658757899
    19   3    0.051511414451090851      6.1374226446854827      2.2253368945340615
    20   3      2.0821629573296856      4.0795526987670581      2.1277031450898836
    21   4    -0.32597591724955949       3.977474911850857      4.1885867932936725
    22   2      2.0621950407466851      5.9703197902990466      6.1618224309853327
    23   3      2.3155944828177843      6.0860037366814597      4.0258934300410116
    24   3    0.083691648458784448      6.0408629659884223      5.8399458888175664
    25   3      2.1822720971963383      4.0243145779157645      6.0718831723475128
    26   4    -0.42480499406750027      3.8207355662638451        8.00629242256759
    27   1      2.0508642242466024      5.9710931183967588      10.091557830172395
    28   3      1.8962770969784977      6.1642755214876388      8.0543231202403316
    29   3  -0.0091773608096178509      6.1010741287321979      10.210379252104367
    30   3      2.0352733747397682      3.9603805137189556      10.290851591541427
    31   4  -0.0076105492912842696      8.0050796417672156    -0.18545856970807845
    32   2      2.0660270620749532       9.978542896732316      2.0668505907217862
    33   3      2.0149515441591936      10.198246097434824     0.11531279994846391
    34   3    0.059823175215739578      10.276223178604468      2.1109569836468149
    35   3      2.1025400115907456      8.1062880447218415      2.1202786086975913
    36   4    0.044149628599694554      8.1493495806561977      4.4859253967954729
    37   1      2.0485367809373987      10.039693858610759      6.1041064776652467
    38   3      2.0999645803831499      10.335295425967933      4.0236138978674134
    39   3    0.021894371855278295      10.234953368771246      5.9685889967539216
    40   3      1.9638243949127281       8.029777365919827      5.9015854753971855
    41   4     0.11053567783837977      7.7919322605245256      8.2257552366744946
    42   2      2.1468952152169236      10.041748448197721      10.076870194237662
    43   3      1.9462642480637793      10.242323298468474      8.1730474847092989
    44   3   -0.030494821666738194      10.334703244472697      10.154757221015355
    45   3      1.8175719120710181      8.1603625018756514      10.123660467666019
    46   4      4.1284567628030544    0.064526080963862378    -0.30210001195359615
    47   1       6.058288076707667      2.0054206834436008      2.0261949754807862
    48   3      6.1838555950243768      2.1941421518694133    0.025348949735986906
    49   3      4.0237968615781421      2.2240372918883846      2.0104078730553967
    50   3      6.3327190077809394   -0.045803273754207223      2.0089294319221698
    51   4      3.8993973594329803    -0.10930874609467277       3.978338470890499
    52   2      6.1746216962228608      2.1012406619926089      6.0180034794195292
    53   3       6.002356514733771      1.9233485427215127      4.0927530622764365
    54   3      4.0703802626547585       1.847467425574534      6.1557118438002201
    55   3       6.180862713818617   -0.012557150365283874      6.2725882011039014
    56   4      4.2965711505092319     0.25749430924654992      7.9404021399993825
    57   1      6.1063909920345028      1.9483661587173782      10.078907679665026
    58   3      5.9703752352892456      2.0816642642913661      8.0711483314894661
    59   3      4.0009544353403808      1.9465099777821984      10.219109062177312
    60   3      6.0013456841578412    -0.08976478157648686      10.148829510885214
    61   4      4.2159934193025483      3.6700672688479399   -0.032991539932284882
    62   2      5.9579989338636672      6.0952344364936915      2.0022243524562682
    63   3      6.2991503831660296      5.9982352330642339    0.060521940746382452
    64   3      4.0792263177265102      6.1526765337133389      1.9438395203448084
    65   3      6.1659631246391911      4.1335952056816696      2.2608881663677738
    66   4      4.1478133888156528      3.8170780831333477      3.8616354917851248
    67   1      6.0816756303204587       6.033350254531185      6.0366303059739037
    68   3      6.0121561457592341      6.3128745451990476      4.0168456986362457
    69   3      4.0246970337388461      6.2641207503292033      6.1495466646730286
    70   3      5.9043957066787947      4.0043847619837516      6.0140821356569587
    71   4       4.582796660923421      4.1554426048747253       8.223543575555464
    72   1      6.0935123266536282      6.0517882198546245      10.170937662277261
    73   3      6.0524660589357646      6.1156947764385636      8.1043762897658773
    74   3      4.0303838206334888      6.2514372291725886      10.113813714167382
    75   3      5.9728645308068939      4.0375208100657227       10.21078629310937
    76   4      4.0035928476498501      8.1180611065236903    -0.26959490886059251
    77   1      6.0811977945704863      10.066406735497603      2.0413638409428416
    78   3      6.1673677310101578      10.250331205049969    0.022692013508846063
    79   3      4.0245497012799651      10.301719201245506      2.0521756981653958
    80   3      6.3448987053945052      8.0539635394310292      1.9653466399591404
    81   4      3.9534526287237184      7.8086686352037518      4.3195579043152135
    82   2      6.0051520878074278      10.073716396927823      6.0349886202071907
    83   3      6.1501440924715203       10.16133603155293      4.1191077194330488
    84   3       4.077121442595633      10.239195807142615      6.0754485139973129
    85   3      6.1713307877991195      8.1790707555174968      6.2104600562781629
    86   4      4.2478119334988307      7.6758043596848387      8.2462547432873929
    87   2      6.2312782891898095      10.071747424376539      10.179002260973547
    88   3      6.0392184097259838      10.319144586502398       8.144155880858186
    89   3      4.0186145516663672      10.134986519466967      10.150862832083673
    90   3      6.0908555197222745      8.1583299693216276      10.049060508867075
    91   4      7.7931217165027098     0.22937319846355966    -0.21772863618378335
    92   2      10.066870900816745      2.0292002341610758        1.95399837778259
    93   3      10.099627567050391      2.0649692456726227    0.095288124652051401
    94   3      8.1665366955985181      2.1381524251124415      2.2464575235904367
    95   3      10.123147400468424    0.088401098128612993      2.2705646199653309
    96   4      7.9488637649354814    0.057041265321851768      3.7815929323890871
    97   2      10.305761563479546        1.94949676466567      6.0627495075584612
    98   3      10.174812005187878      2.2056313666965743      4.1317709094199246
    99   3      8.0782535311569372      2.1509434038292725      6.0622573376094273
   100   3      10.034237872189227    0.032601471637921334      6.0207429960617622
   101   4      8.4273113213129509    0.038900034215774898      8.2888944370813196
   102   1      10.152253584022588      2.0056471671176395      10.111718302298959
   103   3      9.9062053444020783       1.954316282193814      8.0482779642621054
   104   3      8.1083414369721059      2.1429672607429953      10.130910883244507
   105   3      10.047670068247205   -0.023067227747219449      10.162749834909322
   106   4      7.8215192070389117      3.8704633921717924    -0.21420076658191614
   107   2      10.099580806698949      6.1021956924505183      1.8779509793260063
   108   3      10.044465219038582       6.163731769785576    0.036250731224835846
   109   3      8.1888164469309519      6.0209192838867889      2.3413437437384439
   110   3      10.212752547417008      4.0896119917648956      2.1819798787171942
   111   4      7.9955157209646783       4.012811109652441      3.8281915952441459
   112   2      10.028962884570886      5.9413364990455371        6.08291281296653
   113   3      10.298991759765228      6.0125830226550034      4.1836845597143135
   114   3      8.1497298176566861      6.1691630668306345      6.0605269970688251
   115   3      10.154725987372169       4.058677405705752      6.2873916713864464
   116   4      8.2403798660308833      3.6685216294922598      8.3510174432255138
   117   2       10.02433142991609      6.0890721301094004      10.212057945947356
   118   3      10.051748031263234      6.2746702119296955      8.1224919347384255
   119   3       8.130119677645931      6.1231528670569215      10.227975294261913
   120   3       10.22339474757854      4.0982534907518584      9.9927003712151325
   121   4      7.7351512013591543       8.281571251483717    -0.12644618419437467
   122   2      10.140890997138937      10.135661293666633       1.923869606368112
   123   3      10.178079545660857      10.104728235142778    0.054222056276365629
   124   3      8.1943721893303785      10.179980854092273      2.1735670813542067
   125   3      10.108674651054246       8.087650789766899      2.2620327795916846
   126   4      7.8530798985971213      7.9689690735752565      3.8652042960371631
   127   2      10.039169253096896      9.9742968321304399      6.1071179108141322
   128   3       10.06501930767231       10.25343357809126      4.1890226208284647
   129   3      8.1120854509906053      10.270343459977555      6.2163794974405535
   130   3      10.178701382890573      8.1102017747516761      6.0983750453418777
   131   4      7.8272699807235844      7.6829362720431567      8.0821891034939846
   132   1      10.076032840021087      10.110656897809058      10.102034792305455
   133   3      10.269255498750582      10.222909673166573      8.0658936615074879
   134   3      8.0808922902807439      10.224282484582233      10.086712684234158
   135   3      10.339385433530015      8.0675304691564271      10.221057004647692
   136   4     0.05437567747106422   -0.073703307000489646      11.739640167247442
   137   2      2.0612141780171611      1.9249811021864787       14.08632866512654
   138   3      2.0214285333286326      2.0159939521180656       12.21654388576653
   139   3   -0.012299520789293496      2.1300993680584543      14.257774784276283
   140   3      1.9717790459372504    0.031980182300413891      14.305148172506094
   141   4    -0.13408318405171457    -0.28377706808857861      16.008423582449499
   142   2      1.9532991629012941      2.0254158305202838      18.097141713405982
   143   3      1.9176043376873286      2.1218443211405367      16.231128992808586
   144   3  -0.0095849164794064908      2.1418271675658627      18.463744933357503
   145   3      2.0036481277556555     0.09441397596356868      18.394929653505773
   146   4    -0.13212013788772151    -0.20202040448415742      20.126123254227871
   147   2      2.0044540853052948      1.9784199850408213      22.187293240286849
   148   3      2.0794210706691914      2.0540781494304747      20.334853531254822
   149   3    0.053942160740983548      2.1117568472305477      22.414743934172872
   150   3      2.1583872844264009    0.066550434077195769      22.461018228228763
   151   4     0.14064020020385892      4.0098911314393044      11.726459815104803
   152   2      2.0754559049203278      5.9361652583166356      14.149589380828724
   153   3      1.9857183527147684      6.2231334470251412      12.204475043753213
   154   3    0.031322084523619273      6.0583084864098469      14.282922059271572
   155   3      2.0093375166392229      4.0410835588747318      14.211332351208368
   156   4    -0.16223761872113859      4.1633821066136498      15.877743513246291
   157   1       1.957596553653197      6.0230385602979783      18.171343579840812
   158   3      2.0033589280892872      6.2167745102128489      16.138892526252377
   159   3   -0.083447779792830662      6.0619279368242562      18.466987048255923
   160   3        1.99484741464626      4.0147453185278961      18.452077026711887
   161   4    0.022481901220070162      4.1245893114195704      19.929162730091619
   162   2      1.9655328800130438      5.9878770945978115      22.284217802835808
   163   3      2.1120535421835793      6.1529783085083247      20.403567677463613
   164   3    0.049358383096272308      6.1956146763478293      22.388916251934187
   165   3      2.0390341153591862      4.0870801293175925      22.410605887022069
   166   4     0.20072167889623843       7.832632867892551      12.011716181861454
   167   2      2.1323904160824529      10.047001004549532       14.24269654599162
   168   3      1.8418952338289265      10.148789604913157      12.113129179794514
   169   3   -0.042163076853505038      10.209166107963133      14.177962665037775
   170   3      1.8177949895441139      8.1227860371230047      14.161022293127555
   171   4   0.0019754949921201846      7.8837406364307956      15.904624105346066
   172   1        1.96406406313606      10.085607420704665      18.141772206290181
   173   3      1.9910350645095518      10.189394085900288      16.121628786410422
   174   3   -0.080951593755428819      10.111357649742702      18.432321621482096
   175   3      1.9899128950215443      8.0789811606867055      18.353572806707444
   176   4     0.15990643385209735      8.0816362453169628      19.836497385821229
   177   2      2.0458728738823084      10.177816832524229      22.179750908185699
   178   3      2.0148012383068226      10.068968252355488      20.314764256064763
   179   3    0.032102073888149653      10.059207965835494      22.502299765903103
   180   3      2.0930824061818734      8.1034210553404016      22.517434012010334
   181   4      4.3936999446493656     0.21580068880247719      11.948348463670428
   182   1      6.0836342847875589       1.990511143347641      14.142281659188818
   183   3      5.9505989412651168        2.06444997334988       12.15490998755063
   184   3      3.9575314174657139      2.0134713938243998      14.366997116558206
   185   3      6.0298297023833092   -0.033062378197114065      14.363301382936195
   186   4      4.3310786287093048    0.010137225456332657      15.975821899103439
   187   1      6.0479748144225693      2.0387740189856234      18.175735468541259
   188   3      6.0656984761134547      2.2273887096093246      16.182215907037179
   189   3      3.9545674134964326      2.0859536184159371      18.306262745026849
   190   3      6.0657058188149984   0.0090735220866057491      18.318931218791985
   191   4      4.2311900961209776     0.22484109570174285      19.922101802428269
   192   1      6.0324368808849105      2.0510949147567783      22.238887120823165
   193   3      6.1718704075811521      1.9682592995049115       20.25326205241446
   194   3      3.9911885060489909      2.0811706517285731      22.522295825985307
   195   3      6.0764677796451858  -0.0074476440094234609      22.508737939027387
   196   4      4.3033920447131182      3.8699582007095579      11.820605217984816
   197   2       6.189955033516032      6.0040857841273709      14.190667535832869
   198   3      5.9781912285526415      6.2866990744476281      12.199162980664484
   199   3       4.003259500939671      6.2916698260629955      14.178226852067718
   200   3      5.8898647513328388      4.1007196967355952      14.179751829575586
   201   4      4.3608754770577169      3.7879692309500759        16.1305010657066
   202   1      6.0769632065324934      6.0825534565698431      18.187680825627016
   203   3      6.0521801865995748      6.1757334689648786      16.154370192293552
   204   3       4.028666857454791      6.2026157613219901       18.28177662994608
   205   3      6.0239764950914729      4.0832622616166603      18.350631807170085
   206   4      4.0810831122016618        4.13212581807527      19.725946299329891
   207   2      6.0104215786444364       6.084509937298848      22.187955280908639
   208   3      6.0915006363649571      6.2469641839749004      20.311137202351933
   209   3         4.0794925561005      6.1332873300641477      22.490059579764473
   210   3      6.2034432614177017      4.1441544884142827      22.282509351948327
   211   4      4.0880167223908943       7.707620306814805      11.974641381242924
   212   1      6.0135110428436107      10.069866141796892      14.208713079594167
   213   3      6.1179824378783545      10.088055014224135      12.103984891124499
   214   3      3.9994172961353947      10.129844986411404      14.029417289743247
   215   3       6.300353341799374      8.0906796830020937      14.202522592959767
   216   4      3.8547380241372702      7.6960671607845264      16.435317162917841
   217   2      5.9009699353794609      10.147559707523566      18.210030502844582
   218   3      6.2854075989448708      10.130585210009908      16.260415445455706
   219   3      4.0402660046128123      10.063366413066056      18.228723172069287
   220   3      6.2742600262120343       8.156615754608703      18.192771956324915
   221   4      3.7620412255157385      7.9312561754711313      19.875162388457525
   222   1      6.0081725111388042       10.09881147197315       22.21501896001314
   223   3      6.2557683082473039      10.073125342234633      20.197393347927107
   224   3      3.9895879106694201      10.096032705427662      22.519746819663304
   225   3       6.077573959588821      8.0646567711278312      22.509940466279705
   226   4      8.4077691494304325    -0.26217049867060166      11.862760430861217
   227   2      10.138398182404675      2.0715446432642914      14.013273350299679
   228   3      10.206044809850946      2.0960655553913714      12.139824625966387
   229   3      8.1777674577881125      2.1788760349293983      14.281901792662852
   230   3      10.114505484435837    0.094707949747792702       14.33429383619926
   231   4      8.1010462764576534   -0.066956978173445578      15.772589702839365
   232   2      10.163655038955183      2.0019255613412472      18.127883340466077
   233   3      10.082114075738181       2.132809640260267       16.24570076894349
   234   3      8.1889867354469601      2.1919782387496363      18.287381386522735
   235   3      10.086328861723146    0.092972439966115011      18.305968258929578
   236   4      7.7924631027839801     0.23392900705851988      20.014370023833663
   237   2      10.144306540457626      2.0196371903089854      22.130784871893113
   238   3      10.177754864604216       2.116083240125743      20.259925003487378
   239   3      8.1944375004818433      2.0360891001573407      22.398032826911585
   240   3      10.235487291322102    0.090331794345226646      22.388676901516199
   241   4      7.7730010373851499      3.6059999887062242      11.898534890557421
   242   1      10.088064218854992      6.0383510423169664      14.169279720420947
   243   3      10.440282897383065      6.0285025967019337      12.118817078138605
   244   3      8.0761232730922607      6.0013857072976196      14.063335057247146
   245   3      10.427963968970486      4.0282139451358159      14.189977581843433
   246   4      7.8639096183724915      3.7009501320542131       16.17550102946355
   247   2      10.047742454060966      5.9798064248123408      18.110359479544773
   248   3      10.182194747185914       6.213037423564626      16.238809323195955
   249   3      8.1808468794524423      6.0988993595794909      18.326036615371248
   250   3      10.271864061588897      4.0965391672291984      18.247942368840619
   251   4      7.6608243134708456      3.8493039924530321      20.005789707078463
   252   2      10.064864107708809      6.0225329996998829      22.108265517799026
   253   3      10.278941334984488      6.1379640018650017      20.247645430782825
   254   3      8.1312746033964167      6.2073595519086719       22.27435638523815
   255   3      10.108479015997476      4.0966203840715041      22.397568798773044
   256   4      7.7596672137297302      8.0294942429595277      12.320941049365638
   257   2      10.026917882412954       10.11969124136005      14.093808271124292
   258   3      10.369129487063084      10.164857278339225      12.178607698637846
   259   3      8.1565912060217176      10.183000807289147      14.078974206811587
   260   3      10.306189542568195      8.1597034926670915      14.119446180511352
   261   4      7.6784460176904252      8.1141295469098687      16.172669970306284
   262   2      10.114696206782847      10.035119606231307      18.103436395384165
   263   3      10.188328756721782      10.139357339146306      16.189860857089986
   264   3      8.2127737709412205      10.162539099778096       18.32172707840127
   265   3      10.166146564788475      8.1284669029566192      18.332643969805133
   266   4      7.7919950689384612      8.1274103428576741      20.044025905150811
   267   2      10.151992566039453      10.024746822300584      22.176617052837965
   268   3      10.185425872463927      10.263293499693646      20.286045751082586
   269   3      8.2066746971835922      10.114209070042886      22.375703266343489
   270   3      10.228372363249509      8.1131042685003596      22.298529782898122
   271   4   0.0031849610743778013       11.86073084337178   -0.066466642162285455
   272   2      1.9760159885589872      14.128695760303911      1.9544242004239354
   273   3      1.9298565858968808      14.410094399960188    0.061270560198828997
   274   3    0.055169875118130984      14.347322743792324      2.1859575353613407
   275   3      2.0839558708002137      12.238032597976853      2.0339726182629638
   276   4    0.012103817522833642      11.766662291873452      4.1974711130972553
   277   2      2.0632596797697218      14.157543226604675      5.9716968062474391
   278   3      2.2317856197405077      14.211050582567843      4.0654801129196052
   279   3     0.03987197908817465      14.295657563014171      6.0822899741999041
   280   3      2.0449172674606109      12.222244406894069      6.1874566387359238
   281   4    0.083719686886048014      11.781311030495122      7.7873477392837946
   282   2      1.9844284613837062      14.100881584410464      10.074531738279887
   283   3      1.8522223859878646      14.237348974967464      8.1503545693856871
   284   3    0.014685203728923516      14.299035000445615      10.236255107204149
   285   3      1.9969102867695288      12.213792089622768      10.237773201897248
   286   4   -0.082800721465525015      16.002657725003679    -0.20704850736056393
   287   1       1.994670449391478      18.254439698615634      1.9595097442948579
   288   3      2.1678468119294698      18.276512155311647   -0.067031382146517202
   289   3   -0.012566561680580689      18.209831158955499       2.260605991483537
   290   3       2.131847788140885      16.194048677083913      2.1945922593881764
   291   4      0.1781624172014557      16.390498993550196      3.7279201954323988
   292   1      1.9765615067777778      18.242938342480134      6.0566433153101791
   293   3      2.1958906863084451      18.243211365730573      4.0458016165616248
   294   3   -0.047985237465230597      18.447648155959946      6.1154054341304169
   295   3      2.0784315980347299       16.18413728008877      6.1716460330161649
   296   4    0.052333822396390228      15.990187886195097      7.8584132890658784
   297   2      1.9476134450804878      18.187851253921018      10.025925266179007
   298   3       1.983566672750277      18.450066748965046      8.1544216559449172
   299   3    0.010540469582960794      18.423400769057288      10.249510802010454
   300   3      1.9964968190760379      16.293794885555755      10.079095621341834
   301   4    -0.42174519995395143      20.417689706785328   -0.082621384019599869
   302   2      1.9857564151172125      22.191032479864912      1.9951895563625404
   303   3      2.0758434107897377      22.381955089659407    0.074535435806105291
   304   3     0.10554117535989943      22.363345350556543      2.1608040439952783
   305   3      2.1215685931188681      20.313235198981946      2.0961285862498968
   306   4    -0.13423408011577401      20.112750074743087      3.7867497306829194
   307   2      1.9518272577694444      22.272375994398217       6.174503819963836
   308   3      2.3104495208017277      22.361189181827179      4.0191787037145819
   309   3    0.070081819607656679      22.211750885986302      5.9350992715359956
   310   3      2.2482696857067475      20.351062606107565      6.0119423770326224
   311   4    -0.12279447351457068      20.145723530172354      7.8607045442875823
   312   1       2.060900981673309      22.309389717854796      10.046754104105995
   313   3      2.0000431762134911      22.303127465053464      8.0306348134115932
   314   3  -0.0060751164329239191      22.229575761776751      10.318966298764041
   315   3      2.0327150887851797      20.223030031188159      10.411641704972519
   316   4       4.209833385788583      11.745148043496672   -0.027470413118107256
   317   2       6.043916445016106      14.050909750625435      2.0985398675595213
   318   3      6.3115669791272513      14.158922730146022     0.01477292282953451
   319   3      4.0877700328110809        14.2857054188059      1.8218168027093984
   320   3      6.1151842534915311       12.17250774683081      2.1233759872428477
   321   4      3.9742754096592976      11.820934111473322      3.9697569138359903
   322   1      6.0142875894472994      14.154414397703812       6.038790274264616
   323   3      6.0069051250688048      14.357014705546646      3.9993622055417695
   324   3      3.9943453761813377      14.180052247236043       6.360132008795051
   325   3       6.084940483751951      12.137180434547576      6.2193092154365166
   326   4      4.0911795433947029      12.056933351598097      7.7567416583338851
   327   2      5.9309002970078382      14.101379735241533      10.075870272284835
   328   3      6.2522927717039485      14.161835497330522      8.1836746372746152
   329   3      4.0192213615239627      14.339544934615589       10.09358217328001
   330   3      5.9886499982141466      12.212475412195483      10.234002137940815
   331   4      3.8306048698278472      16.003633651958012   -0.035080245274283078
   332   2      6.0159099169192896      18.180163156890835      1.9816912021550619
   333   3      6.1333250062804687      18.450511294153102    0.039090231137682563
   334   3      4.1267545924090276      18.278625485954876       2.014778046684238
   335   3      6.1882133715900229      16.275646321331806      1.9013195689491813
   336   4      3.7232797207108117       16.47693001875167      3.9630428157878694
   337   1      6.0859579744606638       18.24142139734791       6.009024474785944
   338   3      6.2544355677831414      18.237449609344306      3.9710024814672069
   339   3       4.073184369647584       18.26445782334137      6.2173093650664057
   340   3      6.1543294625623615      16.223462940586629      6.2166881051922083
   341   4      4.1273955339381878      16.291109405775256      7.5804218072017431
   342   2      5.9741298736412425      18.127716624119795      10.203226911039776
   343   3      6.1967010903397926      18.428963581453857      8.2097710858159623
   344   3       4.046852657509981      18.375301281005495      10.123940960015069
   345   3      6.1418290729524703      16.230241402488947      10.015265045179982
   346   4      3.9796254057851725      19.938719338939226    -0.16228179026268841
   347   2      6.0469137812994029      22.279569154489451      1.8867213129975515
   348   3      6.2760860557435398      22.256237108348621    0.018435220050626883
   349   3      4.1624313428078086      22.403443962073847      2.0110384438043689
   350   3      6.1975281935908288      20.333993851079477      2.1742072305765294
   351   4      3.7256296201930441      19.989852321331057      4.1080238467762795
   352   2      6.0244705277198252      22.300955368482555      5.9604691725680432
   353   3      6.1358409367776421      22.436522111753547      4.0686458504382434
   354   3      4.1245537515990947      22.433084057811541      6.1298775927115772
   355   3      6.1338978745151964       20.35410114676683      6.0938309398864927
   356   4      4.0106653889771353      19.964802768846589      7.7753213011354898
   357   2      6.0106996741799854      22.263559752511103      9.9719348419880767
   358   3      6.2179412938832002       22.19867462881356      8.0970985204979797
   359   3      4.1053927608594236      22.119352082234951      10.180553634479216
   360   3      6.1861502638622268      20.258099526159921      10.324862715370712
   361   4      7.8210264902559299      11.890795221692191    -0.19985575316481968
   362   1      10.050179798726996      14.155056282373792      2.0202654596299281
   363   3      9.9802423933922366      14.329970951995493   -0.038417246585165314
   364   3      8.0249627971055677      14.317181194714156      2.1246738967090684
   365   3       10.15361059309074      12.091557961095619      2.1908420117829874
   366   4      8.1389940466927282      11.925698886250368      3.7990635150973784
   367   2       10.09530422649274      14.076759092509679      6.0143980504294721
   368   3      10.182673102542928      14.238824814484678      4.1253586678053846
   369   3       8.140400546794865      14.285977584934182      6.0918922198672343
   370   3      10.136645298393219      12.200817323106872      6.2211399544295052
   371   4      7.8482968485672986      12.084830738865078      7.8746161519062827
   372   2      9.9430102517349805      14.171758746630045      10.112253113660824
   373   3      10.085919485805896      14.261962459006769      8.1724496304876109
   374   3      8.0684123697582883      14.224641701587986      10.303414306723742
   375   3      10.291149030992463      12.260319878151154      10.145725265763616
   376   4      8.0311604145225743      15.850980178604862     0.11695400553557768
   377   2      10.144089390318062      18.106404131499268      1.9095296921242304
   378   3      10.149496150663154      18.329907507430459    0.026119774233157395
   379   3      8.1866128550036752      18.445723201780105      2.0295533905952752
   380   3      10.092278093099647      16.266390002392136      2.0899725570257526
   381   4      7.7506679977041415      15.967180587628411      4.1426440885832969
   382   2      10.116735995552473      18.153889507115387      5.9389307487609635
   383   3      10.174953970738969      18.398062553779759       4.065569388872194
   384   3        8.19996421865239      18.439057517407058      6.1596366792401076
   385   3      10.074694681238235      16.277132072475219      6.1913963115935635
   386   4      7.7816561125921968      16.080236583767476      7.8163951423778988
   387   2      10.042619419064376      18.165342536655718      10.045522710637011
   388   3      10.125407417117271      18.364185113896564      8.1663640557760679
   389   3       8.138381374348219       18.30642466470621      10.230237153889512
   390   3      10.225820837482837      16.223233142883256      10.216582947862978
   391   4      8.0294475544763078      19.873517800864679    -0.31492472656265408
   392   2      10.097790696359786       22.22054682445123      1.9065359265966995
   393   3      10.117929126048594       22.43129358221967    0.049260663978076394
   394   3      8.1997407449389588      22.308630637080615      2.2622264321175001
   395   3      10.268232339075652      20.350792804550142      2.0809502799139956
   396   4      7.8829596706579634       20.03791108086563      3.9026445448148852
   397   2       10.04115222129448      22.215163851955019      6.0243296929615093
   398   3      10.349594082493683      22.348275448173542      4.1141698876832766
   399   3      8.1437308532533645      22.215621315420805      6.0288579471573307
   400   3      10.324583714887432      20.312770514638796      6.2042863173240699
   401   4      7.8558710692940474      20.048359151243954      7.9032427794724107
   402   1      10.103335756773026      22.167947461698915      10.053748279857107
   403   3      10.107115453983626      22.493255672920792      8.0366842217945944
   404   3      8.0326395923817362      22.242442807375838      10.376370188363561
   405   3      10.134570358203346      20.161594887132285      10.389947588372133
   406   4     0.22911569871733661      11.908530798937225      12.136822036247199
   407   1      1.9946828371078396      14.128512187758835      14.106049293600885
   408   3      2.0408188712075486      14.419051908688234      12.068241240841076
   409   3   -0.041429974794597355      14.267705043738587      14.146825200563054
   410   3      1.9218272749992085      12.089383664692399      14.029251874978959
   411   4    0.086358321148317652      12.320619451375377      15.773470425905746
   412   1      1.9097839859234786      14.193111875494608      18.202710534980309
   413   3      1.8444417467446594      14.063425048996674      16.182736953626719
   414   3   -0.096032935181185788      14.126540053627309      18.518775515343879
   415   3      2.0096004038457997      12.113684919757535      18.336606411019446
   416   4     0.15975049261296581       12.10966285654191      19.857948814722789
   417   1      1.9924437286519416      14.096590845809988      22.319896932873938
   418   3      2.1220512574751886      14.233556585118583      20.298852494104711
   419   3   -0.063742495665874227      14.413695777513883      22.278392302263921
   420   3      1.9563231430889616      12.077370799325591      22.373466095808041
   421   4   -0.040018762393545661      15.767385960318403      12.233261305158621
   422   2      2.0943591690496066      18.164873240167889      14.110344092462965
   423   3      2.0966776145065653      18.233347075189091       12.22007718347357
   424   3    0.017043935153276145      18.314669184705423      14.242745797719571
   425   3      1.9588060797717557      16.269381686706293      14.320358456702701
   426   4     0.14906454059173976      15.821043139562184      15.904382599080893
   427   2      1.9430474524030654      18.152326513787745      18.179626861835654
   428   3      1.9497878034275653      18.387572147269928      16.274376266571988
   429   3    0.065474616680915504      18.375256778950266      18.388766088605593
   430   3      2.0464037042904577      16.265118140943702      18.308690153595279
   431   4     0.11385147007366647      15.773780140424423      20.286944546666025
   432   2      2.0104952404393264      18.114366423162672      22.296452865037878
   433   3      2.1344643479030818      18.387793007313441      20.266402072135808
   434   3    0.056367592314923949      18.234312296812487      22.201124710893858
   435   3      2.1298733210701992      16.237326714463098      22.265766144381825
   436   4      0.1056235269885285      20.350580968191696      11.837521552812188
   437   2      2.0295839815532251      22.218998832686765      14.104513274972234
   438   3      2.1076836439677304      22.304877674081972      12.240492152144322
   439   3    0.078164154448754575      22.369089669980589      14.304365450788076
   440   3      2.0356778596851481      20.292060785220517      14.266749918936206
   441   4    -0.22265950155514727      20.065427607119787      16.043608855368827
   442   2      2.0900568541126234      22.241430472384621      18.171374937247123
   443   3      1.9884214631805888      22.395700893415189      16.297518006242147
   444   3    0.056267084810455253      22.460046530446487      18.355670214984428
   445   3      2.0420220066751975      20.365549216188047      18.357370989258946
   446   4    -0.17573118376495292      20.013723956727677      20.203289724492741
   447   2      1.9964004980035057      22.236648265660296      22.217146325406237
   448   3       2.086038217528428      22.436194567725096      20.339657669315564
   449   3     0.10315690523659989       22.45288381075915      22.359347877425826
   450   3      2.0554986861857429      20.348359462088204      22.343981377073273
   451   4      4.1918252183756115      12.079812096512505      12.610094038347617
   452   1      6.0130354250349711      14.128137651745986      14.169157094138887
   453   3      6.0052477993527749      14.371018645333754      12.091489333383702
   454   3      3.9968573016960129      14.262565478839496      14.140028961348376
   455   3       6.097389871468593      12.115318835273021       14.03342676903717
   456   4      3.5918897390648947      12.441193340227343      16.459515821758519
   457   1      6.0252363077621096      14.148207822473374      18.265569036389984
   458   3      6.1385680523434214      14.154688758719521      16.216621313637035
   459   3      3.9857424071495258      14.075612019843071      18.233785073914632
   460   3      6.1687742317101968       12.08405681756709      18.256863023727544
   461   4      3.6843436436990014      12.392248301962393      19.946616325407749
   462   2      5.9384236987353134      14.173406272080687      22.235566781601978
   463   3        5.91192563649689      14.115609976510493      20.315068474176073
   464   3      4.0712441281462421      14.192463803345277      22.542905630188443
   465   3      6.2316262606359869      12.178568077936456      22.304448280157533
   466   4      4.0008153770903325      15.834656583136651      12.375808619094293
   467   1      6.0188674896710825      18.233722236890163      14.144042717040513
   468   3      6.0896492257339894      18.116849462870409      12.113204032876411
   469   3      3.9785426469170777      18.264885848827593      14.399014386199768
   470   3      6.1022147400209192      16.208185240771552      14.311789255602157
   471   4      4.2357328059685564      15.798799804011203      15.951407464250231
   472   2      6.0730282688061594       18.05467198845411      18.258289745306193
   473   3        6.07811048522683      18.449703965648517      16.296813749765185
   474   3      4.0370143045113798       18.41213691820899      18.251322686791926
   475   3      5.9950208163128993      16.203887864338757      18.173238895346305
   476   4      3.8444378978184464      15.807645832151334      19.994482465095764
   477   1      6.0393417269333058      18.161923450160682      22.268313542721668
   478   3      6.0223833951452432      18.337306261043913       20.20551026463054
   479   3      4.0282269065795546      18.464749746032115      22.270015475922389
   480   3      6.2191490509537726      16.128795235571786      22.319556677163611
   481   4      3.9063276123252835      20.347916701672002      11.814876477393877
   482   2      6.1039332911553696      22.203359218631658      14.062090649123661
   483   3      5.9650582023887981      22.340269016057221      12.184521580210054
   484   3      4.0291296753522952      22.396351665517994       14.40766626846867
   485   3      5.9904330764848774      20.314756943309863      14.284175802073841
   486   4      4.2002311399257026      19.977165271789154      16.081056913270004
   487   2      6.1399954863649322       22.23894353332523       18.15765833584565
   488   3      6.0846688735480621      22.343017198303496      16.262431832388341
   489   3      4.0539206972807209      22.462587276628298      18.316015201825962
   490   3      6.0084983716842961      20.356010836764664       18.30129975601583
   491   4      4.1090757762799637      19.882317384959425      20.257105641040852
   492   2       6.061380402504291      22.241819317279354      22.165823869242594
   493   3      6.0388361895840248      22.473692971408099      20.290118036384772
   494   3      4.1145273781663327      22.359909824499649      22.474739082637445
   495   3      6.1651890508671574      20.352081372484317       22.28132668398634
   496   4      7.8464967238380883      12.253948077405683      12.533634947857308
   497   1      10.093985437461933      14.175598784285867      14.158160425870891
   498   3      10.366821595726666      14.216812048822527      12.099498291373202
   499   3      8.0880831446166592      14.213673230659101      14.056008373396173
   500   3      10.288846150464524      12.103624550161481      14.181600374616584
   501   4      7.5430931752874395      12.236986689815557      16.121283590388991
   502   2       9.932156496998287      14.145611726620196      18.243872382408853
   503   3      10.175208701470966      14.143813752357554      16.261264462165997
   504   3      8.0926386940068564      14.116616895210424       18.33876368035537
   505   3      10.288610582236434      12.151876686360895      18.223954887211029
   506   4      7.7119997439587307      12.043489728216814       20.24604568878128
   507   2      10.133110240594805      14.078192534234573      22.355993944756435
   508   3      10.402508643239557      14.095466409292071      20.196403443697427
   509   3      8.1371099853375384       14.20813232451899      22.095372501257241
   510   3      10.112572633944319        12.1359145292482      22.350448844967769
   511   4      7.7318019070413389      16.012255901383682      12.461940095079164
   512   2       9.979370097368685       18.26568742174334      14.154856165906601
   513   3      10.306520528872312      18.124834508398934      12.190637113909197
   514   3      8.0985378323080788      18.250627063804373      14.244376903463889
   515   3      10.311053861249974      16.256593484161154      14.226600256029664
   516   4      7.7717382388640193      15.810594624066541      15.928764635488648
   517   1      10.051837233004717      18.129621892014921       18.20850628199074
   518   3      10.169197907970187       18.32490187761238      16.164565164319459
   519   3      8.0183606196715278      18.399979884209973      18.240302358726979
   520   3      10.261147461974383      16.099939259460353      18.249646178015382
   521   4      8.0678391874944175      16.283931659976059        20.7203713589256
   522   1      10.149765138077665      18.157485222489726      22.286979127868253
   523   3      10.213316062363333      18.304024689170749      20.231916003768337
   524   3      8.1103258162770722      18.301283368835755      22.170819062046245
   525   3      10.115594583342038      16.122832944305976      22.012513995663028
   526   4      8.1017418800524936      20.317519838187305      11.857260096833636
   527   1      10.094927705566727      22.204449113567819      14.197729589983188
   528   3      10.227721537548639       22.37061017254911      12.182986072103548
   529   3        8.01890220484335      22.366586694511625      14.206817272593446
   530   3      10.226169546387945      20.179143155179169      14.031688271918451
   531   4      8.0133243099039948      19.859797825173047       16.23659123974452
   532   2      10.139551805318431      22.239840506422741      18.095825129121206
   533   3      10.009627167664732      22.381444045013538      16.236861777708434
   534   3      8.0848071888576705      22.370750375818751      18.365829599201213
   535   3      10.170860755561892      20.340971827465321      18.217183268183259
   536   4      8.2308412775042097      19.773702322414017       20.31268631483325
   537   2      10.081179402528912      22.250710265698252      22.162848056945098
   538   3      10.228690039012889       22.41500761966914      20.286231208868486
   539   3      8.1414643736025916      22.443979268414232      22.293679801716873
   540   3      10.141720181183143      20.374897686773011      22.341821112600996
   541   4      12.250988340921268    0.067831072241115523     -0.3716519283329231
   542   2      14.082542629055625      2.0870491821684531      2.0336121938397325
   543   3      14.229457200919807      2.0379009643140464     0.11421800541877523
   544   3      12.139575157198149      1.9908263776267747      2.1950088357416302
   545   3      14.238451534938681    0.024951953766149972      2.1878225866236303
   546   4      12.047444883800425    -0.12718198473544326      3.8922618148014538
   547   1      14.130346675844386      1.9853056144587171      6.1291272245906834
   548   3      14.368396030559316      2.0302891907209006      4.0542815206061364
   549   3       12.14332111605189      1.9733349193152574      6.1703527921833619
   550   3       14.47605511891746   -0.051991084798122644      6.0702073434400425
   551   4      11.987092665137496    -0.34331563358665373       8.366442335078105
   552   2      14.075101393662596      1.9706429870210158      10.215252095889021
   553   3      14.448137835130847      1.9357266728218958      8.1533044882899546
   554   3      12.178760343427935      1.9826911676196812       10.01924147672991
   555   3      14.421034244689896     0.01487185775187492      10.169510669987705
   556   4      12.407615289602839      4.1564743856680115    -0.34545985665891099
   557   1      14.135613984532657      6.0497085503712942      2.0234253669624072
   558   3      14.163399708472117      6.2542959560623421    0.020933325470020175
   559   3      12.065731354601244      6.1276940991220634      2.1826652912700761
   560   3      14.061292322495783      4.0199363702695523      2.1954350659228075
   561   4      12.089187012322794      4.1585110316493035      3.8016059336995438
   562   2      14.096718588765262      5.9466721931125006      6.1505467893056025
   563   3      14.084235373331202      6.2345761060279559      4.1645718394223019
   564   3      12.151637494676212      6.1574189687924807      6.3068391167965556
   565   3      14.237800787050004      4.0707464393373289      6.0714027369516028
   566   4      12.141620920063673      4.0756276437332648      8.4492167021332829
   567   1      14.170149281677221      6.0676490122929998      10.140864461596905
   568   3      14.368860145032425      6.1592131935332528      8.0804868049810921
   569   3      12.132715791621564      6.0258545961966252      9.8547184393859766
   570   3      14.118643496593577      3.9961483157410971      9.9110820120677445
   571   4      12.386804147634486      7.8410217667854853     -0.2494490998561352
   572   2      14.237555773043251      10.079344684899956      1.9810857219460871
   573   3      14.039901066937551      10.127058774537579    0.080642222854821019
   574   3      12.118831955227231      10.108945534840023      2.3071616845603136
   575   3      14.109799834171199      8.1502768809924149      2.2205046035825577
   576   4      12.172739611788124      7.9270928583513083      3.8134823251163996
   577   2      14.027579794184303      10.124213382311986      6.0519177683725074
   578   3      14.269832152213041      10.129436670877876      4.1474424869616264
   579   3      12.150208119977242      10.285546907319567      6.1270585673940179
   580   3      14.193662498084931      8.1928684143940256      6.2137980700336035
   581   4      11.978605965397676      7.8525892766494643      8.3210248940029281
   582   2       14.15525817602003       10.04263757092931      10.051756825850122
   583   3      14.288172351040204      10.313826724860219      8.1308284099369779
   584   3      12.243988700236542      10.313122806364467       10.08070181105216
   585   3      14.169855559489292      8.1695444791126999      10.081703295544797
   586   4      16.187516314457323     0.15105054174752167    -0.49911149277300604
   587   2      18.112731759778022      1.9590918642713522      1.9885652813688157
   588   3      18.270681719201789      2.0046021922960531    0.092177517883643506
   589   3      16.222066651031952      2.1528894423532177       2.104872779098693
   590   3      18.173918605898017    0.051530275119359086      2.2621234748012573
   591   4      15.987019415961655     0.14083331854392672      4.2157853167324886
   592   2      18.162970420480768      1.9892315941456717      6.1695116182590315
   593   3      18.348278576629472      2.2377978697511556       4.017942695500536
   594   3      16.258426970409548      2.1501206497113667      5.9554277290408768
   595   3      18.097687270266672    0.041827264972950057      5.7489783015130298
   596   4      15.857640932574053    0.034416755657912579      8.1190853970756152
   597   1      18.192075570697032      1.9722479755147495       10.11926008514795
   598   3      18.270166413486706        1.93079581783103      8.0731438676216705
   599   3      16.207676709812301      2.2373344629504821      10.217430310385028
   600   3      18.178307484553763   -0.075769877294685123        10.3681862509148
   601   4      15.967247452440171      3.8867370929486649    -0.42500282799805628
   602   2      18.066586510521294      6.0458769145939728      2.0435288204905202
   603   3      18.200330159073204      6.2412874633384829    0.073189137062140308
   604   3      16.196790524288154      6.1393819557025058      2.2046990922997272
   605   3      18.353637237729668      4.0832786857970333      1.9722854374392351
   606   4      15.923134133158959      3.8453319661410474      4.1989015942298256
   607   1      18.144899767137304       6.049921257413386      6.0577126236340915
   608   3      18.452876259673992      6.0161986518419948      4.0225743560464959
   609   3      16.129661119865418      6.2908150178496003      5.9939043056500116
   610   3      18.457831991516329      3.9986272992612171      6.1333658805628017
   611   4      15.916444862895409      3.8000650033948431      8.3338644801744906
   612   2      18.080355853264226      6.0733498682053675      10.039867762477169
   613   3      18.251879823203133      6.1865410953822293      8.1096375139515775
   614   3      16.234996771370898      6.0107419963756916       10.17206862111502
   615   3        18.4711500713417      4.1178986733709708      10.020245457040273
   616   4      15.889876539913312      7.8084684113631795    -0.16727215057278094
   617   1      18.154991624867716      10.085253938314217      2.0877997728345048
   618   3      18.308286074278467      10.149412152915406    0.046488755026508212
   619   3       16.13069909030445      10.168493855127627      1.9973743302895921
   620   3      18.405600742903552      8.0296957023222166       2.168334671131996
   621   4      15.930259114839302      7.8223609636377915      4.0751127306618171
   622   2      18.103970183514651      10.122621353841165      6.0338136339314348
   623   3      18.381731464489096      10.179235568480607       4.090198963841015
   624   3      16.203171628211511      10.068928817573964      6.1699297717702137
   625   3      18.402972300597124      8.1353815686360136      6.0169243227008629
   626   4       16.03077455035665       7.845282439647292      7.9078341575832409
   627   1      18.190952010578954      10.160039663164842       10.03113552938486
   628   3      18.427690706681044      10.036345309763082      8.0458489597111562
   629   3      16.175129215836986      10.206409745036904      10.366666574384936
   630   3      18.328540845465053      8.0419947501309501       10.21817563693549
   631   4      20.443336337475319    -0.40211022675148239   -0.033024575536303176
   632   2      22.164690956772592      1.9449670528395813      2.0830818941429339
   633   3      22.447034066410033      2.1078442599816993    0.078995567321664517
   634   3      20.277115708935195      2.0772315872027827      2.0109128004291308
   635   3      22.374340621423169    0.056228291221922119      2.0786593766705228
   636   4      20.005394509666331    0.041058308883807994       4.331521237193118
   637   1      22.238109727914196      2.0113551236206364      6.0237835800211297
   638   3       22.36316092396547      2.1306963930405116      4.0008864358834542
   639   3      20.220357900111839      1.7800179152720876      6.0473414823323193
   640   3      22.509790486108496   -0.047444381101849994      6.0252988367920182
   641   4      20.405087156627594     0.48617861350061103      8.2078090038672773
   642   1      22.305737974710244      2.0243844730865042      10.111241821080764
   643   3      22.384214859624638      1.9291490401320051      8.0632192121329602
   644   3      20.262188024647401      1.8829737647050351      10.157223744154956
   645   3      22.448357573223188   -0.020251731873289814      10.075096836965605
   646   4      19.948273420715992      3.9073661061012452   -0.097218532156493898
   647   2      22.183169617002608      6.0150805773157225      2.0146877982298061
   648   3      22.533074939197014      6.1566847482481224     0.10163646705198646
   649   3      20.319587878240878       6.062698241881427      1.9543015198141622
   650   3      22.452149531085688      4.0830758885157952      1.9898764770023798
   651   4      19.919976926930506      4.0560997048711069       4.193799113533772
   652   2      22.181204105464442      6.1205930153444621       6.093111584481405
   653   3      22.264189892921536      5.9538846487544976      4.0522614461716477
   654   3      20.304926230152279      6.0667336087216936      6.2139525503052022
   655   3      22.411984720773809      4.0897195896511427      6.1058048534760667
   656   4      19.960456305930453      4.1361026164542327      8.0492706637088336
   657   2      22.229637292544723      6.0074680149832007      10.224198588775433
   658   3      22.585367431716474      6.0919985910915644      8.0364447583310561
   659   3      20.337266327052884      6.1522853330148051       9.891307262730141
   660   3      22.331045015990899      4.0833135416605622      10.025790856854409
   661   4      19.775686672089499      8.2405873235423108    0.033484483646935015
   662   2      22.266956015205544      9.9915689205635516      2.0686650040464913
   663   3      22.439406139684309      10.200084969540304    0.098414436546479009
   664   3       20.35425657848592      10.255948198700354      2.0335496592030271
   665   3      22.362407496640909      8.1015890803324648      2.1198858793629838
   666   4      19.868192577537688      8.0292239373090712      4.0786797845788438
   667   1      22.267891177556091      10.074667485194658      6.0452989770554284
   668   3      22.299367416012952      10.347580128839658      3.9936950252946408
   669   3      20.247872483278247      10.325866863130624      6.0502410694837678
   670   3      22.413890476137137      8.0374302930106634        5.96340375690896
   671   4      19.911042853452219      8.1218840782626245      7.9905272199024679
   672   2      22.315378030233013      10.038986832480449      9.9488942008838617
   673   3      22.299524674902763      10.215011242134718      8.0856696173767908
   674   3      20.359658336144754      10.086722817434271      10.174924577646387
   675   3      22.453783343319369      8.1181894939686092      10.039915941598936
   676   4      11.872895347588077    -0.34325001600009647      11.839609789114492
   677   1      14.156264449842446      1.9722345646196842      14.128666363104601
   678   3      14.219650593387756       2.171890779352339      12.123764398646811
   679   3      12.133773699082861      1.9772518834605675      14.428163475055102
   680   3      14.248312138314025   -0.065773886092599376       14.31978616645328
   681   4       12.08982703902859  -0.0064039376869365651      15.804798580694406
   682   2      14.209095733038431      1.9591993535646586      18.156335450521922
   683   3       14.37853809661377      2.0407295906637217      16.239253825340679
   684   3      12.171365402622818       1.993814709769792      18.195861950886773
   685   3      14.223193247099285    0.037325290186336693      18.336449628032078
   686   4      12.274964485178772    -0.19983902338529766      19.953506285725933
   687   1      14.136201559067915      2.0052639029674224      22.211209119158031
   688   3      14.116891526871106      2.2305930414333868       20.19635630543204
   689   3      12.092065778797322      2.1156192226860084      22.483351094906848
   690   3      14.129371843732336   -0.028034808902650074      22.385510298600792
   691   4       11.95723990684357      4.1505575376313795      12.115518343870168
   692   2       14.22341969052952      6.0424511006559669      14.001561796732775
   693   3      14.033803569643252      5.9903751881840943      12.162672820402033
   694   3      12.283224982649914      6.1236790487047683      14.384237167528687
   695   3      14.197239540055698      4.1174615286136671      14.354943279505905
   696   4      12.175142038228094      3.9757620617810892      15.846023735776294
   697   2      14.200062140413744      6.0513126214724853      18.129096254807408
   698   3       14.36991153198297      6.2380111698752465      16.235239182119635
   699   3      12.200553917733307      6.2975457865531519      18.137936677218356
   700   3      14.113744693479365      4.0950466920334492      18.176344809077129
   701   4      12.593411039658047      4.0551192006432881       20.31505484674252
   702   1      14.165757808360057      6.0942238183387634       22.19188747606287
   703   3      13.974022177431641      6.0431364799887488      20.187195928631567
   704   3      12.046391508222378      6.0677641482113867      22.486366770791385
   705   3       14.09600521879041      4.0735498650857682      22.383113927096261
   706   4      11.856122227897195      8.1033460131030655      12.096887559891119
   707   2      14.137333741075112      10.143768786738923      14.151181434798524
   708   3      14.173816479845859      10.215803987356214      12.164503242640345
   709   3      12.235341797203558      10.164453763250293      14.293869920823978
   710   3      14.232560162338608      8.1223636030765523      14.193220265427545
   711   4      12.007810666839497      7.8682345927738462      15.950098056110312
   712   1       14.13951877056755      10.123937072687436      18.130021603927307
   713   3      14.485587658252603      10.157531411593256      16.113826094781754
   714   3      12.117050517466975      10.151413542336728      18.373750178129249
   715   3      14.284163650595652      8.0863790526546886      18.425163058601481
   716   4      12.371555569588928      7.9983923778653621      19.933539063906458
   717   2      14.242011166362639      10.175610421413607      22.131901578733245
   718   3      14.212538232635319      10.204673623384879      20.259605091009483
   719   3       12.15013839155408      10.256405705385518        22.3541394416808
   720   3      14.081502794582624      8.1814176728724117      22.354744434934744
   721   4      16.082770503483975    -0.22478627234382678      11.923765379753631
   722   2       18.23536560980758      1.8932391429001378      14.225891302053133
   723   3       18.34026329890709      2.2428181458384673      12.226736269798876
   724   3      16.275947761705314      2.1732336339750282      14.093364895942589
   725   3      18.365113774234977    0.010274597871405319      14.140067567493634
   726   4       15.98577743977434    -0.20450466113751467      15.994746482512992
   727   1      18.222701515943236       2.019793571884211       18.15268149365448
   728   3      18.122246169426113      2.0558559738140034      16.145750113679405
   729   3      16.172174416938777      2.0582256954238112      18.432980126075801
   730   3      18.226971827381018   -0.049658504467655559      18.561913602620027
   731   4      16.253799015031202    0.002718887756544359      19.974109600618387
   732   1      18.246436987492046      2.0025209778502759      22.321355670070947
   733   3      18.322704693275377      2.1824369470138731      20.300821758372795
   734   3      16.193063027104333      2.1236292449232912      22.343342072152335
   735   3      18.137610353277857   -0.044111289370655962      22.175350205571384
   736   4      16.201553864423815      3.6444258350545518      12.096262117140496
   737   2      18.269716020695544      6.0682369785230152      14.015244530825701
   738   3      18.432236964671262      5.9851740876259614      12.113931564743908
   739   3      16.255294829139793      6.1032282190083595      14.147539302689614
   740   3      18.274416284212332      4.1110466737686879      14.331989275227134
   741   4      16.163428261103906      3.7651921473386847      15.937899298493321
   742   2      18.172344876079965      6.0172745862344588      18.105845778676152
   743   3      18.137496398541533      6.1970896586588031      16.246091249921854
   744   3      16.239986929175409      6.1504265935755722      18.442357689377559
   745   3      18.314739206096192      4.1282001496477658      18.271303459274598
   746   4      16.300971833719384       3.557443646926342      20.316984729803863
   747   2      18.123332666313825      6.0989548036433234      22.207332513184078
   748   3      18.372438381556275      6.0102139055973991       20.32686128526521
   749   3      16.225834192925998      6.1836465798067675       22.34377990223566
   750   3      18.251324436351986      4.1507302563943753      22.532666289956229
   751   4      16.412570437946215      8.5254028559745176      12.096934762140219
   752   1      18.236734098987888      10.138043843467916      14.174755878097741
   753   3      18.386347679949917      10.083940121851077      12.127563338959176
   754   3      16.215392995394904      9.9795961274816936      14.008672873735945
   755   3      18.321718202286615      8.0322757846522048      14.146096922785365
   756   4      16.143932025764521      8.3027396712458046      15.897845752949628
   757   2      18.195131270170002      10.154091482227468      18.138434731443791
   758   3      18.183885905599276      9.9784363881773555      16.245142514952292
   759   3      16.278816693974413      10.069143586326105      18.393504886529858
   760   3      18.241089677462675      8.0773077757479559      18.481697474810847
   761   4      16.087924457719033      8.1932273622114806      19.951535198386026
   762   1      18.213785466162403      10.084219039417144      22.260423172555221
   763   3      18.441769854033716      10.142479576025286      20.256761978755634
   764   3      16.150429855383631      10.099799509977403      22.449775647855247
   765   3      18.440383445179677      8.0422177235808103      22.295673087613554
   766   4       20.18587371189744    0.062727064922731168      11.771949655664031
   767   2      22.326086898549871      2.0281441229819319      14.028347799246569
   768   3      22.226910758618406      2.0598219617915001       12.17471395484784
   769   3      20.281541052661876      2.1497432454204031      14.301169536378776
   770   3      22.246225364216844     0.10388936874818934      14.373005496453242
   771   4      20.434466107163896    -0.24807356657293944      15.976538775049525
   772   2      22.220281671541489      2.0206551340638854      18.171910603080402
   773   3      22.330847196669378      2.0947567792452833      16.303815498391529
   774   3      20.313729845123174      2.0400919006058067      18.397880031865039
   775   3      22.379513582749865     0.10481833916718643      18.388802813149855
   776   4      19.884150826830744     0.20879544144863493      20.157343915349465
   777   2      22.221554209689231      1.9808361222335482      22.253534815183194
   778   3      22.305099134615212      2.1448971337924898      20.367670159290462
   779   3      20.334918567442372      2.1775642851063464      22.424081488727772
   780   3      22.317739313809291     0.08994626291669236      22.405827627354739
   781   4      20.109274799058518      3.7370739036726546      11.787193004848513
   782   1      22.232732470627454      6.0755910526378889      14.094154640552713
   783   3      22.219512784167769      6.0969336293482916      12.086170006520263
   784   3      20.204141479170865      6.0604158602595204       14.44473425467716
   785   3      22.257525861231446       4.013124251535225      14.411265208431532
   786   4      20.283917030698923      4.0681649474636314      15.851177230988416
   787   2       22.19762817092629      6.1133589229088434      18.181433183195534
   788   3      22.372611380508399      6.0741237953852956      16.308385434555689
   789   3      20.242876174324092      6.1501478056919066       18.27422787045063
   790   3      22.310243182541221      4.0949374493874915      18.386931857788966
   791   4      19.939901413987354      3.8380118465543078      20.114588469896912
   792   2      22.159809444559027      6.0232875931893179      22.261892832155358
   793   3      22.232337994892102      6.0722033742521697      20.393440545948156
   794   3      20.298220598257441      6.0207941450625722      22.545390198948731
   795   3       22.44337356210243      4.1178413806511749      22.505500252250915
   796   4      19.990115548892653      8.3726781482699764      11.921864890496581
   797   2      22.303536267962944      10.090024098295435      14.011149168374224
   798   3      22.268274699735105      10.135357753352173      12.127059582493127
   799   3      20.322770452671506      10.093491677387322      14.335061211787233
   800   3      22.306389430009492      8.1458316520460041      14.366952341054091
   801   4      20.232277069752932       8.133613821471334      15.794836636614642
   802   2      22.296773274534676      10.154363264047801      18.113528448719059
   803   3      22.321532180390772      10.120073814496038      16.258718051174185
   804   3      20.287484975899218      10.053750601761038      18.297340049704857
   805   3      22.328668374508741       8.099396096691077      18.378228284923825
   806   4      19.941222069309511      8.2806712032577678      20.184988814229964
   807   2       22.23299150621984       10.02541672474805      22.228635441809949
   808   3       22.25229230857903      10.108071029426414      20.362865550939325
   809   3      20.364455797959323       10.17530561876621      22.472903663612691
   810   3      22.360440406790065      8.0946205904061284      22.470602342872262
   811   4      12.471664599029847      12.232614341186025    -0.22542428695689137
   812   1      14.160623657110227      14.094512551849432      2.0086812758865897
   813   3      14.153126700587142       14.28341197369077    0.007954016913785434
   814   3       12.10989304244708      14.254066483191796      2.0716990135969553
   815   3      14.065818076748137      12.077170518334807      2.2393215131281563
   816   4      12.069149869687505      12.239505057618345      3.6540192610569151
   817   1      14.073796566172181      14.135741025315617      6.1024018842090051
   818   3      14.203727875150282      14.241857890440814      4.0606200879261802
   819   3      12.067971184433242      14.371464699460086      6.1850574094945312
   820   3      14.404061249419154      12.119270544267067      6.0721606734661071
   821   4       11.83546622879842      11.943217527944105      8.2164037198248181
   822   2      14.053112936811448      14.167403296657913      10.096591746565554
   823   3      14.371317896728007      14.200675235023569      8.1913368479901418
   824   3      12.193544815488988      14.260029208611767      10.077841024526393
   825   3      14.305177338245166      12.252408719492124      10.275102571820545
   826   4      12.290039311044577      15.722257193433936     0.11057274034039295
   827   2      14.288620749857348      18.170847056710272      2.0705674609996332
   828   3      14.113058834227477      18.372924395795465    0.012535162965015053
   829   3      12.117097991783817      18.359626530785214      2.0314246126446194
   830   3      14.137463674034736      16.278361748880204      2.0171889427762921
   831   4      12.246883438484431      15.761108316247874      3.8380799602306097
   832   1      14.131555438060543      18.256395278906947      6.0186292022419039
   833   3      14.090186702152062      18.392453177942485      3.9822921937790241
   834   3      12.075633852969604       18.23887109655967      6.3008316494840164
   835   3      14.252289167754427      16.234475004587743      6.1730264345345818
   836   4      12.259087686106852      16.172182630799259      7.6877411750943034
   837   2      14.129994016129732      18.260815500036262      10.039671338120719
   838   3       14.21970723780773      18.250280450539954      8.1581465714954238
   839   3      12.180036178248354      18.236280816527497      10.159347960572168
   840   3      14.349750551878829      16.191635362649496       10.20458312884965
   841   4       12.18108917491897      19.973980071626318    -0.16236028877104403
   842   2      14.183762681487718      22.326001465699953      1.9131522655614992
   843   3      14.176899558658105      22.368840128335716    0.040791860792297123
   844   3      12.151496027348323       22.52030539756425      2.1056719112527418
   845   3      13.971511562452948      20.356734671446716      2.0270910197078678
   846   4      12.289708776005428       20.08694107937697      3.8437868894942246
   847   2      14.104000698058034      22.300887224609045      6.0725969643523641
   848   3       14.06452238039576       22.23070920921587      4.0948362057741603
   849   3       12.16398067755965      22.475667412637367      6.2603719928395609
   850   3      13.990792002750974      20.298653270632315      6.2765023868456264
   851   4      12.161689681790239      20.081553578121127      7.8706832999524954
   852   1       14.16161444643677      22.219403612928772      10.131724590488373
   853   3      14.411365786780586      22.341160523332388      8.0913646474788674
   854   3      12.160386131288835       22.40055900062654      10.113609452598565
   855   3      14.273378710606325      20.185641269500231      10.234544421954622
   856   4      16.444335346267682      11.710467644629947    -0.03830989881140584
   857   2      18.118424312077639      14.129713350596711      2.1377203350446212
   858   3      18.216517114768518       14.41482855489023    0.010555007216692863
   859   3       16.22563874964079      14.243020627510957      2.0548348199003308
   860   3      18.293260252985146      12.230309473832728      1.8901750595025224
   861   4        15.7663723180257      12.340479255746423      4.0821957773427746
   862   1      18.243149210148015      14.153967265600254      6.0427523501800691
   863   3      18.389751254968562      14.201270107568996      4.0163801865183117
   864   3      16.217297279510383      14.274384306983974      6.0836686713061825
   865   3      18.197748900756533      12.118412630260783      6.2316770610600605
   866   4      16.095595833940617      12.344441263595275      7.7202435248075023
   867   2       18.15078765693638      14.194912285988938      10.054350312841601
   868   3      18.234417700182018      14.336765575833958      8.1567098325505487
   869   3      16.258034141721012      14.186370670557611       10.34317419039593
   870   3      18.376039707440498      12.238733763792318      10.162633511102433
   871   4      15.940320610006312      15.750889070527604    0.010828508488385746
   872   1      18.160411617558992      18.203547622447822      2.0152999153930393
   873   3      18.369827664391192      18.186974914228887    -0.05379034844132579
   874   3       16.14836954224398      18.415948723521371      1.9332181974951856
   875   3      18.435334716178797       16.17962933960106      2.0737419247024902
   876   4      15.829888388141287       15.87894683155111       4.346417448120004
   877   2      18.069075203823814      18.241800689899534      6.0775504372196085
   878   3       18.42795459668616       18.34162160759151      4.0860297363396727
   879   3       16.20159268931404      18.374965320962556      6.0713530258091675
   880   3      18.368835054275117      16.284992476060193      6.0107849226797434
   881   4      15.952595961013575      16.038688584931549      7.7606641374906022
   882   1      18.212098859115397      18.208349525898672      10.072822830907542
   883   3      18.364707504013584      18.241013646624818      8.0376475587337257
   884   3      16.187745755028182      18.251811140959624      10.363077695303868
   885   3      18.276243684014506      16.169875987428746      10.356434719542717
   886   4      16.215365523084859      20.106633799534706   -0.059239947941965299
   887   2      18.262935598522599      22.252611061296129      1.9864552794403354
   888   3      18.056246923419934      22.548636730657734    0.044391443227560896
   889   3      16.131787704754228      22.197856422740944      2.1930830234826195
   890   3      18.249145260589042      20.316763108980119      1.7634786495858445
   891   4      16.227920675511264      20.484939742050685      4.0751247673714426
   892   1      18.163371184270151      22.294722989724431      6.0414931331895998
   893   3      18.244961755789543      21.998169443062466      3.9640858355250952
   894   3      16.135911210664108      21.943969341585586      5.9462990956381052
   895   3      18.462920169194202      20.211341850611714       6.096709638568627
   896   4      15.966751945889271      20.416919439989091      7.8690692868703307
   897   2      18.209292197870575      22.292210725848133      9.9203271107877242
   898   3      18.076011862554562       22.27802603309712      8.0736987467931414
   899   3      16.300006551535272      22.177913040338694      10.369496352708325
   900   3      18.416003709668352      20.328493073597585      10.174021901248826
   901   4      19.999905949404255      11.826955308937082     0.09280180950688964
   902   2      22.225379431683717      14.109455110586236      2.0311255177101049
   903   3      22.513660427249789      14.330092735408646    0.080051677054814183
   904   3      20.327455280196219      14.226437599225545      1.9048325702777613
   905   3      22.399568506316488      12.240282003151306      1.9913578700234726
   906   4      20.182682317186845      11.778855124944226      4.1149901316240669
   907   2       22.23260770510063      14.093867199827027      6.0100866505190629
   908   3      22.240079333286392      14.257249078214192      4.0764969726499238
   909   3      20.346145010382681      14.265821639791941      6.2549125998836006
   910   3      22.352359018146167      12.231364413104405      6.1106125165881915
   911   4      20.064558058002913      11.864665321272794      7.8652611890837312
   912   2      22.235739439567574      14.045571200475111      10.070603490261391
   913   3      22.487122855418264      14.318079410299692      8.1120227473656161
   914   3      20.322095389859658      14.357249869301572      10.026469889362483
   915   3      22.241958895983842      12.177088879978927      10.144266484552212
   916   4      19.913442262449884      16.132370677393521     0.14662388236455801
   917   2       22.23488281355398        18.2136654544701      1.9153738340837057
   918   3      22.444690837120529      18.254597200496455   0.0036332935691245128
   919   3       20.32105835116101      18.336545347728183      1.9740768151299493
   920   3      22.338026110362943      16.260681265632588      2.1418695130627028
   921   4      19.853451895653436      16.262816905740369      3.9721519230166238
   922   2      22.291783699224755      18.156669908328393      5.9762138772605944
   923   3       22.25827448234126      18.372588480314093      4.0794299756731611
   924   3      20.357201788736727      18.269542590771128      6.1974718663815089
   925   3       22.38193716786397      16.270109272505074      6.1642078541220302
   926   4      19.971048673843928      16.089557105026312      7.9046472486624495
   927   2       22.23988148667906      18.125929329762219      10.041292464661947
   928   3      22.419683741353658      18.389642984978043      8.1318850446811268
   929   3      20.340239809943416      18.313997344388724      10.126843202488716
   930   3      22.391426088920742      16.270554558609682      10.062607266805998
   931   4      20.014063623282745      20.045952044781099    0.032423693868905458
   932   1      22.230727730406677      22.238253114798486      2.0709926513346804
   933   3      22.420133712955995      22.390807265290984    0.032956882525568575
   934   3            20.180375326      22.362362833033075      1.8913715611935933
   935   3      22.484654508981837       20.21417532170102      2.0161290021095422
   936   4      19.945622710715796      20.196119919301847      4.0960718546249604
   937   2      22.105436865811861      22.268667678836696      6.0439927077876723
   938   3      22.348322311768953      22.290595688940545      4.1099842501657253
   939   3      20.241377870948543      22.453520164348557      6.0420345003437772
   940   3      22.252252380949713      20.316262430558083      6.1987361694142411
   941   4      19.994297991337106      20.037836436023134      7.9878268005962205
   942   2      22.285845724312725      22.255651339994738      10.161891193909501
   943   3      22.469227783754548      22.359434776682861      8.0647358105031213
   944   3      20.269387578851713      22.444920228698766      10.038294037669015
   945   3      22.273841429743058      20.292694093405483      10.136172705441208
   946   4      11.798989893717396      12.120691221471525      12.064577921598669
   947   2      14.130647364058294      14.211524449289247      14.118237944974672
   948   3      14.144144102367287      14.255464642426382      12.194422914989293
   949   3      12.267708078090495      14.149537526180286      14.366050878005716
   950   3       14.38598271811926      12.187942583042084      14.213040613304681
   951   4      11.808456232788071       12.29001663215546      16.084783740889783
   952   2      14.109005968228674      14.185276058569389      18.292694975305611
   953   3      14.537402407834831      14.157529835664089      16.163619600583683
   954   3      12.230879238655104      14.129942424920904      18.010555264639919
   955   3      14.434097163662038      12.188766052988628      18.127965601509256
   956   4      12.033111929200123      11.988475569874769      20.007594100805242
   957   1       14.17695553110455      14.137853436692986       22.21703675376197
   958   3      14.107379043695271      14.112060614774631      20.188839326330186
   959   3      12.100138956021482      14.142298726392905      22.470080762186175
   960   3      14.165520687920937      12.102883196268776       22.44337810755728
   961   4      11.784605564849105      16.145789131068071      12.197537951484678
   962   2      14.096055478250664      18.239724932822899      14.139097426966627
   963   3      14.200340159575047      18.130672509718881       12.22587746251217
   964   3      12.235020770052641      18.247357705106484       14.33452624599018
   965   3      14.286541394425727      16.197024372654575      14.314147607725385
   966   4      11.713696729795927      16.173683391828316      16.243616120211207
   967   1      14.159347063868021      18.168541897521312      18.204282255616992
   968   3      14.439407627768917       18.22773456856638      16.144258775258454
   969   3      12.147105468668954       18.33497852229964      18.166481256298258
   970   3      14.415188991023197       16.13860456221181      18.156119277519839
   971   4      11.714165939736189      16.257048241529233      20.237196812037823
   972   2      14.098319648821878      18.088605597965461      22.233477587141049
   973   3      14.212991058557613      18.330275773541445      20.325319237143404
   974   3      12.194764755910336       18.34209469260108      22.307690362841321
   975   3      14.196044214309861      16.237443985072758      22.320777554918159
   976   4      11.783383152423566       20.42984948704056      12.023969768141919
   977   2      14.088381271493951      22.259299325395649      14.133533669548312
   978   3      14.233676207852012      22.307043863598807      12.221808774298344
   979   3      12.207746145389486      22.307934248405932      14.309469814905961
   980   3      14.382929929210979       20.22698626221613      14.210408215607551
   981   4      12.048837907456514      19.876458440889067      16.456967108892268
   982   1      14.136674324875473      22.234994314265833      18.166371558009448
   983   3      14.477923655124098      22.253304442034366       16.15536421978538
   984   3      12.071029435779723      22.462707008896903      18.220683937443635
   985   3      14.367398545261306      20.234628875505219      18.175006490980092
   986   4      11.999308907802147      19.811636630066467      20.001316501192264
   987   2      14.168896807936163      22.235511764864569      22.134574138494717
   988   3      14.048286563922987      22.317234193310089      20.267806536981755
   989   3      12.143742259504572      22.401441275471221      22.437848282845223
   990   3      14.177961668745581      20.316725756623804      22.415713713093847
   991   4      16.124503163759517      12.011584011165946      11.954617633267361
   992   2      18.170647439784702      14.086335110198446      14.244512280591481
   993   3      18.576798513116575      14.146794918827387      12.165194823286429
   994   3      16.286407776282029      14.261405759453801      13.971081770440058
   995   3      18.366845921476248      12.179075963422017      14.185616173197166
   996   4      15.926846902152686      12.152662202997499      16.223179319967198
   997   1      18.245656775671751      14.162516595382243      18.153873241494889
   998   3      18.122235269892908      14.292430311839988      16.137354043147827
   999   3      16.252928255063008      14.171393933382392      18.491258088056075
  1000   3      18.261302655648286      12.087656117810587      18.321644056829893
  1001   4      16.130450126746112      12.217875509630431      19.891438688204378
  1002   2      18.154111663132547      14.063871991432496      22.268509876428194
  1003   3      18.465908933675056      14.116831985444877      20.370494785825862
  1004   3       16.27353945636554      14.306863384564927      22.256710202953759
  1005   3       18.22988354328055      12.179285139646632      22.464289786425333
  1006   4      16.183058496969171      16.336530242512989      11.827022465532968
  1007   2      18.196354322198836      18.168446377103212      14.073212530766822
  1008   3      18.432915137746139      18.398078375516455      12.213725375332928
  1009   3      16.306917493338599      18.136758326772899      14.114734690134357
  1010   3      18.492142671970853      16.247050559757721      14.103581336228089
  1011   4      15.926753005745281      16.207469215927535      16.221456526539413
  1012   2      18.288204898511989      18.158616547662479      18.111987907797271
  1013   3      18.266729967203084      18.150327265796218      16.230166708015442
  1014   3      16.339063958912359      18.229249238607427      18.432691207185012
  1015   3      18.288567437975217      16.258978897118194       18.49907178247847
  1016   4      16.171182149850786      16.046576402305082      19.920286908990207
  1017   2      18.122571181949201      18.130106061184861       22.27269914098629
  1018   3      18.345417879063941       18.47147889036523      20.370283759627888
  1019   3      16.208996084773652      18.336818493153984        22.3862013864996
  1020   3        18.3648859404665      16.252168633400899      22.201271091485644
  1021   4      16.116039546956294      20.198820754196017      11.800208685446462
  1022   2      18.285318025775862      22.128181908468793      14.088864971580701
  1023   3      18.455598156060944      22.191639973484588      12.219055168976281
  1024   3       16.33832286827278      22.437624937952844       14.14211386747793
  1025   3      18.278359443555637      20.238256882897389      14.362548611677697
  1026   4      15.813772788502527      20.197212363361395      16.329885443400766
  1027   2       18.17054241328529       22.25153213977395       18.14093823676696
  1028   3      18.182861989926487      22.465643689217348      16.266258044863211
  1029   3      16.277468306455653      22.360181473877105      18.435775201632858
  1030   3      18.277349111317058      20.295664770235689      18.274463051873671
  1031   4      15.916382040600441      20.100104174084869      19.907005512924478
  1032   2      18.273944643202675      22.269997997376869       22.21662921046433
  1033   3      18.344994353104948      22.147851518083684      20.325003612552656
  1034   3      16.145511256890753      22.326782359053649      22.323345844332859
  1035   3      18.181616473284709      20.306554345245711      22.608676379262363
  1036   4      19.911060659112191      11.945790251398824      11.983950982723691
  1037   1      22.246322924974478      14.114749764221305      14.049116109576895
  1038   3      22.250393085449932      14.378038449503293      12.026667911639851
  1039   3      20.264219061692696      14.207928487473556      14.400793021958846
  1040   3      22.225133866505022      12.078054925729207      14.325072128034355
  1041   4      20.341567421326953       12.17468945322417      15.777264562301211
  1042   2        22.2359309680389       14.23157484380277      18.127025218422258
  1043   3      22.384901286249445      14.139760743088784      16.250465155155879
  1044   3      20.292560997660605      14.121328291600143      18.322193411379079
  1045   3      22.276331003080561      12.105695354740469      18.405363435022004
  1046   4      20.010602770396897      12.106969605340311      20.024731987818576
  1047   2      22.217365430069432      14.043910572772219      22.283227184441127
  1048   3      22.182968792610826      14.194859911359002      20.381781395881614
  1049   3      20.305343928459038      14.193351228455208      22.513746246795133
  1050   3      22.441685796064082      12.151783148696289      22.441393700557285
  1051   4      20.143148155770103      15.946686783899603      12.026209424617672
  1052   2      22.335189895678969      18.201337780105842      14.094329041604842
  1053   3      22.256471192729805      18.297552083187732      12.154110227022183
  1054   3      20.296416390791229      18.343083191794392      14.327148794655388
  1055   3      22.212862542915939      16.273348927228245       14.27958956588231
  1056   4      20.381907347969392      16.054264274332244      15.868360345747487
  1057   1      22.302647976560994      18.143698873462263      18.194993790669244
  1058   3      22.329292845271507      18.371399734761436      16.183263794372614
  1059   3      20.224726323700331      18.341746919116172      18.387655392363161
  1060   3      22.198601820583143      16.122367512407642       18.34228272666692
  1061   4      20.186230308120631      15.984783249161124      20.002075376160473
  1062   2      22.201959671775448      18.192555030535726      22.182254843515615
  1063   3      22.288368830505167      18.362666737261588      20.291261661718213
  1064   3      20.284562980596903      18.420656578778303      22.330606293767236
  1065   3      22.278016977882281      16.265592592383218      22.353053864547221
  1066   4      20.163121406884205      20.107275988949517       11.85139817847783
  1067   1      22.282794205007345      22.266744300150528      14.079607306505585
  1068   3      22.164867225700757      22.352728689907586       12.07269111085974
  1069   3      20.225981267784903      22.305272363167568      14.472840640722886
  1070   3      22.294180890133752      20.254228114818609      14.345377461051223
  1071   4       20.53573440806079      20.089692864535348      15.971469406721083
  1072   2       22.22131089681821      22.200895716308196      18.325469544544351
  1073   3      22.348648021601534      22.468625424099706      16.349247741764952
  1074   3      20.278333903960721      22.389921164528928      18.293613996742547
  1075   3      22.351834733980436      20.320071705076632      18.282189998302698
  1076   4      20.198706046739634      20.014163709573012      20.085195058084452
  1077   1      22.237469334608814      22.237217589283322      22.251660176382476
  1078   3      22.412003563138324       22.37467373082406       20.25405182575755
  1079   3      20.180856629431815      22.305448847975921      22.524642034192453
  1080   3      22.471794176426961      20.206280702912892      22.372927890747647
