(written by ASE)

1080 atoms
4 atom types

0.0      24.299999999999997  xlo xhi
0.0      24.299999999999997  ylo yhi
0.0      24.299999999999997  zlo zhi

Atoms # atomic

     1   4       -0.29874357811474    -0.22819747299589432   -0.053084661325789734
     2   2      1.9847038533930721      1.9459309176718362      1.9460440968938491
     3   3      2.0914176795638824      2.0219157360271445    0.065162550983753842
     4   3     0.07800658556931836      2.1451077257262989        2.10516679778023
     5   3      2.0231708865038986    0.038899688577216561      2.2202029461082828
     6   4    -0.21371978185905977    -0.20885895339527447      3.8664538649526281
     7   2       2.044251425185426      1.9791852248214941      5.9627148623219393
     8   3      2.0949952227630786      2.1176267414062329      4.0885728954830496
     9   3       0.116130039585863      2.0633319127008503      6.1684528022934169
    10   3      2.0236661989484634    -0.02036592004245236      6.1926273974824984
    11   4    -0.30151871942780861      0.1747373367061916        7.93330174099962
    12   2      2.0745205608465294      2.0693766258492405      10.026634975248474
    13   3      2.1153574234087897      1.9394175663301663      8.1468291300540177
    14   3     0.06250051061634751      1.9750844436500719      10.261253913062074
    15   3       1.986411808142664   -0.039151764249795211      10.269720359085985
    16   4    -0.21061134690624392      3.8843659103054766  -0.0042540042235344085
    17   2      1.9467737515119683      5.9407862943447487      2.0563042549786319
    18   3      2.0255987496529264       6.183804375514951     0.11124507331806696
    19   3    0.076968303017691114      6.0452241842319454      2.2018721531505636
    20   3      2.2015014595836799      4.0498763667009294      2.0646984696467796
    21   4    -0.31434368472727092      3.9956728377006128      4.2206616068258258
    22   2      2.0733425968983585      5.9520567891585561       6.168460593462977
    23   3       2.297210806141925      6.0322937579263289       4.036832562620595
    24   3    0.084681513295055591       6.047105771772693      5.8539681711036629
    25   3      2.1341486361426214       4.006887666210849      6.1806733307719544
    26   4    -0.39247367229310359      3.8034835136163725      7.9894599606552035
    27   1      2.0466718786849394      6.0064222084452918      10.108526796399151
    28   3      1.9315668732649132      6.2076492593739561       8.062569212865565
    29   3   -0.024787313764691937      6.2299636329855428      10.149987687860403
    30   3      1.9809299351966465      3.9762227705096818      10.256044474292647
    31   4   -0.062482245564953291       8.025259983447814     -0.1609396549689063
    32   2      2.0675631597481079      9.9631083588687748       2.069228363083047
    33   3      2.0574280150981452      10.145691674042345     0.11139849535183267
    34   3    0.067624036117474168      10.285577428721204      2.0856249677316123
    35   3      2.0693236818404253      8.0902156273579138      2.1600233881112838
    36   4    0.053322953908551698      8.1327070886443629      4.4864116680413044
    37   1       2.054615218017259      10.033672816241294      6.0876295420684183
    38   3       2.085222912705103      10.353854290469281       4.019672977385131
    39   3    0.019116399687635462      10.241867890596394      5.9745927014714058
    40   3      1.9844290737913939      8.0227113720828438       5.874595676059668
    41   4     0.21293409588817447      7.8456984437599298      8.2742180079780407
    42   2       2.181847293598123      10.173740511512779      10.039584126603684
    43   3      1.9163539177863416      10.163295073648317      8.1411925558458957
    44   3   -0.089232938027457603      10.209129398754868       10.19557832542205
    45   3       1.825298650145353      8.2027324855104489      10.135471079665328
    46   4      4.2237154581042438     0.16040337639149913    -0.26127267804998772
    47   1      6.0721984244939744      2.0474650797329863      2.0063170138236934
    48   3      6.1260244705800533      2.0360490051438913  -0.0026374279083488323
    49   3      4.0192681977367792      2.0230394096414637      2.1559047286659316
    50   3       6.210794126642698    0.010504179473680163      2.1392683152001188
    51   4      4.3022850952206388    0.012266502815640073      3.5925371865032592
    52   2      6.2008386586960587      2.0983273996191301      6.0722930506131929
    53   3      6.0136828487895606      2.0500465407153432      4.1236284248403701
    54   3      4.0405931531353794      1.8570175554023276      6.1477271615992546
    55   3      6.1127388711850266   -0.032558519720429863      6.1388367073418957
    56   4      4.2122171957666241     0.23420659789649956      7.9016117328954358
    57   1      6.1079420025698825      1.9371213820150051      10.103863014336449
    58   3      5.9221503591871549      1.9772592783183576      8.0810851715413996
    59   3      3.9971718104030565      1.9416802520669456      10.315712960855381
    60   3      6.0572112981848267   -0.089803052778944722      10.315610157544867
    61   4      4.2564775122737197      3.7758945701729685    -0.20292042607559876
    62   2      5.9727022281357804      6.1134003441856848      1.9683196762326605
    63   3      6.2625538289186373      6.0706314224935287    0.066170111321096042
    64   3      4.0880352971376217      6.2072356988690247      1.9869272967489848
    65   3      6.0759170809650564      4.1173950756550912      2.2092603355592071
    66   4      4.2101587628360537      3.8310287874719311      3.8624669834874439
    67   1      6.0911933462711758      6.0377363408280029      6.0674907166811867
    68   3      6.0771655857993965      6.1682890833615405      4.0301483774432665
    69   3      4.0293900174450821      6.2367334395342837      6.1456715785909468
    70   3       5.923163283095179      4.0016247812729446      6.1301719035162785
    71   4      4.5784161521325641      4.1619861185282421      8.2337143261471493
    72   1      6.1282805415720727      6.0387627187573951      10.169684762105465
    73   3      6.0597141541478621      6.1953596554837489      8.1144632924084465
    74   3      4.0434774602458257      6.2476719180238254      10.115255184623802
    75   3       5.980649503597224      4.0243481286450358      10.144974205739578
    76   4      4.0010979768878849      8.1222745502219134    -0.27615538284952662
    77   1      6.0734700867874913      10.065615882125522      2.0622930870503517
    78   3      6.1639324352736118      10.192899457409998    0.024832540662880674
    79   3      4.0288174878029315      10.280966894373769       2.077513114998665
    80   3      6.3326195227619975      8.0587919569336801      2.0780434839772419
    81   4       3.960889603609123      7.7789327441075189      4.3169632296103302
    82   2      5.9991522536704096      10.052196704006123       6.101724287608624
    83   3      6.1607658343421328      10.349673918489174      4.1394233644426839
    84   3      4.0811088870393837      10.263334321171747      6.0316908280310146
    85   3      6.1649196782198503      8.1689963516106623      6.0079252147500739
    86   4      4.2509223195731094       7.690746110661058      8.2790638588273637
    87   2      6.2862482319357431      10.115741358862381      10.162151079088501
    88   3      6.0356568610062089      10.096578865331077      8.1152352868090709
    89   3       4.041416666484241      10.122913965785976      10.170082249755083
    90   3      6.0823082596473235      8.1795095712011214      10.226850963236256
    91   4      7.6725476712432421     0.14039856293231348    -0.11413619267611068
    92   2      10.037801571755033      2.0293889119201127      1.9967352780151884
    93   3       10.19994267578069      2.0379946619669655     0.11097373820514993
    94   3      8.1493420341192611      2.1641736985267106       2.161605777312547
    95   3      10.110693643673123    0.068974232545726544       2.285369340284221
    96   4       7.893734348607957    -0.04675861588996242      3.7063302310076551
    97   2      10.298028328993567      1.9339006897684954      6.0675911956111683
    98   3      10.155774038598151      2.2420530411476589      4.1183361196493689
    99   3      8.0849300124173045      2.1082418026972349      6.1105495881074763
   100   3       10.05662527042629    0.017157799426758446      5.9439247517779119
   101   4      8.4071009283079725    0.086435081987964901      8.3781997186036747
   102   1      10.155074162618259      2.0226546777980321       10.14152635114413
   103   3      9.9612808293093114      1.8899158493522834      8.0476471186554868
   104   3      8.1136583550360299      2.1434138760253876      10.110324717045501
   105   3      10.041706772311464  -0.0084610869769955986      10.238722510723647
   106   4      7.8907568822576577      3.7439670171444384    -0.28457366608327156
   107   2      10.110032191278036      6.1240305066684186       1.888618953141721
   108   3      10.133189988746224      6.2114309422962313     0.04160211420048722
   109   3      8.1890724599647235      5.9683895303231953       2.300852541403108
   110   3      10.281298306895859      4.0751898784159106      2.1010596123247929
   111   4      7.9119683860189305      4.0634181683480568      3.8332415917664355
   112   2       10.02593181519574      5.9327148472931288      6.0944551768923967
   113   3       10.26600856673044      5.9477532298655245      4.1670687675475593
   114   3      8.1478429231554479       6.158330402337687      6.0514351724891577
   115   3      10.149911089447274      4.0523903093064817      6.3299096903520082
   116   4      8.2578755566989521      3.7318184218718033      8.3947369837684676
   117   2      10.112698641434106      6.0509013271298615      10.301852348735581
   118   3      10.058858178468197      6.3611379172047355       8.067454646032246
   119   3      8.1764274384419124      6.1581138473437553      10.110405017888938
   120   3      10.156420650724396      4.1066219779506543      9.8422902927017581
   121   4      7.7366956516363956      8.3373751466273927    -0.12109748089714234
   122   2      10.118290733701805      10.173305287734783      1.9576480723945968
   123   3      10.237479290018186      9.9657839665289369    0.083791601174915339
   124   3      8.1895830610752718      10.218542501159463      2.1428797264217643
   125   3      10.114109901197709      8.0737547389575646      2.3008501902369058
   126   4      7.8444864234802694      7.8867093192965303      3.9573449981125317
   127   2      10.028263226072298      9.9943567232509842      6.0867725508890311
   128   3      10.067366635122475      10.334754168870289      4.1646490323956309
   129   3      8.1166010772826915      10.331731803535058      6.1779194985694854
   130   3      10.163209146635438      8.1315147683686213      5.9899205341687871
   131   4      7.9163217290775618      7.6655033824646406       8.193243855842482
   132   1      10.102449420452922      10.122565861232117      10.103363742943531
   133   3      10.345191403142387      10.145810373344265      8.0442635458411313
   134   3      8.1214409572415729      10.180872736112613      10.080177971031501
   135   3      10.358940196178562      8.0667494169071414      10.226035670553948
   136   4   -0.011262808851453518    0.029055707279809915      11.825036559418086
   137   2      2.0961500819171839      1.9107736845291461      14.172144467729447
   138   3       1.875312127484358      2.0017619405807019      12.219665842852999
   139   3   -0.031447124850877577      2.1589303404659095      14.269859905154545
   140   3      1.9209244055949215   0.0053835677681517589       14.29792634610769
   141   4    -0.13444324191658069    -0.22039201279039675      15.940328609143242
   142   1      1.9585219861839742      1.9978204011165701      18.156990759769563
   143   3      2.0308816176480007      2.2307905234792491      16.135700733536904
   144   3    -0.05219670030843733      2.0691285102575327      18.477811861736544
   145   3      2.0111986007914426    -0.02017010411762641      18.512490611799436
   146   4  -0.0069090783019459664    0.050477492086294568      19.933727567519146
   147   2      1.9976829838836148      1.9962091256547987       22.18137354285841
   148   3      2.1035215586743079      2.1145408963986521      20.326360255741378
   149   3    0.062008006333899954      2.1400741262260263      22.387721815221994
   150   3      2.1296775079447383    0.056127704708859034      22.322328597507237
   151   4    0.087878490614032231      3.8792933767871256      11.814978848993436
   152   2       2.012244119484913      5.9606491219620308      14.059059228879368
   153   3      1.9603464269061732      6.2657800799303986      12.172893764007959
   154   3    0.061058773919290175      6.0417439037761387      14.350046322733439
   155   3      2.0446075604627594      4.0668819069972013      14.113695146445325
   156   4    -0.11580240958891787      4.0341857393700762      15.920460414979598
   157   1      1.9550404394277145      6.0623112688748249      18.187598702721282
   158   3      2.1423490585406912       6.079960420052041       16.13839022792585
   159   3   -0.060876390298320086      6.0620516515451248      18.435395776428798
   160   3      2.1522475183768948      4.0512358173011442      18.308521283564236
   161   4     0.09835982355210067       4.041053481727082      19.823465033948654
   162   2      1.9481885344950036      6.0165954899811025       22.29244245422116
   163   3      2.1538707631526348      6.0758916525258568      20.397779351773831
   164   3    0.052983709086242767      6.1497473370770681      22.384112384376596
   165   3      2.1232078193756889      4.0877966462081545      22.467173461339261
   166   4     0.23243358654268628      7.9916339523836415      11.881781716915992
   167   2      2.1168461478187282      10.033590269155036       14.21131013318081
   168   3      1.8069632639479511      10.094099769169944      12.160183285954355
   169   3    -0.04582091082993299      10.257531342116732      14.217682580551497
   170   3      1.8611321973695716      8.1264802248725267      14.275203167278443
   171   4   0.0010713829892400448      7.8298161023436545      15.981025743579384
   172   1      2.0183664152680234      10.101020598329542       18.14354796055315
   173   3      1.9638573046480317      10.325096444635387      16.096711068735271
   174   3   -0.052329606899424799      10.010636962587334      18.270367102378685
   175   3      2.0347228724577904      8.0833248032378613      18.326722855684263
   176   4     0.17189162552594073      8.1099795368421983       19.80798901674482
   177   2      2.0440746146778568      10.171940030497256      22.155585401444846
   178   3       1.985045107968086      10.068341311255413      20.298926503556597
   179   3    0.048210901600946356      10.033045879595139       22.53497155486389
   180   3       2.099944239791002      8.0809074554370497      22.472535780900337
   181   4      4.4425900497774116     0.23173184516000531      12.077136532497802
   182   1      6.0533831119144459       2.039510045085601      14.204031232259188
   183   3      6.0176972192105289      2.1397781978240307      12.183416987675862
   184   3       3.992282604109969      1.9416756362808816      14.159213557671004
   185   3      6.0153608524386728   -0.033360236494209168      14.244682427303191
   186   4      4.2013545679491742    -0.03827524685342306      15.946958102880364
   187   2      5.9659389359543091      2.1278394994614018      18.155142502223608
   188   3      6.1186591077626806      1.8366007984921155      16.258053134574755
   189   3       4.066477081302061      1.9158622515651926      18.315634439409692
   190   3      6.2256230333158031    0.043590867564414208      18.420316783964047
   191   4      3.8718369659861391    0.085494642563008108      19.961597406314564
   192   1      6.0372131979036237      2.0584817590755358      22.189946088229167
   193   3      6.3091370338487911      2.0728434555990884      20.185577854855577
   194   3      4.0090387628410813       2.054720335704463      22.488656222055187
   195   3      6.1905893112637971    0.014713735648298752      22.276302474385787
   196   4      4.3988262786660259      3.8727117280415699      11.879982010637713
   197   2      6.0436339470822862      5.9909562903733793      14.228547191712622
   198   3      6.0301752166340936       6.144557267233429      12.204583272335809
   199   3      4.0117374436946669      6.2723527273129216      14.143491013561221
   200   3        6.05032668444984      4.0841085627606342      14.300904210955524
   201   4      3.6171488146186666      4.0457130701130311      16.396197065444625
   202   1      6.0893691456430101      6.0492211650872214      18.207170281069388
   203   3      6.0001452035870431      6.3128302360182902      16.167044038386358
   204   3      4.0426060120672842      6.1789201931710878      18.287952102157561
   205   3      5.9254652051634507      4.0216318750372855      18.176234316307244
   206   4      3.8837969725661465      4.2402029660538867      19.843140573123481
   207   2      6.0050802888061794      6.1025568039419964      22.153012349613014
   208   3      6.0692039250851133      6.1030873785970137      20.299796286825167
   209   3      4.0815065361885061      6.1376576010365937      22.502117746809827
   210   3      6.0718566980607278      4.1388445468899171      22.419830529619482
   211   4      4.1792344200982603      7.7495347932213257      11.913598942102697
   212   1      6.0264231252178391      10.085346594731709      14.189260514751956
   213   3      6.0650297950694467      10.330670977970447      12.075177827658731
   214   3      3.9766618342274187      10.167734419170012      14.017477208034684
   215   3      6.2614154164712756      8.0936157075644601      14.071753171381889
   216   4      3.8882540362031719      7.7184423706927392       16.41839504669553
   217   2      5.9358224732827791      10.152116990342298      18.170979456392232
   218   3      6.2267743827362025       10.04921753057009      16.240109783627531
   219   3      4.0617723338899143      10.089406133904525      18.259227393081776
   220   3      6.1842048827499649        8.14411395366003      18.294856930622249
   221   4      3.8411250642755461      7.9652639376081256      19.831773335788526
   222   1      6.0172842964987359      10.110481590713434      22.194763265050739
   223   3      6.2945475336505288      10.149917653768807      20.196243093707846
   224   3      3.9897560485725529      10.087430151939575      22.491957953451795
   225   3       6.106540106527512      8.0579450344300998      22.444083010579966
   226   4      8.3867281796057984    -0.32905889069319982      11.913682236870571
   227   2      10.148914100235926      1.9949594126042682      14.071652606330849
   228   3      10.141250626270557      2.2561306119527935      12.186438403835112
   229   3        8.17681167203299       2.091414827035377      14.353828863685736
   230   3      10.249933082355119     0.07131135302259603      14.179741670879769
   231   4      7.8863283598405207    0.057061926895505551      15.911282847641324
   232   2      10.037162611900325      2.0175709437946709      18.183345672991372
   233   3      10.285602572467111      1.9217498844271412      16.256887495176478
   234   3      8.1465835541420688      2.1753754857922876      18.174440615806667
   235   3      10.152154045413724    0.094641879693565606      18.422069073273164
   236   4       7.733281820087317     0.10107596476774948      20.352517949564337
   237   1      10.104517388609475      1.9946389404100406      22.230754522350519
   238   3      10.137233816833152      2.3197513888437769      20.185601357176765
   239   3      8.1251696525888804      2.2285312151971275      22.267625976038861
   240   3       10.31166321548962   -0.036547523139499216      22.278346075306732
   241   4      7.8484494002370484      3.5947527861734714      11.923883259748671
   242   1      10.106425181207801      6.0577525358847248      14.171913111346676
   243   3      10.303016198048635      5.9803991046145484      12.158241841164617
   244   3      8.0460762211548698      6.0571468080622424        14.1936966359001
   245   3      10.121203952042478      4.0330062796300803      14.519188830124177
   246   4      8.1235408018710356       4.040598621746363      15.819766719893646
   247   2      9.9916643565413157      6.0564740602901557      18.120109504456497
   248   3      10.219427687969171      6.2840029209261132      16.251903573585974
   249   3      8.1396733940547481      6.0855656821996806      18.242588743894231
   250   3        10.2585524065319      4.1019088422768748      18.063527828024206
   251   4      8.0391132875214808      3.6956227235861681      20.396485853575768
   252   2      10.013309477712104      6.1077546727394614      22.131027906062659
   253   3       10.22528323270449      6.0163642293344788      20.266732107889304
   254   3      8.1163904169650607      6.0960898419462053      22.315030092297423
   255   3      10.238429186862897      4.2000589319524053      22.464404909980008
   256   4      7.8433581863497821      7.8674190564741124      12.368604032416046
   257   2      10.017458175495429      10.168187373531401       14.10226758059442
   258   3      10.371905325214003      10.195967476259467      12.179618848489868
   259   3       8.157024860165512      10.127910648890404      14.104116534816855
   260   3      10.339804329345387      8.1493970507656517      14.054723368402158
   261   4      7.6882720418493955      8.1146746121243236      16.114860072865064
   262   2      10.126164927241234      10.182103422351748      18.075034241726033
   263   3      10.205291050392697      9.9240597964847996      16.174809293729496
   264   3       8.202694196347279      9.9791252309123326       18.27873676244684
   265   3      10.222307524021844      8.0589934505464207      18.417887572978977
   266   4      7.8388524022353234      8.2685414162556619       19.99684048233647
   267   2      10.130675662168407      10.171021354823239      22.142888726963278
   268   3      10.141427651794434      10.121679953346522      20.272423953425321
   269   3      8.2225490700658508      10.039267633506856      22.414755878271173
   270   3      10.270325212778532      8.0901650358074662      22.330685038071987
   271   4     0.03320008180153345      11.861845416985261    -0.10548792693770191
   272   2      1.9518713832941612      14.109275613654926      1.9570390422778867
   273   3      1.9632134653424493      14.433168050511002    0.061704604323092799
   274   3    0.038167203217863897      14.335636565128601      2.1442647536034856
   275   3      2.0831099465988387      12.226003106736677      1.9711203387743885
   276   4      0.0125076750375773      11.757651700669095      4.1862942910913734
   277   2      2.0283989515122496      14.144410855683786      5.9890933483813358
   278   3      2.1784705597823018      14.194529395566432      4.0497502148433115
   279   3    0.014416417358922181      14.300829424248043      6.1113987592917054
   280   3      2.0205388346337894      12.216083409629428      6.2070364814864307
   281   4     0.10834266446957336      11.788914470948686      7.7903716142402759
   282   1       1.962917605016204      14.117294415320043      10.094135073613121
   283   3      1.9333514848437661       14.40252075054306      8.0757486430763148
   284   3   -0.098362541067281595      14.300374296377916      10.291623578298164
   285   3      1.8861940516114548      12.100669364918019      10.248424098800127
   286   4   -0.085047887592432966      16.000039441384793    -0.25515563004299496
   287   1      1.9870772427064747      18.249023730443238      1.9477313850080624
   288   3      2.2086894587521484      18.221394896707967   -0.074742596736026512
   289   3   -0.017436633065831274      18.226819426124138      2.2294783861796605
   290   3      2.0972198645035913       16.19692745526179       2.193706515018564
   291   4     0.15524884388740007      16.398729253970711      3.7049580190017624
   292   1      1.9700422384723464      18.269389108783134      6.0337353062519092
   293   3      2.2413418145263586      18.267601998509413       4.044393383097292
   294   3   -0.050389383874455733      18.430582338176542      6.1371854348190205
   295   3      2.0871319018495726      16.211901420098652      6.0969318618381365
   296   4     0.15193139663220354      15.974854129063923      7.8962547119496307
   297   2      1.9854195943666637       18.27293499310997      10.003737634718803
   298   3      2.0273631170878961      18.323828214104978      8.1310215027970347
   299   3    0.014918976798375816      18.348101540522446      10.324749064677304
   300   3      1.9564836267766208      16.329897995594266      10.252314036352526
   301   4     -0.4347679343873932      20.451956845744949   -0.083243187881159295
   302   2      2.1140970193857473      22.241365848193091      1.8781235653875168
   303   3      2.0295501269797911      22.428380963456988   0.0033823973196993348
   304   3      0.1292296034561817      22.316441274252178      2.1978053265310993
   305   3      2.1183969189669933      20.322720431699608      2.0763868982964686
   306   4   -0.090570689770385168      20.217760942267585      3.6515692061588725
   307   2      1.9758953081074988       22.27687108292605      5.9678958128241426
   308   3      2.1432214886895133      22.282470334784168      4.0964385246535562
   309   3    0.085615768215382915      22.123416214903589       6.136949190052837
   310   3      2.2814193598872961      20.343644511257349      6.1471777732755815
   311   4    -0.20204671841898819      20.264449383595732      7.8750112398416219
   312   2       2.052375386065739      22.301040408334458       10.02553426394247
   313   3      2.0733613208982895      22.226531456863079      8.1528649300223872
   314   3    0.092210662225484269      22.233288910162351      10.250771875519908
   315   3      2.0940072984495588      20.277606118678897      10.291188485695777
   316   4      4.1866510997454816      11.727505851501247     -0.0272289332320176
   317   2      6.0035923255887855      14.098122255804768      2.1034375437098323
   318   3      6.2702053864001348      14.243222401807055  -0.0040919087876764779
   319   3      4.0782743182372494      14.311539327711005      1.8921040882556261
   320   3      6.1311360427438535      12.206008469642757      1.9934278443697431
   321   4      4.0096282786444766       11.79716042866117      3.9927372570516884
   322   1      6.0414998432162506      14.187407663393497       6.025791114771212
   323   3      6.1404281529998688      14.197015255836188      4.0019029648757236
   324   3      4.0032173257411676      14.181766725421515      6.3094317898978147
   325   3      6.0583445028264764      12.159628862977634      6.3556551978164011
   326   4       4.102555733014067       12.15376062483117      7.7739275480033347
   327   2      5.8821374355656602      14.174446737553044      10.093516538908725
   328   3      6.1667232715800564      14.336714392384986      8.1614309681954698
   329   3      4.0002664779700812      14.366310567881541      10.111801169816252
   330   3      5.9947362061267988      12.190494981148129      9.9548669707754165
   331   4      3.7595721052391813       16.07503296677033   -0.060779332153000187
   332   2       6.038740541468206      18.253848257830949      1.8839294933705684
   333   3      6.1764429034492423        18.2435710911878  -0.0042308049945030323
   334   3      4.1329110841160697      18.244176927375491      2.0291754145412741
   335   3      6.2195624423016342      16.270867074701801      2.0822766846929097
   336   4      3.6800399502037839      16.424260628735677      3.9152839507272699
   337   2      6.0273529091901423       18.14229690709654        6.03112338490463
   338   3      6.1362893318661715      18.354471769396721      4.0963823896611924
   339   3      4.1381946029252132      18.278267725109366      6.2095590045144933
   340   3      6.2479466058776998      16.258360510161335      6.0879358128671885
   341   4      3.7769559848147307       15.99736801922333      7.8802806246261285
   342   1       6.022535186424161      18.165477233517489      10.074242454693399
   343   3      6.3081708456978278      18.226315392272024       8.056740097889513
   344   3      3.9717742367692348      18.226601450455025       10.26173333162234
   345   3       6.166054318397741      16.149961504840803      10.278231897135496
   346   4       3.906744778006352      19.938812190470507    -0.20804114641098248
   347   1      6.0785009985957066      22.238092339173487      1.9187019229485116
   348   3      6.2592691286307449      22.460566351640708    -0.07780451157416135
   349   3      4.0334625659504422      22.432928374395381      2.0520750167003046
   350   3      6.2147999409718881      20.206732805998733      2.0560613270614003
   351   4      3.7483129596080342      20.019796585751859      3.8962169507610311
   352   2      5.9999125582419941      22.306461102712319       5.956975764969366
   353   3      6.0928756633620491      22.248361262924995      4.0927521915588061
   354   3      4.0987593495818988      22.347809373957858      6.2773182637743652
   355   3      6.0812902263334676      20.312738921999117      6.2776630599018661
   356   4      3.9395062658106061      20.134535518189214      7.8197702073115103
   357   2      6.0547178988262598      22.272362784614369      10.006848404402469
   358   3      6.1896639756159297      22.293827020324201      8.1346836398635034
   359   3      4.0605941945391848       22.24900123222459      10.201771013977432
   360   3      6.0846404655444619      20.270510320753569      10.202629361086412
   361   4      7.7703255625981287       11.92348933323437    -0.12103819074759491
   362   1      10.089295454514373      14.133399196167533      1.9895880516362334
   363   3      10.062054092186562      14.362668363662324   -0.055436063233040969
   364   3      8.0627906393282434      14.348330606196388      2.0302906423015461
   365   3      10.271478718073718      12.093313204359417      2.0558802097580142
   366   4       7.983180055292185      11.909662990676038      3.8825750041383777
   367   2      10.086674445159899      14.083942241224443      6.0143117726124897
   368   3      10.072148134121468      14.206240625577177      4.1202348311363108
   369   3       8.151144992962605      14.175074883586097      6.2590366141918716
   370   3      10.202061810069447      12.207255587812561      6.2793889716084035
   371   4      7.8298690915942313      12.244269177665693      7.8871322819626641
   372   2      9.9651185377594516      14.177394791605462      10.109813368428188
   373   3      10.203660659282786      14.336586457619426      8.1773067287237122
   374   3       8.097155606513887      14.144125461601547       10.17051801428846
   375   3      10.342516077280594      12.253837603865918      10.084773849649975
   376   4      8.0419782759551186      15.844123864073962    0.094092182178443368
   377   2      10.164601064273164      18.113678630345479      1.8913003869012888
   378   3       10.08558556699996      18.276292216288123    0.013652259224142788
   379   3      8.1771389074160155      18.337070965888564      2.1454801480306598
   380   3      10.084978940348785      16.259341304628602      2.1396063699687651
   381   4      8.0243296663586836      15.924454491579683      3.8174466858955904
   382   2      10.096338437899051      18.154783056104069      5.9296366277436032
   383   3      10.199624961301083      18.413547311279014      4.0731531433344843
   384   3      8.1659926628063584      18.497273355839216      6.1047068841810272
   385   3      10.017363402726538      16.272106504955914      6.1337240960391748
   386   4      7.7913580203924999      16.078473308207773      7.9867463836284633
   387   2      10.057826879798663      18.201731665603962      10.036946150365395
   388   3      10.082591290499046      18.243537699450723      8.1482692058104416
   389   3       8.165186379731173      18.285573505023031      10.280573416719406
   390   3      10.181499414988933      16.214559558100877      10.321671418329464
   391   4      8.0522749411971031      19.903549877227427    -0.36855792507521462
   392   2      10.103002659167798      22.216094319365048      1.8997340545857893
   393   3      10.136626859462959      22.407743010558818    0.037490029816061789
   394   3      8.2207044860008818      22.308241956414257      2.2518386641212249
   395   3      10.215728111828064      20.324694237141124      2.0537012178095031
   396   4      7.8962128555493916      20.205914441449284      3.7338241605460687
   397   2      10.001331522734301      22.209669976551449      6.0399835122673178
   398   3      10.345423022390214      22.286652516268756       4.126895700913134
   399   3       8.105742271172943      22.179093602022242      6.0604457358090142
   400   3      10.303479917959503      20.312597615388366      6.2713973119680668
   401   4      7.8279110113915902      20.047953275542056       8.004597612705636
   402   1      10.076851975533007      22.150493549472735      10.067110559457186
   403   3      10.085878126057549      22.557611942931956      8.0420617704133459
   404   3       8.027023938658985      22.248765543651775      10.333098211099244
   405   3      10.257381777348805      20.143549149538533       10.21954996470377
   406   4      0.2128856518863117      11.931633550841667      11.943671259863835
   407   2      1.9846448595580557      14.098676224281826      14.116574049131408
   408   3      1.9957760139977712      14.430337137432243      12.194402977548572
   409   3   -0.055703623031064416      14.257508146817123       14.11037721314761
   410   3       1.937384087384995      12.176925744540481      13.968676292006849
   411   4     0.36150050430577818      12.117918429448112      16.380130133367274
   412   1      1.9929363289427102      14.230794450224538      18.131265328725497
   413   3      1.9032990439672819      13.985828296410727      16.116480709010965
   414   3   -0.023353230139334595      14.228787430142633      18.343519091605319
   415   3      1.8764699185777052      12.123955033551884       18.28830268048592
   416   4     0.23245242007906686      12.421382632431136      19.904081230421106
   417   1      1.9667161111014557       14.10599589760888      22.287179907328202
   418   3      2.1496343577868093      14.107656950703348      20.269773284394489
   419   3   -0.086603103415596475      14.321227163344863      22.353369424267829
   420   3      1.9395902967436851       12.06520114788567      22.409739773166706
   421   4    0.044294604185194202      15.982589744354787      11.933128267536201
   422   2      1.9576358159873917      18.137152181438232      14.142705934761178
   423   3      2.1195021927398212      18.253581567241707      12.261243338611857
   424   3    0.021011700046484463       18.44077093982073      14.191778580352972
   425   3      1.9656699578981061       16.24354490810256      14.335044402895264
   426   4      -0.365333018903789      16.016392640457347      16.423634847176348
   427   2      1.9266282527440912      18.205945764759104      18.190405324097561
   428   3       2.006223091412739      18.348254154118539      16.284139993999471
   429   3    0.058718027798877331      18.301963161061462      18.379014556984242
   430   3      2.0888129609770147      16.298545965036254      18.356364314438753
   431   4     -0.2153666549789765      15.956519367277492       19.92692126166321
   432   2      1.9635512138935756      18.110891776874645      22.252919555841547
   433   3      2.1585907898445971      18.397999124293314      20.280416810341748
   434   3    0.040168730560247841      18.228299196448397      22.254530649386869
   435   3      2.1528951505853584      16.233369028122247      22.245524048116327
   436   4    -0.25983191995458538      20.284024689299848      12.025551452400698
   437   2       2.043122933394522      22.174185758045486      14.064784287417666
   438   3      2.0769654303766978      22.296429722656899      12.213434921711171
   439   3    0.091162675042939512      22.300879736689492      14.342404198062429
   440   3      2.1176446796410642      20.283209596280553      14.318832669447167
   441   4    -0.30789322838522082      20.193389967880815      16.023200659806214
   442   2      1.9858561588740564      22.256195766304398      18.134019921449458
   443   3      2.0433779944798087      22.410994892526322      16.272321524593085
   444   3    0.054097684956246665      22.400501509910061      18.349743428839052
   445   3      2.0912784588080742      20.343403646034389      18.317979150077974
   446   4    -0.33752916196740007      20.223608962333348      20.233737022230617
   447   2      1.9344867154559782      22.249052066844772       22.18417444067957
   448   3      2.1561481219951579      22.310530928170678      20.315507591419834
   449   3    0.063830058631287545       22.38681135172299      22.315856060782302
   450   3       2.075536794262677      20.345788358598686      22.419161393938811
   451   4      4.3437717947202668      11.971029406172557      12.406475717208414
   452   1      5.9688754294158688      14.183996932825961      14.121703970595272
   453   3      6.1059719242474033      14.066637782104863      12.091563010858819
   454   3      3.9367175291836998      14.255924786438076       14.27483010286298
   455   3      6.0695625841544292      12.139156691627639      14.121402943782535
   456   4      4.1178267776961022       12.62489786300682       16.33508051807722
   457   1      6.0682504823163619       14.19348880205102      18.269476446607587
   458   3      6.0755514712048431       14.14492338543498      16.204789844840828
   459   3      4.0291414912766621      14.029129727438924      18.230719102475945
   460   3      6.1954288380781932      12.092693579923386      18.190818326495982
   461   4      3.7170429746070446      12.383535554300144      19.884739122478486
   462   2      5.9131554134132465      14.170737849457829      22.248494694922009
   463   3      6.0150249583573174      13.995285746852456      20.313462873813709
   464   3      4.0541752387337535      14.178435706020839      22.469629082404055
   465   3      6.2451897839365422      12.177368814756184      22.372846445380986
   466   4      3.8342590447910059       16.15534845896158      11.836314840407232
   467   1      6.0010781551746861      18.255872845758592      14.181190962148863
   468   3      6.1293916163723541      18.347176143500359      12.178591272617112
   469   3      3.9588704070108838      18.238892743667122      14.416077224717885
   470   3      6.0773476908861133      16.220312891254736      14.253413620592815
   471   4      4.2640273138596587       16.17546406682278      15.826635192996545
   472   2      6.0638476151012206      18.050276519012613       18.26475437435683
   473   3      6.0601850760168343      18.314165914422173      16.287201724314848
   474   3      4.0659503643525445      18.405592376073848      18.288981884173378
   475   3      6.0130840707471904       16.20730393823376       18.29521217183169
   476   4       3.751621896259298      15.822623146535717      20.041441599680876
   477   1      6.0242852667688469      18.145293488544308      22.242300699492084
   478   3      6.0618575604832934      18.455916946948626      20.204756780014247
   479   3      4.0268619304635838       18.46160331541871      22.261041939047455
   480   3      6.1930825018747777      16.120333709893238      22.188504298175701
   481   4      4.2240429214223676      19.939937926633917      11.915771088692454
   482   2      6.1387140993052114      22.234773689799209      14.109861081470866
   483   3      5.9704675676906405      22.162346236206869      12.223575932132169
   484   3      4.0222939363815025      22.402937356424825      14.399683810479841
   485   3       5.999389928677795      20.330666404904331      14.450879358065116
   486   4      4.0938305311538112      19.994259040251627      16.053680262098901
   487   2       6.049005843134009      22.281759603328489      18.256219964365929
   488   3      6.1048803247075201      22.530490348821537      16.298176850218049
   489   3      4.0884650142651457      22.488200567885546      18.307635176022508
   490   3      6.0679376280027251      20.381210684995317      18.122786972172431
   491   4      4.0680969388654749      19.908422401105422      20.268481365170523
   492   2      5.9832256369742316      22.211041015448501      22.312992197218549
   493   3       6.143316591839147      22.351494001905127       20.29306630027574
   494   3      4.0777644539465454      22.366197050741114      22.404990416906355
   495   3      6.1681754672208218      20.314438208741922      22.356182318086923
   496   4      7.8366102379212803      12.415612962712935      12.511734840211901
   497   1      10.099458052297184      14.168617897371906      14.155880963203119
   498   3      10.337012617868917      14.133014916971311      12.104785636707073
   499   3      8.0875788073964401      14.108139546604864      14.227696693332266
   500   3      10.300478806207181      12.083981284271797      14.262438780586026
   501   4       7.650087565539395      12.356224394796827      15.999122189897134
   502   2      9.9883540264348074      14.243927094103846      18.254459670921474
   503   3      10.235910949661925      14.220161347323325      16.261404380160172
   504   3      8.1214043406525285      14.153772894700985      18.277628920736973
   505   3       10.13770236846478      12.095558167357126       18.10164291544875
   506   4      7.6800658382343778      12.178925445099923      20.221678072250562
   507   2      10.161382101272968      14.150261484972045       22.33492989937071
   508   3      10.300830231631734      14.014423146123669      20.214886617267943
   509   3      8.1578483530178705      14.217963610603293      22.154571561371139
   510   3      10.137490056915532      12.098922866946207      22.413761599571362
   511   4      7.5238904831978735       16.31957881104616      12.216213045138698
   512   2      9.9767786664797082       18.24290662010802      14.184930834438342
   513   3      10.294633709553169      18.239577417635033      12.228214654928594
   514   3      8.1012767826137111      18.289018999576641       14.25684805480463
   515   3      10.303007890075001      16.260547998325826      14.193678470706935
   516   4      7.7882418412246315      15.832343319710505      15.843319312017385
   517   1      10.037125619082074      18.203559752715133      18.192975523669489
   518   3      10.271822935882668      18.205311238804306      16.180069686882639
   519   3      8.0174300676305421       18.41981494666588      18.239217496942455
   520   3      10.279634301604046      16.157059069916578      18.309960012029769
   521   4      8.0349468295599635      16.261032433368484      20.675031681046278
   522   1      10.137143468129985      18.180232380467476      22.262813911801778
   523   3      10.256135424985946      18.339405166330909       20.21332286085703
   524   3      8.1097341537593799      18.309978934526146      22.137347629539828
   525   3      10.145574202159034      16.131644613226012      21.981037549514891
   526   4      7.8018958375485754      20.034263190635222      11.916023577173364
   527   1      10.061377186426869      22.229435113996221      14.181181463428191
   528   3       10.25928342007534      22.287883846339568      12.178100035278483
   529   3        8.03361604893513      22.357846543307499      14.233582590515416
   530   3      10.316485908118844      20.187065023731613      14.274361929271832
   531   4      7.8456766891787462      19.944816397729667      16.273842971691646
   532   2      10.068044421907475      22.234131384529089      18.123455926467564
   533   3      10.149045605252365      22.462484715365228      16.235768381808015
   534   3      8.1371370465248916      22.325219850319417      18.301425100701046
   535   3      10.260512272572106      20.335885756947508       18.13948955863993
   536   4      8.1069605100449422      19.809614212272749      20.321790079648039
   537   2       10.04915648067124      22.327302739098354        22.1701822109681
   538   3      10.336285407770054      22.268910500150962      20.261196685453463
   539   3      8.1622463795886997      22.339949936367631      22.220179596668959
   540   3      10.225085502588646      20.361021225913696      22.391272103044816
   541   4      12.122252944453763     0.16566228829567414    -0.46675153756395693
   542   2      14.064971972449582      2.0774910922449452      2.0411274277353604
   543   3      14.241760146592984      2.0320956827828076     0.12244201767620715
   544   3      12.149282027091862      1.9488702862535483      2.1861685583838986
   545   3       14.27242380233448   0.0060784887828090909      2.1978126394688751
   546   4      12.002640305323951    -0.14119749317826191      3.9096094036377664
   547   1      14.127026880708828      1.9846574390941023      6.1037395920246071
   548   3       14.39193260834597      2.0065991386970925      4.0511863705584528
   549   3      12.139101746251253      1.9689913182396617      6.1408167852132554
   550   3      14.467573569134792   -0.062267818599599262      6.0624342015265587
   551   4      11.969828322536721    -0.35675544477762627      8.3569302770210321
   552   2       14.11147422926976      1.9372299686873691      10.135830624273913
   553   3      14.417330353381276      1.9350730426266038       8.149325753014331
   554   3      12.181101977580909      2.0834604868321236      10.109713208219645
   555   3      14.375562396195392   0.0078040606388191137      10.215350203415808
   556   4      12.027173823494028      3.8402483714585536    -0.33070177205007711
   557   1      14.131329629726768      6.0374867164413741      1.9636376410805816
   558   3      14.311805904876477      6.2370521114467392   -0.040270244521086296
   559   3      12.081100422930426      6.1222901894677833      2.2172955910514691
   560   3       14.08952135772809       4.006859439339971      2.2283474638482565
   561   4      12.066745771861228      4.1959921005801739      3.7974226042719583
   562   2      14.087729559646881      5.9550998119686911      6.1285413333083198
   563   3      14.130080039979351      6.2148387469177422      4.1519137812461215
   564   3      12.154057691978915      6.1498892879184517      6.2518731285216456
   565   3      14.257753356816718      4.0689877917542132      6.0755222224197976
   566   4      12.140018436454493      4.0647918652582646      8.4389368967431526
   567   1      14.154305875939491      6.0824134610718943      10.126491043970054
   568   3      14.396877878262467      6.1019259419848133        8.06880679185657
   569   3      12.112691151054641      6.0117015039523309      9.8327896229758078
   570   3      14.168649085299002       4.007976511313597      9.9167881426236857
   571   4      12.162991559311086      8.1624348791000401    -0.28613502402021995
   572   2      14.242906641195139      10.070695537356563      1.9907624747076329
   573   3       14.01567128460367      10.107636350506466    0.084986729950101897
   574   3      12.141639169861492      10.043877194320002      2.3380768501920408
   575   3      14.166917970419613       8.132522997330252      2.1929351630860348
   576   4      12.174573963405587      7.9370359532424066      3.8031412771680992
   577   2      14.036839588716065      10.116957013059006      6.0432125765862574
   578   3      14.320449474419831        10.1272841366106      4.1358186541353277
   579   3      12.165019918650792       10.27061923138883      6.0564182487338787
   580   3      14.208957233615932      8.1827218014856946      6.2204005531105588
   581   4      11.905070617898806      7.9115497337828939      8.3193520516179227
   582   2      14.167490601912769      10.033859047255344      10.040479617104147
   583   3      14.261209878598242      10.321488657972131      8.1140300699669972
   584   3      12.260487351729417      10.293434761679231      10.122838998596604
   585   3       14.19713721086635      8.1586989109984689      10.012598240718834
   586   4      16.190951596066256      0.1364030012403312    -0.46081823548406303
   587   2      18.126427783665701      1.9578546803188868      2.0131282736328178
   588   3      18.253390131498261      2.0373524898440749     0.10709200072694607
   589   3      16.235797379222692      2.1607574690833475      2.1070282975312011
   590   3      18.158277422687721    0.047824203617993492      2.2556717495994092
   591   4      15.983508322048122     0.13008640113749487      4.1981119285620663
   592   2       18.14780415549172      2.0024158768993758      6.1745948358375946
   593   3      18.384246065432645      2.2029988617304448      4.0343449646854115
   594   3      16.252517443118595      2.1334566277007485      5.9811230007355816
   595   3      18.102027288821589    0.038937256202455348      5.7794457731879456
   596   4      15.882296706879538   -0.010527554219194313      8.0368146672787777
   597   1      18.173075729682978      2.0030097660788755      10.099828609711276
   598   3      18.274711332828918      1.9194410446796446      8.0777676180691902
   599   3      16.180484856736385      2.1618704473029364      10.285935577366615
   600   3      18.187931186571124   -0.076425472197549651      10.360115373361859
   601   4       16.08755558880188      3.7848669736563219    -0.30199880326207629
   602   2      18.083245495181298      6.0468340615300367      2.0430409557104561
   603   3      18.226703156339408      6.2143543160739041    0.081514929586627663
   604   3      16.210386911797322      6.1102404623036799      2.1967829630565014
   605   3      18.389193545740952       4.075141982554455      2.0088699772551064
   606   4      15.889969778620484       3.874664145348425      4.1617022536984374
   607   1      18.149906965058111      6.0524407180023934       6.055897232792832
   608   3      18.459381231520567      6.0220270145467083      4.0273161555670223
   609   3      16.142952712150148      6.2854628681063822      6.0004521725075293
   610   3      18.456507387086511      3.9945507725938842       6.133517030890979
   611   4      15.876941312169645      3.9095365307054997      8.2838549405899542
   612   2      18.093473674904711      6.0720954613062528      10.051735588204707
   613   3       18.29644408889191      6.1378399130163288      8.1100535158568121
   614   3      16.245485184191793      6.0351020174947916      10.143847168334975
   615   3      18.420209650912206      4.0995613536786859      10.051387639442918
   616   4      15.963012003214725      7.9266894534857331    -0.11648126852662963
   617   1      18.168465403745369       10.08290907007448      2.0864047985406713
   618   3      18.337426326095237      10.144463089543255    0.038899444920009657
   619   3      16.142636895997988      10.179721943837514      1.9557513320118496
   620   3      18.391939701238172      8.0263575765341493      2.1629927046338562
   621   4      15.948055000939243      7.7985661916536966      4.0562186598930499
   622   2       18.11161134224508      10.115452786245474      6.0372691488984174
   623   3      18.379969174782151      10.168677860781992      4.0899460194215367
   624   3      16.213789055610476      10.066923667507979      6.1899263186418905
   625   3      18.430343285721399      8.1321828206379934      6.0316316969898782
   626   4      16.015050795283866      7.8389998501273803      7.9096872615079761
   627   1      18.196990972652639      10.142945996385246        10.0288124612043
   628   3      18.465560634092018      10.045922460088311      8.0391015427152919
   629   3      16.189855483451343      10.197701732192737      10.329516556398547
   630   3      18.401189176091766      8.0326452245883058      10.161783240506628
   631   4      20.412488333001566    -0.39443593640002694   -0.035135964559892222
   632   2      22.170145937640164      1.9701207612302849      2.0937013318661775
   633   3      22.476386230830435      2.0551606229256274    0.079790761361577256
   634   3      20.287208455581148      2.0201919209278749      1.9997531889990339
   635   3        22.4545697570836    0.061530391330839831      2.1087027505224549
   636   4       19.97760914931072    0.061784884400472626       4.335761294249072
   637   1      22.251502036181499      2.0008835700677587      6.0220171030726233
   638   3      22.372352652411937      2.1495895276374726      4.0030527737784301
   639   3      20.231584870063188      1.7631667100012929      6.0695945388867631
   640   3      22.519824335070101   -0.072365907329786733      6.0339696400452913
   641   4      20.381466928516268     0.51284641590466373      8.1715662824492981
   642   1      22.298987339023338      2.0111988752621413      10.100792569016587
   643   3      22.369688075927751      1.8990019925000141      8.0763768322305136
   644   3      20.266274655375156      1.9014686864001491      10.153452590741855
   645   3      22.444447759513498   -0.060965398131860395      10.198971472020169
   646   4      19.964526086448462      3.9200162768598461     -0.1000357249345909
   647   2      22.192204144540732      6.0227552573817746      2.0327384457117041
   648   3      22.553792020627704      6.1621738820974947     0.10439732703735739
   649   3      20.332697477898414      6.0814985187662618      1.9664763217889938
   650   3      22.420953598725035      4.0675090967927163       1.938351451480314
   651   4      19.936247750332225      4.0833817470139175      4.2187985581006329
   652   2      22.199836027516948      6.1283114280426565      6.1330926249211322
   653   3      22.300469285494586      5.9084582367405343      4.0361740591276174
   654   3      20.316257413153124      6.0356140935608504      6.1668381366040421
   655   3      22.438282740683711      4.0820296118508352      6.1116334979804803
   656   4      19.965176756017978      4.1737458072212981      8.0641863902772624
   657   2      22.264523643343562      5.9859739299784849      10.254941607559948
   658   3      22.523638700373237      6.1051920080466457      8.0415223044229833
   659   3      20.344586864327241      6.0414160238953665      9.9293530212684225
   660   3      22.430554569659751      4.0662665031232335      10.043321580825729
   661   4      19.799300077067784      8.2497610182459891    0.015262141943045402
   662   2      22.272172937221075      9.9948633511735565      2.0595111901408956
   663   3      22.428068345393594      10.152413133225968    0.087755801469556916
   664   3      20.362887899562399       10.23289197452271      2.0431177237871565
   665   3      22.419933088697594      8.0945986631712472      2.1272533454018698
   666   4      19.879892980481078      8.0276765633194724      4.0903608541575078
   667   1       22.27708093775323      10.075167409942541      6.0416995526382635
   668   3      22.319124134738285      10.363396104082744      3.9852359665634132
   669   3      20.261051369358658      10.345763666850532      6.0196236785725015
   670   3      22.385357837635031       8.035368397918198      5.9075315351238515
   671   4      19.906591239954956      8.0966225940091388      8.0238633090781182
   672   2      22.262334331290457      10.022733668416118      9.9596418573924286
   673   3      22.250266015011583      10.212883184769874      8.0973901618010977
   674   3      20.314427118095576      10.169492043883704        10.2227004420486
   675   3      22.288701343316827      8.1168657612783655      10.103331709738102
   676   4      11.854513535577725    -0.36125286341514978      11.844723352731757
   677   1      14.144586790952406      1.9870167215322587      14.147508772159085
   678   3      14.156781165263931       2.284263405039983       12.11404850020465
   679   3      12.136665481518435      2.2783611170888722      14.187602752833147
   680   3      14.267641312935398   -0.044203536793348208      14.264796698985158
   681   4      11.967113672970379    -0.20201681165293214      16.035983404299827
   682   2      14.164221814905551      1.9887046774646631      18.177472135459862
   683   3      14.361365246688226      2.0527724964129916       16.24338839207147
   684   3      12.196043711542373      2.0727422413699061      18.330869627334305
   685   3      14.260759377621564    0.056259173405526927      18.313229801566372
   686   4      12.138125304433244    -0.16897816162597795      19.942837668052569
   687   1      14.171193510438167      1.9999388500961732      22.226478376706538
   688   3       14.17459460224074      2.2219776889290537      20.221559103904987
   689   3      12.152872060551616      2.1582911763295716      22.372201881544576
   690   3      14.180554137366244   -0.047636623794809034      22.384439990842633
   691   4      12.224674652388547      3.7869746615028519      12.203896249759291
   692   2      14.171307634687379      6.0871404671085125      13.984659728526166
   693   3      14.108151724951444      5.9879064539488365      12.144556280313076
   694   3       12.26251423286746      6.0306527925161397      14.370975125137274
   695   3      14.299520589984704       4.129403253125993      14.318870406615963
   696   4      12.022172495695409      4.0247249106589145       15.91109006458456
   697   2      14.105594169020691       6.043406200554311      18.150976503345507
   698   3      14.390587175280599      6.1438201843812745       16.28098230386875
   699   3      12.223501094699429      6.1209931117675636      18.280686287686599
   700   3      14.348051981968828      4.0950978702215837      18.210928745219807
   701   4      12.108947561752656      3.6437946119846352      20.335984756876609
   702   2      14.076570519460082      6.0148076911444752      22.257251075756024
   703   3      14.261934312834427      6.1204072469368525      20.332002619599411
   704   3      12.168185100504445      6.1283088608128136      22.413019931389847
   705   3      14.228696267220677       4.117673255604358      22.422498183174998
   706   4      11.852919466710167      8.2104506921436418      12.131404227278633
   707   2      14.156478489554551      10.258358492193116       14.15233602924312
   708   3      14.223721885741927      10.081802035795983      12.159248189802851
   709   3      12.252351949244478      10.070051854297013      14.237970111197749
   710   3      14.236307194475931      8.0653484214470907       14.24199451337252
   711   4       11.96027569835301      8.0132409921576215      15.887274903689439
   712   1      14.111706940151468      10.099963634587313      18.146001705688779
   713   3      14.401618743946809      10.102699125906666      16.116751905193617
   714   3      12.087479785175557      10.036688867470829      18.327999740241626
   715   3      14.231722541983764      8.0388825152532384      18.415670208791433
   716   4      12.142606756729162       8.223416182853585      19.876285655563599
   717   2       14.23408280467047      10.180268525795819      22.141614527168503
   718   3      14.245733066535156      10.101073414867058      20.272715925161233
   719   3      12.174370800489424      10.045769242305216      22.388303912168055
   720   3      14.185377816567955      8.1353950037270195      22.395643262765461
   721   4      16.137784708977318    -0.14955727870724253      11.865672234806699
   722   2      18.150235425536078      1.9475315849628674      14.253205814818237
   723   3      18.421293946387813      2.1399213977738434      12.215430620212045
   724   3      16.251457164568496      2.1268001946638311      14.054798214148139
   725   3       18.35858331309991    0.014644789117548827      14.145959729190578
   726   4      15.889290297160699     -0.1157784669387123      16.085096641764718
   727   1      18.210206481678988      2.0383288674884246      18.153286029531102
   728   3      18.164058993758385      2.0112000377912342      16.148708362393535
   729   3      16.181425232536437      2.0099625853388119      18.459486735876858
   730   3       18.21373337218218   -0.040497606177050255      18.547901659917162
   731   4      16.220211503328258      0.1051840848911741      19.968011214461953
   732   1      18.245740520459982      2.0164953663934337      22.322268072737341
   733   3      18.347834339081775      2.1366320387170274      20.312090333420812
   734   3      16.201454304355995      2.1092408653487484       22.39590022752051
   735   3      18.141173716904433   -0.041882788047713095      22.241497916303125
   736   4      16.091141779540983      3.7113638042691921      12.081434839314934
   737   2      18.244171764028088      6.0685168708474322      14.029077073192063
   738   3      18.424546591143379      6.0111640104942907      12.115701879514317
   739   3      16.274186650434395       6.071466694240832      14.174283747228435
   740   3      18.321129476640753      4.0605458169233462      14.263436448908953
   741   4       15.97705755954396       3.925493973874679      15.974443113981257
   742   2      18.145258530665085      6.0217092909878591      18.113981978101243
   743   3      18.187234932566962       6.119879130235879      16.237997568593688
   744   3      16.269739329258027       6.207177087406941      18.435864932647959
   745   3      18.272594422266131      4.1183350780706345       18.32534766922117
   746   4      16.216847700535467      3.5957618142840877      20.244809031196549
   747   2      18.149257123061048      6.1060301115703535      22.207163950769143
   748   3      18.390713333303289      6.0382612539949267      20.331293674064931
   749   3      16.239439253214265      6.2029145908744319       22.34668081599645
   750   3      18.265961856263186      4.1547541917553366      22.535245096351577
   751   4      16.334591281344697       8.552658259430542      12.125758849810367
   752   1      18.213735905719485      10.116364742784137      14.185361662749164
   753   3      18.362537724550457       10.05064601867741      12.151632502164492
   754   3      16.204193854929706      9.9221569254852735      14.076303581411025
   755   3       18.35294716597301      8.0171802929336859      14.184009427789116
   756   4      16.042392592648394      8.3109240332174394      15.942337719410027
   757   2       18.13720012909819      10.139959225519425      18.239731486310404
   758   3      18.385921424132036      10.014803624076631      16.271229057564003
   759   3      16.255521248849181      9.9632802848939033      18.243523442057402
   760   3      18.395487989754095      8.0467758445796154      18.375769603595565
   761   4      15.985553426950091      8.1313473360335546       19.99132317636391
   762   1      18.211036382204359      10.088109277788799       22.22471068706669
   763   3      18.372065636220785      10.060216421431527      20.214776976573379
   764   3      16.141727038788073      10.084214543363219      22.512584487746111
   765   3      18.431009963457875      8.0409041680859819      22.336079920242756
   766   4      20.042873647958462     0.22751898495797293      11.830836611152968
   767   2      22.287374238660622      2.0404300287859063      14.029721204324433
   768   3       22.29895079635579      2.1032691787367308      12.162610652169253
   769   3      20.307667875741025      2.0752604578282763      14.297908856648853
   770   3      22.304146164102647    0.083074905299696883      14.310283591707499
   771   4      20.381313382819823    -0.15687400186129352      15.900375920132213
   772   2      22.249904885560337      2.0380361477298781      18.155739433422699
   773   3      22.337866475296128      2.0153036072255834      16.285181835898296
   774   3      20.313563500255508      2.0242829324015741      18.394108821376832
   775   3      22.375892419101646    0.069239843063903919      18.433299782610682
   776   4      19.893139321420062      0.2867932786719018      20.128558112935227
   777   2      22.213470679184546      1.9766530139840259       22.24968265237337
   778   3      22.274289846659443      2.1480696732243194      20.369752200979896
   779   3      20.333762316012947      2.1580537843230614      22.461090092331677
   780   3      22.324381105346845     0.08690895620503028      22.392127731890053
   781   4      20.067407519698282      3.7823715439405694      11.799107879405515
   782   1      22.237266651371574       6.051739372855125      14.119443995422378
   783   3      22.260087189670621      6.0346809794537766      12.111804218416566
   784   3      20.204802210590667      6.0292984161084346      14.426882691183943
   785   3      22.265362088260943      4.0031321951651764      14.443847244496302
   786   4      20.258560293909092      4.1049524475395796      15.847947260904007
   787   2      22.202552343952938      6.1124102997988059      18.174522888797508
   788   3      22.384591146867304      6.0897773178766723      16.303406252131332
   789   3      20.273806484792768      6.0348316224720513      18.295170902652572
   790   3      22.351699335437878      4.0583263955831139      18.341599260831646
   791   4      19.926576030109377      3.8475504174318114       20.08277468898487
   792   2       22.16773680704803      6.0180987364528598      22.244989826316122
   793   3      22.260142214061041      6.0168688894512758      20.387049860074569
   794   3      20.303462974456611      6.0275566234355136      22.533232878870258
   795   3      22.419949453344969      4.1079418982720393      22.549564436801216
   796   4      19.974796149037044      8.3373793041943678      11.961345182434442
   797   2      22.350967868353948      9.9925581826310594      14.055317647690837
   798   3      22.227979641315514      10.166544709226416        12.1704408574398
   799   3      20.344928278237521      10.096241751938235      14.334681946939474
   800   3      22.374251827908495      8.1131585488435931      14.318036703009192
   801   4      20.105272992656335      8.1422218856870892      15.879653197687746
   802   2      22.328386346523025      10.167447536610824      18.126563021335148
   803   3      22.245447513380228      10.117131960996389      16.240069463486503
   804   3      20.325609204253841      10.065160106849461       18.35115406983369
   805   3      22.288003757559515      8.0606164198556645      18.420240602601726
   806   4       20.00815019406916      8.2748922450074502      20.120518535478727
   807   2      22.239592673672085      10.034529960621049      22.200834642657515
   808   3      22.347120389489259      10.071423364829512      20.342342483380428
   809   3      20.370598934626599      10.140275548340268      22.407476721634744
   810   3      22.386621198099572      8.0809715868301932      22.452060799962748
   811   4      12.502800758197385      12.332061956658276    -0.14641053228347362
   812   1      14.175473370971078      14.102810609774583      2.0164626653576061
   813   3      14.110704458951561      14.268195737820047   0.0022996634329526537
   814   3       12.12616551762085      14.285349330494174      2.0821690424271293
   815   3      14.042279272781869      12.077561089601085      2.2087916964817391
   816   4      12.076507621413656      12.211164211977833      3.6628955571444681
   817   1       14.08134221364628       14.13887649900961      6.0905560434671777
   818   3      14.234050296984618      14.243262157894589      4.0502584516408806
   819   3      12.068883743443847      14.406834328883441      6.1067558248319358
   820   3      14.412048061447491      12.117333717231302      6.0549074492398249
   821   4      11.853991104770204      11.948688585825538      8.1940975721569398
   822   2      14.087872849284842      14.174619648284901      10.096490552358166
   823   3      14.345813830941413      14.211387621756492      8.1833617602944599
   824   3      12.227151424258587      14.275896370876616      10.142777248572239
   825   3      14.334753304626526      12.242441246633536      10.262909830017639
   826   4      12.323706541827031      15.791849919941487     0.18799200582571748
   827   2      14.322442006996953      18.204043538720651      2.0394745428620782
   828   3      14.114445318277323      18.310454513624364  -0.0097423996360169705
   829   3      12.099185880884399      18.331093097955545      2.0280781501895833
   830   3        14.1135818373577      16.291808202623319      2.0087384757353774
   831   4      12.300779004652282       15.79310257937793      3.8562132370926445
   832   1      14.122793331014085       18.25006416046379      6.0040680932786641
   833   3      14.078481992771213      18.388303467082121      3.9685258678758943
   834   3       12.05423972046963      18.224328070131211      6.2965491421734177
   835   3      14.267757859522655      16.230911451836043      6.1395647824948272
   836   4      12.245336166504501      16.164121443387391      7.6829467202742068
   837   2      14.145185191531073      18.247808882631372      10.016671583432418
   838   3       14.22639664918354      18.194494760464394      8.1398334187666475
   839   3       12.20156916809534      18.127434573766799      10.173330537157407
   840   3      14.388975928927001      16.182503583580779       10.21802037448998
   841   4      12.130143114643097      20.106363447025505    -0.28620748972773835
   842   2      14.179781230182268       22.32869123774115      1.9109648028710098
   843   3      14.242364288304186      22.338923535012544    0.052464756502643935
   844   3      12.158659655989265      22.492940433138724      2.1198008294088475
   845   3      13.976709987590748      20.338586706346835      2.0243846648118842
   846   4      12.287909976963325      20.064789658687548      3.8271078622411459
   847   2      14.087099991229344      22.285714950728607      6.0688349830761315
   848   3      14.078208054458717      22.198583239637976      4.1039525111857937
   849   3      12.155174582673702      22.450330056411527      6.2838530965766992
   850   3      13.992335615317256      20.286203275367544      6.3060005624001434
   851   4      12.142083313567602      20.081359576845518      7.8778941001138154
   852   1      14.153996520346285      22.209210493168026      10.128772046971681
   853   3      14.408000552935491      22.364237690159882      8.0902346037075556
   854   3      12.151296528581572      22.407286068465098      10.095086692340795
   855   3      14.267424571862142      20.171823689921336      10.169003519997167
   856   4      16.479580965900848      11.736505464303848   -0.036816502859964469
   857   2      18.122704769421919      14.126280920436074      2.1215646797672685
   858   3      18.244381805878835      14.404789936644395   0.0034821007099942319
   859   3      16.224724400198809      14.227038254913218      1.9931788070019714
   860   3      18.314117366272452      12.222458190384453      1.8829248670919601
   861   4      15.789429685777215      12.346974757167704       4.090024074485239
   862   1       18.25450241556026      14.159446163337545        6.02293234418888
   863   3      18.344513136966562      14.198962215310811      4.0040041100061394
   864   3      16.223242017933991      14.267532641760305      6.0889778284958105
   865   3      18.199423882842794      12.115311382454736      6.2108899791277734
   866   4      16.114409892290844      12.348705125648307      7.7007801697787155
   867   2      18.242082469229711      14.199345987894985      9.9895510335822237
   868   3      18.250679360303398      14.302717932574215      8.1257708687503545
   869   3      16.301933350886252      14.194485136694885      10.330211913385092
   870   3      18.296881234376272       12.24085094251434      10.235057582275948
   871   4      15.995640728739023      15.730218205730216  -0.0041284850880662525
   872   1      18.163097557350643      18.204434088439431      1.9868286803205324
   873   3      18.420757430194907      18.173366992376632   -0.074434122903155236
   874   3       16.16626270318168      18.382947237526881      1.9545457756885944
   875   3      18.423678841064149      16.176606971029024      2.0560932894777775
   876   4      15.848956651205837      15.892038750810384      4.3330079125708707
   877   2      18.068590963720116      18.249335315583476      6.0690770805628356
   878   3      18.431779778248579      18.324766971888295      4.0840026531361886
   879   3      16.199988962714983      18.378522681507196      6.0717738267882106
   880   3      18.372408058893591      16.285489421862312      6.0126799595928135
   881   4      15.956727134632738      16.047988847518276      7.7396590475321663
   882   1      18.214882911440281      18.216276165271942      10.056979419684028
   883   3      18.368698586707605      18.232430246486977      8.0323798927338874
   884   3      16.189879624948016      18.236758233511999      10.360877486775474
   885   3      18.259072178232255      16.175538548794382      10.367212349517814
   886   4      16.172521121784992       20.25995357364209    -0.21072124117622207
   887   2      18.267577058247053      22.243763730470899       2.008102569162463
   888   3      18.081843851154517      22.499915817781588    0.066235798815542132
   889   3      16.142740769446515      22.176100513805444      2.2141511086567323
   890   3      18.321144303323678      20.304530003950113       1.842736035035099
   891   4      16.221209833908144      20.498626770834623      4.0644625952208724
   892   1      18.176867210915056      22.287280895793934       6.043391181915271
   893   3      18.244902777918018      22.022320570341261      3.9892339764334968
   894   3      16.137750357569477      21.942034312112732      5.9717525771469333
   895   3      18.482874713017431       20.20735573340945      6.0904301936238721
   896   4      15.953153076933152      20.399576950615582      7.8532570040669905
   897   2      18.179225815778992      22.267730165945931      9.9259903826847111
   898   3      18.104752472104586       22.28789687033338      8.0806160408750731
   899   3      16.274366299036156      22.222182910127437      10.343096457120522
   900   3      18.329877933550598      20.325047617017148      10.215569953991462
   901   4      20.002868189893974      11.828202010342531    0.058214805226864758
   902   2      22.216369771916924      14.101218801782219      1.9863162053455958
   903   3      22.430976260522371      14.367763691312769    0.065578595844339574
   904   3       20.31937306004809      14.232060751257825      1.9388705758576725
   905   3      22.386793989238349      12.231732532645919      1.9556774334793952
   906   4      20.170894441080822      11.779877938081389       4.093315163367607
   907   2      22.230183570321774      14.120073736562883      5.9546357850198968
   908   3      22.269850193886487      14.226031162106823      4.0541082223323812
   909   3      20.342401924012513      14.265591380070168      6.2168831687084367
   910   3      22.359638348173945      12.257141748750344      6.1606327296994738
   911   4      20.117739448792829      11.867161380558331      7.8071318501718938
   912   2       22.29129751477905       14.05382674103743      10.017330402982614
   913   3      22.384117640425945      14.349756154090889       8.141775629300815
   914   3      20.289983838013388      14.337968988525494      10.158429317502385
   915   3      22.237168261754199      12.181140726039242      10.167098107814128
   916   4      19.909144091342558      16.116571404042062     0.11258614995903225
   917   2      22.230583592423613      18.206727320267053      1.9013019429037659
   918   3      22.390694106469034      18.236009678629902   -0.012105145221374401
   919   3      20.323294187847491      18.294497907232511      2.0176785505977186
   920   3      22.362155183662367      16.258284116356283      2.1666721171937122
   921   4       19.85941268018707      16.290859114907313       3.926741171738839
   922   2      22.342915513601803      18.171568975767823      5.9502760195678182
   923   3      22.250053946105254      18.386460657536318      4.0750641930375906
   924   3      20.362647514614824      18.241761261471538      6.2299252750704373
   925   3      22.347733410724455      16.266882686414366      6.1407697176679124
   926   4      20.044707128332963      16.186986118791559      7.7864479844135488
   927   2       22.23986507646282      18.166769193107385      10.054508203535113
   928   3      22.372535951868787      18.271532824808048      8.1660413652111714
   929   3      20.332992724274398      18.335074277260098      10.202580856642015
   930   3      22.315313434834618      16.277129958496335      10.287702422303369
   931   4      19.977785511863484      20.059038991430384  -0.0083744059177989407
   932   1      22.228143951689194      22.242121613570749      2.0601298459913382
   933   3      22.412310548098848      22.404831337642964     0.02934463631620688
   934   3      20.189590804697424      22.413177870379879      1.9313516524083556
   935   3       22.45344433420458      20.214213078629651      1.9932672996506833
   936   4      19.941939057963928      20.178231289676511      4.0141418329860041
   937   2      22.125458394141447      22.300978673476347      6.0260196154259207
   938   3      22.404135100926037      22.222934723809317      4.1243779754823411
   939   3      20.262047400161034      22.444596063990996      6.0580008950008297
   940   3      22.222392795341872      20.298106570424935      6.3037582480420369
   941   4      20.050081611606714      20.035447090890905      7.8912468214009897
   942   2      22.201804697541085       22.30242048347262      10.139642594085267
   943   3      22.461554483598558       22.33795888387036      8.1177177753912702
   944   3      20.275298373795668      22.350562025590701      10.105599793561876
   945   3      22.391026243868847      20.283991188604912      10.101658649644186
   946   4      11.812162101271579      12.152602087362112      12.049414234007934
   947   2      14.133932270790863      14.293239710991081      14.114861908322311
   948   3      14.233717135336875      14.231611183314252      12.188973007258364
   949   3      12.261053360723336      14.162838963312826      14.311535390925307
   950   3      14.338219266297264      12.176423389193836        14.1823551144596
   951   4      11.953281365846442      12.481219229418551      16.219883350853355
   952   1      14.116355640345967      14.215831621622799      18.160022965996731
   953   3      14.444472375013557       14.13501484596525      16.125516318417592
   954   3      12.123455017630226      13.970480396273077      18.159222326202688
   955   3      14.347581620980472      12.114360987486409      18.204588768053966
   956   4      12.392787593120703      12.486996631886846      19.952179547772808
   957   1      14.189035463664968      14.156478724000056       22.23793124201546
   958   3      14.251215180309458      14.050122975109975       20.23479294971694
   959   3      12.113848862962499      14.089172739024114      22.371363419422817
   960   3      14.125415027513556      12.083403122201007      22.409454525400335
   961   4      11.766168292990338      16.157758865446631      12.154479805204506
   962   2      14.129418623569741      18.253653406957071      14.091619287455615
   963   3      14.192730489201187      18.218619193312648      12.220477274084947
   964   3      12.260609638659934      18.236388669810719      14.347710256921268
   965   3      14.272935658783608      16.233158051458968      14.277106764876997
   966   4      11.736119186508473      16.208845104216866      16.168818016240316
   967   2      14.125123293863378      18.207819931163176      18.139429245095691
   968   3      14.362305174381232      18.253038927103972      16.235946874753299
   969   3      12.243094246241727      18.272642490674745      18.265701188462092
   970   3       14.34329932715851      16.271745660221193      18.279388405382441
   971   4      11.771718739230769      16.353055464645703      20.227769820661027
   972   2      14.119600690707152      18.110490490302436      22.250558656328526
   973   3      14.273935585039794      18.357739618493145      20.301280081529487
   974   3      12.212797920947622      18.356048804644736      22.252605904229654
   975   3      14.216581662831459      16.250779664975081      22.262872522742974
   976   4       11.77232104393382      20.440508796916031       11.99383304010327
   977   2       14.09641626113628      22.327652961808589      14.105581457015207
   978   3      14.184298948662708      22.242333820413357      12.215983079229208
   979   3      12.214895433572377      22.273574894050657      14.374251695799398
   980   3      14.312919288443606       20.23963828771068      14.323719388928147
   981   4       11.86044581349948      20.140841013313363      16.092414624240813
   982   1      14.119734933347683      22.250077601062973      18.196348926388964
   983   3      14.452428375645487      22.296415043560369      16.186439231600247
   984   3      12.087727523058492      22.550330652942364      18.180632857601996
   985   3      14.393619349842565      20.207470620219354      18.204560094241927
   986   4      11.834458912464964      19.995639540638702      20.151622481275123
   987   2      14.150484868117248      22.282236842669523      22.120182369451086
   988   3      14.087295260867803      22.271557790331443      20.261752352711426
   989   3      12.207744698184877      22.287263154295445      22.477328361647793
   990   3      14.227397526692764      20.309527384680766      22.447534519808023
   991   4      16.220456989110431      12.090957975426504      11.816516229914352
   992   2      18.181026664770897       14.05548472911592      14.182336191417237
   993   3      18.487820894268189      14.177955750876606      12.234896692837177
   994   3      16.292292545484951      14.228359300832587      14.122396451035723
   995   3      18.407265158958992      12.172905942436895      14.285346611352244
   996   4      15.825257425530149      12.194512391455611      16.414540831509527
   997   1      18.236803816044475      14.139244638667805      18.202252441915867
   998   3      18.245015235904756      14.375467176942184      16.151898334898451
   999   3       16.24279667697834      14.220343163678455      18.295702383261993
  1000   3      18.330981384263175      12.069494398154886      18.223603745634765
  1001   4      15.904317913753896      12.398494132826542      19.906261816774066
  1002   2      18.206519914917784       14.03769524004661      22.214839256599539
  1003   3       18.36154206470707      14.085139807449067      20.323789729260906
  1004   3      16.293703852097153      14.286174686140185       22.32190872159212
  1005   3      18.238878873448403      12.160678576053531      22.477419977481361
  1006   4      16.261357668822733      16.278781999345373      11.785346704963523
  1007   2      18.152181175419621      18.130753553985677       14.14165812002388
  1008   3      18.377310253153166      18.417802371689678      12.260911109594131
  1009   3       16.26282057086841      18.259390825732293      14.182132755305203
  1010   3      18.360704640369949      16.258775347356931      14.123445956316118
  1011   4      16.169297840310023      15.816993499044903      16.411522897532109
  1012   2       18.25697935216548      18.153912409659039      18.133622191063381
  1013   3       18.24665253807634      18.239347364674881      16.243040501836287
  1014   3      16.295600932752343      18.308578365963029      18.413445832999837
  1015   3       18.25656660165361      16.277351728620562      18.389965720390801
  1016   4      15.958511381401543      15.832442289058381      20.035241830049898
  1017   2      18.124161649000978      18.098403531365754      22.255820629737329
  1018   3      18.280387021906357      18.528069358127041      20.356074002580929
  1019   3      16.217442549799518      18.361583103517003      22.381152743727927
  1020   3      18.338324200870854      16.236832647884981      22.200284420948559
  1021   4      16.166108533369613      20.174508284944825      11.773287517097952
  1022   2      18.241561737622607      22.189846423147284      14.069419723321303
  1023   3       18.39502595830465      22.218653249427753      12.206056303994528
  1024   3      16.298596505937979       22.35174209132725      14.183580091595379
  1025   3      18.309866244125928      20.291450841041208       14.37982678851235
  1026   4      15.888996605356317      20.357273567077346      16.196122538437795
  1027   2       18.13365418661347      22.293765500153508      18.138509306536648
  1028   3      18.169135512399755      22.462357756711398      16.262973822687645
  1029   3      16.247796909704626      22.329882982119546      18.428382802523849
  1030   3      18.285659252864914      20.332620128802187      18.285847493437945
  1031   4      16.053346786136146      20.169201201820428      19.977926885440397
  1032   2      18.277833398114364      22.302336762953335      22.206676029500525
  1033   3      18.327071634333958      22.148155950061412      20.322760354799357
  1034   3      16.174528055360152      22.264775794130578      22.371840257896846
  1035   3       18.18667211324912      20.312751828501938      22.608800799863019
  1036   4      19.971810733623489      11.863980917037377      11.964713793062518
  1037   2      22.263610938594443      14.016307752731839      14.109289917537598
  1038   3      22.157359767454196      14.263333986006648      12.177545392688033
  1039   3      20.298827489254951      14.311621237446115      14.328520492508169
  1040   3      22.176577883707168      12.152039275231145      14.279597861368913
  1041   4      20.105722796821478       11.84723491352166      16.007113256034938
  1042   1       22.26327160730672      14.083067890046584      18.161330429842543
  1043   3      22.306328076605009      14.387538544443363      16.126238737647054
  1044   3      20.256191203031715       14.22978508357741      18.265946086686323
  1045   3      22.287518578716636      12.067441439270247      18.365287950783305
  1046   4       20.16160118275026      12.264657639262255      19.830515475411154
  1047   2       22.25054237241492      14.045075612142897      22.250318880195156
  1048   3      22.209644324655549      14.189875456412476      20.350650096960898
  1049   3      20.294181776684145      14.172860380909716      22.451726580579333
  1050   3      22.411192438203678      12.130461847350965       22.44180782511344
  1051   4      20.129264442582095      16.006371185412064      12.004576394179704
  1052   2      22.215068993364053      18.140770709575467      14.182025716510321
  1053   3      22.287227962625117        18.4792499480175      12.205782321510952
  1054   3      20.282095258835998       18.39461340749196      14.292019410449956
  1055   3      22.318301535793005      16.258614910024662      14.109530773761097
  1056   4      20.278413370396922      15.752242098948788       16.31259653219038
  1057   1      22.253914041065507      18.239764525424373      18.188878217097926
  1058   3      22.440085805771158       18.20530190748152      16.158241433361297
  1059   3       20.19875944174704      18.335204943065303      18.397284035522294
  1060   3      22.341021067195399      16.213607623446173      18.344598515810041
  1061   4      20.392560781768836       15.97578382800128      19.830151690966556
  1062   2      22.181119166538117      18.198905558436714      22.173623212458125
  1063   3      22.300613899788146      18.417279730075311      20.285259319853996
  1064   3      20.269855421789437      18.425350771756364      22.282015484228531
  1065   3      22.275996913808395      16.263867813137523       22.29666800494125
  1066   4      20.106240723594919      20.063648491248212      11.910701780059656
  1067   1      22.276017153987844      22.285845108499842       14.09256006348137
  1068   3      22.364938984738835      22.161031047286148      12.078035166920035
  1069   3       20.22387553026968      22.304517815303985      14.467270906050347
  1070   3      22.283912282911029      20.276084651915149      14.431107463531353
  1071   4      20.381203888672825      20.267321392216015       15.89772819427694
  1072   2      22.157728039729268      22.252198555929922      18.301430830451704
  1073   3      22.370587396227005      22.503422143275944      16.334330547223686
  1074   3      20.249448713814608      22.392074119312277      18.265091806232842
  1075   3      22.365192349851061       20.34034529035921      18.168590918246132
  1076   4      20.137971523851018       20.05298227579091      20.067051043771983
  1077   1      22.224416243373224      22.273229342591556      22.230693170092408
  1078   3      22.370485900118346      22.189968537866068      20.229805091897052
  1079   3      20.182851448398772      22.299273949123201      22.530435302279315
  1080   3      22.471321950577966      20.211818401526099       22.37243252869537
