(written by ASE)

1080 atoms
4 atom types

0.0      24.299999999999997  xlo xhi
0.0      24.299999999999997  ylo yhi
0.0      24.299999999999997  zlo zhi

Atoms # atomic

     1   4     -0.2986246801521103    -0.23376990219506169   -0.056829224829684333
     2   2      1.9943820330082138      1.9548934398557458      1.9485136860738392
     3   3      2.1371867100147171      2.0094905977887376    0.069006329595264593
     4   3    0.088555511201380638      2.1357540311198786      2.0761127098360439
     5   3      2.0518205755217305     0.04148160739126501      2.2447039212093425
     6   4    -0.20518783356190251    -0.18409413804972477      3.8463357185321283
     7   2      2.0641509778933957      1.9814987956667709      5.9629428925984582
     8   3      2.0736139096102688       2.154990645372608      4.0938954813603816
     9   3     0.11910932971465135      2.0686450929522713      6.2101741989330703
    10   3      2.0006066685205974   0.0020881308911281649       6.163345472213364
    11   4    -0.25581761600264802     0.19736692577042927      7.8245604352829536
    12   2      2.0368285014942304      1.9203406545622956      10.033934247387212
    13   3       2.131245119388061      1.9460715507102739      8.1569079806095637
    14   3    0.065828550636762712      2.1356823135911127       10.18252948101391
    15   3      1.9268824886683933   0.0074145920929583765      10.322205912593812
    16   4    -0.21858420347487537      3.8977712754225271   -0.014788628731947194
    17   2      1.9612763925038097      5.9453291541787534      2.0342992902721595
    18   3      2.0742766842750315        6.16545705597715     0.11971230868288714
    19   3    0.095465375417447582      6.0430459941423988      2.1928390801444517
    20   3      2.2172265146506254      4.0543440885905833      2.0859434161366996
    21   4    -0.32540277805818196       3.993398127592652      4.2153601742602449
    22   2      2.0710096276393459      5.9471358701320449      6.1113484058867362
    23   3      2.2773262980615168      6.0688810218083029      4.0875129862800419
    24   3    0.080475391697632376      6.0086591716791817       5.874582631076815
    25   3      2.1516377161222682      4.0219261242524809      6.2305719774760195
    26   4    -0.39934796038527548      3.8110394086486883      8.0224160062923691
    27   2      2.0833933509282829      5.9735589252153609      10.165563735442362
    28   3      1.9367003858815011      6.2222613389406245      8.1021241576396363
    29   3    0.025508431904024929      6.0423134028662684      10.179110173455324
    30   3      2.0655302275506133      4.0607216854302939      10.172065472010864
    31   4   -0.095455349713936571      8.0441847646711064    -0.15411458680274806
    32   2      2.0625151296009734      9.9514000886387262      2.0745678066587621
    33   3      2.0771847976771665      10.115881729600714      0.1146982443466992
    34   3    0.076626658114659366      10.273314480346363      2.0826483046310469
    35   3      2.0832487006388152      8.0793379508665257      2.1769950474427557
    36   4    0.045028070927980057      8.1263560691938679      4.4795438351503654
    37   1      2.0583700745987281      10.050771989368696      6.0844060748470534
    38   3      2.0797615069934468      10.348897499951963      4.0257853993078658
    39   3    0.011024411132243969      10.251609682609795      5.9944761658853336
    40   3      1.8650374633748892      8.0311125071804916      6.0376814805534185
    41   4     0.31167413113042419      8.0559567953883615      8.0859937330773111
    42   2      2.1698673935614496      10.156726277820534      10.089302719384682
    43   3      1.8570530967017187       10.09752585277022      8.1577424545864901
    44   3   -0.092847903376572671      10.261327456713666      10.167549936728426
    45   3      1.7651157813276961      8.1431087016080905      10.094765667456503
    46   4      4.3060773686935576     0.24199092943846834    -0.18618477281219001
    47   1       6.088036853384228      2.0244853652602157      1.9960186708874492
    48   3      6.1200083562477463      1.9578364591434665   -0.015074844298192712
    49   3       4.032867752893428      2.0098567595191597      2.1723099564133159
    50   3       6.170062152965043 -0.00040631274074158546      2.1879906664847972
    51   4      4.2950823046765736    0.004519037775754668      3.6169434292940945
    52   2      6.2098339023554692      2.0774543854031315      6.0674120441651969
    53   3      6.0345841016123423      2.0800284991776996      4.1245524670193996
    54   3      4.0384127712461222      1.8720321458331499      6.1472833010932151
    55   3      6.0725752381473068   -0.022811552664324886       6.123730412227764
    56   4      4.2581600077947082     0.19325210770629475      7.9110166498086327
    57   1      6.0954601629577967      1.9417917279724777      10.112210251178176
    58   3      5.9083186081117098      1.9740347530060138      8.0874547418475835
    59   3      3.9703760276619913      2.0049903406932583      10.356871244034814
    60   3      6.0248195511664635   -0.079855284446937055      10.323699926247103
    61   4      4.2147858870945285      3.8176005241317186    -0.26691827887906172
    62   2      6.0083589612238439      6.0842264781675048      1.9612940966601922
    63   3        6.24230816577687      6.0889069242512956    0.063845783830749112
    64   3      4.1040587231145222      6.1988675813416503      2.0531270370337791
    65   3      6.0915359786650525      4.1067964724525874      2.2000074701862498
    66   4      4.2557149910944245      3.8220400104458068      3.8473545057004399
    67   1      6.1064672646814175      6.0216582894878075      6.0816740553488238
    68   3      6.0198497309442471      6.1969042516353712      4.0537498274691126
    69   3      4.0191078111354397      6.2855855200063484      6.1688719362870801
    70   3      5.9190768703102359      3.9921138324157828      6.1604260690145711
    71   4      4.5745122591984941      4.0828307914074742      8.2014766347493975
    72   1      6.1015195997552496      6.0658768403846128      10.172599577560488
    73   3      6.0495138797283969      6.2402249737793039      8.1238057478091665
    74   3      3.9829565073094484      6.2318083884837359      10.037264437640243
    75   3      5.9590707304089126      4.0464125173086263      10.145419289476001
    76   4      4.0205865739732491      8.1227808869880658     -0.2919581777375212
    77   1      6.0848181045458523       10.06813471217421      2.0608223467081648
    78   3      6.1521762330509189      10.176141386713333    0.019589516028669613
    79   3      4.0336969762980592      10.283798384913968      2.0864037197810537
    80   3      6.3219482933822357      8.0535515879841792       2.096563904463657
    81   4      4.1087511108286421      7.7303024979376991         4.2209966796486
    82   2      6.0133426348878416      10.083522183981986      6.0691149924698671
    83   3      6.1629447564985878      10.345278541084728      4.1342034178105092
    84   3      4.0839053138325294      10.273072599138471      6.0469134245307563
    85   3      6.1286179541692887      8.1834242028722546      6.0411606549673076
    86   4      4.3100027726591001      7.7802211358771656      8.1232956998160404
    87   2      6.2415760717390203      10.073573104804311       10.13473191560719
    88   3      5.9944442382874783       10.06694034589459      8.1311916209892505
    89   3      4.0257715973178598      10.108243217485184      10.165485038390425
    90   3      6.0653965340867311      8.1698725025850027      10.290261236433142
    91   4      7.7534015600117687     0.11618891644042871     -0.1983248689458256
    92   2      10.064712205993096      1.9911959122255294      1.9768896851308284
    93   3      10.191993625726152      2.0520727977816793     0.10446855700377439
    94   3      8.1617803166127469      2.1412257615893346      2.1612097513542436
    95   3       10.13326662581143     0.05865529642078629      2.2935778532760285
    96   4      7.8909092757505901   -0.067507233529645466      3.7135647236600309
    97   2      10.304157853918431      1.9230990895268176      6.0715804322434783
    98   3      10.125228583996661       2.257092488572872      4.1264698436505007
    99   3      8.0893228425663981      2.1107531822259404       6.124086361635511
   100   3      10.067944796728584    0.015350148825839268      5.9547651423903432
   101   4      8.4118045161518982    0.063864699350817358      8.4021643033875186
   102   1      10.155862912013367      2.0269151180381852      10.138863115980756
   103   3      9.9808619295378858      1.9086384245964623      8.0498957125992749
   104   3      8.1054166184471761      2.1537630556007317      10.096058663777251
   105   3       10.05940700504075   0.0056762081440795862       10.23471025182123
   106   4      7.8936732901206144      3.7315742609778364    -0.28992355178065715
   107   2      10.107252689515184      6.1061321089685165      1.8847898182525884
   108   3      10.122375008659244      6.1884438618666877    0.040839159295379034
   109   3      8.1666992313295879      5.9781657836130417      2.3165264216024388
   110   3       10.24278591717411      4.0763827094027691      2.1240221402186363
   111   4      8.0082830871758457      3.9734534906390748       3.813753645441142
   112   2      10.028254071063387      5.9309364201409895      6.0906004906775939
   113   3      10.247249807325657      5.9557387179621459       4.168384098379061
   114   3      8.1470620591323968      6.1785098410158463      6.0736373994566515
   115   3      10.140361016186183      4.0542114973602583      6.3201590117730904
   116   4      8.2624954689228662      3.7246613528562875      8.3743819858154573
   117   2      10.104060066671181      6.0438601957302431      10.291492948072113
   118   3      10.056839799892872      6.3495977612663834      8.0782696272336505
   119   3      8.1670669947220169      6.1583334471625406      10.118011545417794
   120   3      10.152284514631694      4.1037811142516478      9.8606424325237771
   121   4      7.7377072047564246      8.3306647072132698    -0.11820804335350889
   122   2      10.138704940004772      10.157104277870703      1.9491683647209805
   123   3      10.236578326006088      10.025968789426983    0.081545638805685397
   124   3      8.1832039528578413      10.213175494915147      2.1293530684361635
   125   3      10.082029396883279      8.0681310991038018      2.2946676452548362
   126   4      7.8774245783771679      7.8844957831997693      3.9327027815893407
   127   2      10.016833979668736      9.9972702898538994      6.0919211700293792
   128   3      10.015102139664695       10.31410824823304      4.1802404995576374
   129   3      8.1056858623236945      10.312718639204004      6.2343840456071975
   130   3      10.166196660390534      8.1334685923711127        6.01717223444669
   131   4      7.9349568132273802      7.6659026862006208      8.1694723256407702
   132   1      10.080302172236879      10.116630583924128      10.094765920870106
   133   3       10.34994657913049      10.157577440164301      8.0581957361635688
   134   3      8.0927704993233345      10.187341957393814       10.09617244203797
   135   3      10.369527012406493      8.0705273304854774      10.225746143676956
   136   4   -0.075593353621903517   -0.037592081459523315      11.886917303069886
   137   2      2.0498609076051304      2.0875105122877597      14.114042154385826
   138   3      1.8450139569058395      2.1051239326749043      12.192356815011241
   139   3   -0.022588509593207413      2.0589761306533174      14.387989879034246
   140   3      1.9223324989039561    0.024524752585915906       14.26349928900656
   141   4    0.015986179533526032   -0.019000961882942573      15.930246001592112
   142   1      1.9778608054891351      1.9959572209969669      18.167015484802075
   143   3      2.2149859696584677       1.988675019924909      16.171702037118113
   144   3    -0.04944959850506906      2.0533965725679439      18.412316265026714
   145   3       2.051750856677157   -0.035605373825679167      18.517475216101484
   146   4   -0.076092564870142543  -0.0085478611428348866      19.958653587529458
   147   2      1.9972972366802058      1.9902245708405921      22.178322301792758
   148   3      2.0973738971328282      2.1347274779548582      20.323102498456791
   149   3    0.071371536747925568      2.1624259657713547      22.416076260236228
   150   3      2.0932286827222586    0.056850343110190701      22.275761260643989
   151   4   -0.092743260392026086      3.9403408041745553      11.863410305362194
   152   1      2.0366337495665867       6.034047636745929      14.082785957330179
   153   3      2.0212705769022987      6.2653335182659653      12.073782760517844
   154   3   -0.024209672650101877      6.0775548632000822      14.314629851538454
   155   3      1.9927920405343447      4.0212073628279201      14.294951215868595
   156   4      -0.037666684972104      4.2778258761125141      15.795493060649875
   157   1      1.9473701856353025      6.0724193881981599      18.194205186134727
   158   3      2.0761386552153165      6.1322239970378627      16.178363334009639
   159   3   -0.080071986708364379      6.0691419220541798      18.416329215789162
   160   3      2.1274725494108591       4.043746091521899      18.278606203767907
   161   4     0.10131517105055758      4.0381007418930341      19.787536801215317
   162   2      1.9489339855017602      6.0249105680231665      22.276827669541529
   163   3      2.1416008464198488      6.0342005259678917       20.38723793592882
   164   3     0.06095818927479623      6.1219608433206396       22.40604245765865
   165   3       2.161638689598075      4.0877193128246763      22.489469359769018
   166   4     0.27171271109765982      7.9341880189586709       12.11758741474501
   167   2      2.1063468510052465      10.102653998652722      14.239259485481742
   168   3      1.7876864696244767      10.071288017436746      12.123244094548703
   169   3    -0.06003701434194663      10.184494158158758      14.199001990320221
   170   3       1.887945339156381      8.1766230791180927      14.164613914367324
   171   4     0.18666215923963062      7.7354276505659829      15.895523073010409
   172   1      2.0092266648666128      10.096780303867117      18.159717146324855
   173   3      1.9644739350772631      10.280141788361517      16.124460078084379
   174   3   -0.063161271088789134         10.036886534168      18.291216163931228
   175   3      2.0234640721213042      8.0919288097246724      18.378369136722927
   176   4     0.15127691168215121      8.1220347727472237      19.806240472121246
   177   2      2.0456195338313465      10.176810081074898      22.168479282596241
   178   3      1.9762018776301769      10.101694483016969      20.309854311142974
   179   3    0.052323320080581118      10.025236507757926       22.53987699318542
   180   3      2.1046790615297759      8.0610604977806339      22.453184069943312
   181   4      4.4645173050276119     0.23023892181300518      12.129278455195319
   182   1      6.0719062598553464      2.0253330182708353      14.201483723659704
   183   3      6.0504378585017902      2.1564547469440285      12.186631495131655
   184   3      3.9916961470309262      1.9120286799726991      14.098970723925497
   185   3       6.024931400884844   -0.041994380941885651      14.178387485888903
   186   4      3.9904412765971511      0.2301360941384169       15.94169052235123
   187   2      6.0013160998140735       2.147294554145617      18.150049500699456
   188   3      6.0578720286453782      1.7666784632218642      16.254841723306026
   189   3      4.1102241129959989      1.9066229983798928       18.37394582171753
   190   3      6.2324570855301529 -0.00059156117349162829       18.42805596586502
   191   4      3.8681118031866744     0.10530907751552863      19.987010748817223
   192   1      6.0566825477263189      2.0517914586951043      22.166140409531998
   193   3      6.3702305526661753      2.0502607825395236      20.161153407089799
   194   3      4.0245326561977954      2.0351011213790651      22.461355495862801
   195   3      6.2494854763516745  -0.0027335682372823101      22.228864122367803
   196   4      4.4066942140999545      3.8294478572521671      11.926309331108694
   197   2      6.0240094073808752      5.9389755995438929      14.238191433915048
   198   3      6.0383113083968087      6.0917345798183291      12.208177233161461
   199   3      4.0797150426351294       6.243522229134463      14.180657282886697
   200   3      6.1344729170976171      4.0525396970208005      14.347104247578041
   201   4      3.5066961370712173      4.1344051728572344      16.289102998845031
   202   1      6.0968467909114237      6.0578612494282016      18.193984786131082
   203   3      6.0504134997828531      6.3531574707954768      16.163060875278909
   204   3      4.0498383250444032      6.1689704183801313      18.284684350458367
   205   3      6.0058727876776477      4.0236736762223053      18.133449249692394
   206   4      3.8764812667659618       4.230951718390898       19.79440891359511
   207   2      6.0256826669819281      6.0918728549828902      22.131296585276448
   208   3      6.0929954066452812      6.0893768626673301      20.281199088213526
   209   3      4.0986153455427603      6.1349687903531835      22.484778770593039
   210   3      6.0572810105759523      4.1298274891059039      22.433727411284757
   211   4      4.2681857870909798      7.8759652474135944        12.3339296919261
   212   1      6.0366915947058528      10.109516252044582      14.198265077927301
   213   3      6.0556862334946713      10.417352421500084         12.066116250135
   214   3      3.9848628325479272       10.18758419280678      13.999720199664548
   215   3      6.1558126971027791      8.1199125657097824      13.954233930486803
   216   4      3.8410465032119867      7.6659185281701276      16.328082995086174
   217   2      5.9147839640064843      10.124363138683851      18.167306730017579
   218   3      6.2469486107380536      10.072653116280145      16.239905872281231
   219   3      4.0514320193735092      10.122735897690845      18.271487530611584
   220   3      6.1852621694256538      8.1555888518336115      18.305320393128081
   221   4      3.8401348501510117      7.9530270772684037      19.814943444691703
   222   1      6.0220308458790228      10.115034160176855      22.185584825072663
   223   3      6.2991188226912094      10.152317728422759      20.188146922890876
   224   3      3.9956108844415144      10.073388901168542      22.484615133713071
   225   3      6.1446008649992629      8.0505923355301956      22.419105638011587
   226   4      8.3995811346963709    -0.31250322233006794      11.917371525836813
   227   2       10.12841990715334      2.0183377702888112      14.056235725344511
   228   3      10.094857351782782      2.2461618475814866      12.180111960096516
   229   3      8.1817802460260207      2.0412758100178205       14.43041482415318
   230   3      10.291239530472069    0.082972555111322316      14.189843761269746
   231   4       7.864838573351042    0.079859036491404245      15.924243646259402
   232   2      10.106011169152088      1.9464800810174236      18.194996805400024
   233   3      10.353322628911222      1.9422545522360128      16.258138474691822
   234   3      8.1793476001110665      2.1199115139462017      18.093143719355137
   235   3       10.16869824268114    0.042839022846452773      18.393276769507192
   236   4      7.7742320742519473    0.055091333159094431      20.285242197716997
   237   1      10.111171621854766      1.9715709578224254      22.226298013411846
   238   3       10.08682196445378      2.3168282030851794      20.177865043156981
   239   3      8.1302436485216099      2.2456980709923897      22.284143207967514
   240   3      10.167919328797097   -0.054660288891952187      22.311599872426076
   241   4      7.8404146741036618      3.6385833245209236      11.877165720362212
   242   1      10.111982211119571      6.0454038034860895      14.175321200716649
   243   3      10.306590229806066      6.0179337438356431      12.155871481467011
   244   3      8.0579791659094386      6.1756872511343923      14.206860782376102
   245   3      10.099829405339394      4.0242116945313908      14.506548686165566
   246   4      8.1553277780018387      4.0203610228192073      15.878821502170478
   247   2      10.015488254620653      6.0450290164574252      18.113036354220402
   248   3      10.216366913055683      6.3184347386223392      16.244079459163547
   249   3      8.1558654064995473      6.1885500774931774      18.224724822123562
   250   3      10.199044120232781      4.1266593737299679      18.073231089382247
   251   4      8.0900066716917376      3.6791914200470814       20.37129477056893
   252   2      10.033868813861059      6.0603769456033998      22.134409465745684
   253   3      10.205963041989291      6.0574909433669539      20.265130147802928
   254   3      8.1242052137124094      6.0404049759181575      22.319826829131696
   255   3        10.2517339383934       4.176720331460702      22.447073263042437
   256   4       7.859047069157973      7.8115652510537874      12.365696616447341
   257   2      10.047905589533384      10.127280083503107      14.088914483788708
   258   3      10.367457620013324      10.226357454094574      12.174124415149469
   259   3      8.1826114705232431      10.098263868541677      14.075468308361762
   260   3      10.366721875593207      8.1782810076090975       14.06476143146504
   261   4      7.7165879993700246      8.0510779875911851      16.101100350021902
   262   2      10.120984800394753      10.175026492706259      18.054637774497746
   263   3      10.235291030003729       10.02800564941785      16.163821404655383
   264   3      8.2169707913490413      9.9972478881434146      18.276461399259048
   265   3      10.272624858159745      8.1192822148901165      18.384694483533973
   266   4      7.8491894553383847      8.2400955622402208      19.994110824014783
   267   2      10.155530135339749      10.037232095548809      22.167706937431845
   268   3      10.130954749532695      10.123848046209266      20.303686995318671
   269   3      8.2283112927307691       10.11448125342193      22.453551643441784
   270   3      10.182585366264592      8.0867850266428292      22.346781794068065
   271   4    0.016620784882320126      11.863619255874486   -0.098601153554888521
   272   2      1.9673004437216086      14.096576933732324      1.9476198180843503
   273   3      1.9820006795896485      14.430523855388302    0.054027224997903647
   274   3    0.055817977447590685      14.341211113604011      2.1303137820485634
   275   3       2.080694604964167      12.212137127959201      1.9616604813170431
   276   4   0.0043266888004418434      11.759406545941818      4.1963112825350342
   277   2      2.0304060903378969      14.145008040666452      5.9813910176453859
   278   3      2.1786127272424638      14.169712444585631      4.0443436361376497
   279   3    0.023814800019046001      14.298747438566185      6.1284198502566598
   280   3      2.0179997861997556      12.212561145218347      6.2370571258359089
   281   4     0.12826247803369048      11.806661902826345      7.8155689818667238
   282   1      1.9574878385242309      14.086286919085962      10.083774627978736
   283   3      1.9477664604276055      14.412511686565919      8.0774121000086705
   284   3   -0.097929881664252275       14.31160000659016      10.236846985088338
   285   3      1.9024776500747682      12.077048115047459      10.209087987943322
   286   4   -0.096258379242829081      16.004235267630314     -0.2529370292182585
   287   1      1.9998658836442571       18.24537398722963      1.9471718829752489
   288   3      2.2371319056113399      18.187073425978099   -0.076814710179323689
   289   3  -0.0028395007196102529      18.207500409312992      2.2285732173228352
   290   3      2.1476707192365763      16.195904553419229      2.1745090087437093
   291   4     0.11899742931969962      16.365515750492921      3.6863108413277437
   292   1      1.9985887223287806      18.234579105152136      6.0334043141860825
   293   3      2.2540916380666758      18.297589312231111      4.0435192793176631
   294   3   -0.035061963250799938      18.431173235728398      6.1305565526515329
   295   3      2.1391472288528401      16.194846030705396       6.057920429534855
   296   4     0.13413103961234288      15.935855702417417      7.9513345000248776
   297   2      2.0423547279868894      18.170325274044053      10.099123930812773
   298   3      1.9560372441639531      18.290969819942365      8.1673603389630891
   299   3   -0.028909973963195001      18.374501581415821      10.305220954813233
   300   3      1.9670050854446262      16.272669688920413      10.275794348690988
   301   4    -0.42029000420841051       20.45273058755048    -0.11150811902015141
   302   2      2.1079141166798703      22.247150027461696      1.8713659062558774
   303   3      2.0682975599289781      22.446547918321933   0.0013950969339749852
   304   3     0.13232243520598783      22.347940032230042      2.1588887804774841
   305   3       2.081475673791525      20.324336715116353      2.0615700469978311
   306   4    -0.02619287341093704      20.158731602103824       3.635997561010901
   307   2      1.9694715642569178      22.275383445101394      5.9865502637248209
   308   3      2.0798606970869638      22.238551940774528      4.1202709075486776
   309   3    0.057388715368897489      22.189319311065486      6.2022597486323781
   310   3      2.1486504771247095      20.351048690495773      6.3097522141528692
   311   4    0.065892975088545108      20.083651940936409      7.8084857010589763
   312   2      2.1079160266774388      22.225035176050877      10.033162853848449
   313   3      2.0343635462278575      22.399878207828966      8.1791116315942212
   314   3   -0.015775102203263246      22.350908799578299      10.281506876616161
   315   3       1.920981840349381      20.331148103196906      10.118394567155892
   316   4       4.191120554665356      11.713623981567597   0.0014446414494528751
   317   2      6.0145417987123606      14.105210217626238      2.1161163009060195
   318   3      6.2323377208307935      14.277271807534133   -0.020387272338484027
   319   3      4.0809491224167331      14.274813870161058      1.8962534139410019
   320   3       6.142893127508942      12.209995875110589      1.9625712876743449
   321   4      4.0002783494737528      11.800475215833558      3.9865652769210871
   322   1      6.0535579198273402      14.181312172566335       6.020264899524169
   323   3      6.1315738991011797      14.156493601787105      4.0007879685411876
   324   3      4.0090409019584508      14.157515755954856      6.3155613656133447
   325   3      6.0626293945167689      12.155007953532191      6.3888162338223236
   326   4      4.1031815427889358      12.151519214960697      7.7874248344223336
   327   2       5.879023882513021      14.182363190060745      10.106474023810449
   328   3      6.1511235729361289      14.353577389031949       8.166578994350548
   329   3      3.9957421423691524      14.325801545816688      10.147372948976207
   330   3      6.0405819584451335      12.203513973016912      9.9443363769944391
   331   4      3.7316040615670159      16.118870120028483  -0.0024806968223557899
   332   2       6.077363875699012      18.231775896284088      1.8564353244605447
   333   3      6.1693263092709119      18.217756045744096   -0.015572096482396517
   334   3      4.1518705837276615      18.323387845417127      2.0341818196466774
   335   3      6.1368259190772241      16.274682212582906      2.1310189047370827
   336   4      3.6852541717659504      16.426291222250278      3.9224654895282636
   337   2      6.0274713897288725      18.142206928880515      6.0297230123656149
   338   3      6.0852145830378896      18.428974516248172      4.1127614430955122
   339   3       4.130222267504819      18.323092146856172      6.2436636398501903
   340   3      6.2040523233829292      16.262895243078553      6.0799095395358238
   341   4      3.7964884348851284      15.963980473959341      7.8827373197778492
   342   1       5.996382163404653      18.182723504674428       10.09125192673736
   343   3      6.2942232449296736      18.220551831161846      8.0706777433672947
   344   3      3.9647340715452781      18.343817017728398      10.175473360080527
   345   3      6.1517217877937389      16.154886854055604      10.276752934773841
   346   4      3.9305482002427112      19.938944664998836    -0.22635482364041959
   347   1      6.0709142130567759      22.255345556046489      1.9283649384475703
   348   3        6.23974911693242      22.467578289296537   -0.077325087569599743
   349   3      4.0285422010144325      22.379082484530446      2.1251072082481266
   350   3       6.283087168627759      20.215823265007003      1.9968273317399154
   351   4      3.8083796159304835      20.013755341489194      3.8174010408503047
   352   2      5.9809198743918959      22.278810584192943      5.9740729538619854
   353   3       6.103276183624633      22.214770057465529       4.112037851293616
   354   3      4.0641440197076193      22.329891043808924      6.2522074813217161
   355   3      6.0793051359988457      20.327714764506968      6.3312864329363201
   356   4      3.9423493455876435      20.032513218503659      7.9023089322690181
   357   2      6.0743250594766351        22.2601269911905       10.03146756814836
   358   3      6.1250393000153558       22.37439403514713      8.1467773190258512
   359   3      4.0209713799665838      22.278743339420451      10.223411158678696
   360   3      6.1901822348804654      20.288173393506586       10.09837219413375
   361   4      7.7874345778722907      11.878623772253951    -0.12795905819268311
   362   1      10.088380555208014      14.138637041503276      1.9606330803022216
   363   3      10.139645615503687       14.39825695903739    -0.07554218578825013
   364   3      8.0581815081777037      14.377335047129147      1.9968696583755965
   365   3      10.227441005886954       12.09626096467167      2.1071341380326545
   366   4      8.0551134270331008      11.929815816357515      3.8129364850842191
   367   2      10.073113244448686      14.095153350368831      5.9800189919298896
   368   3      10.023641568210007      14.208444781136244      4.0970755734604571
   369   3      8.1460822076358426      14.178034906794135      6.2823719914825817
   370   3       10.18775692225819      12.217175532197885       6.272888766858582
   371   4      7.8353339092329106      12.251685254004075      7.9080307888701595
   372   2      9.9788107864314668      14.201592383884869      10.041389333811882
   373   3      10.182645870652351      14.342710525775971      8.1669524287492159
   374   3      8.1169792496847641      14.182667315423416      10.184102338132236
   375   3      10.342220522521403      12.284765582381473      10.132995325418635
   376   4      8.0950037329766342      15.817825709231693   -0.036923751479255529
   377   2      10.181364496470559      18.136762452264506      1.8758613209281656
   378   3      10.061369464158597      18.240476790234787   0.0012060148283493037
   379   3      8.1569269436941347      18.270430403552908       2.205827168381159
   380   3      10.095036163480744      16.278341201466016      2.1799099369726402
   381   4      8.0858337067892041      15.978005386028524      3.7513746211572472
   382   2       10.08422087369634       18.16106360472514      5.9373867481673921
   383   3      10.189701392100346      18.403423295453695      4.0864747179254817
   384   3      8.1430463544796527      18.479027072517383      6.1109558323654225
   385   3      10.008590119515675       16.27571492195608      6.1296594238733126
   386   4      7.7642001402094989      16.092111279411899      7.9944798078545496
   387   2      10.047002409669711       18.20484984374762      10.055928369666693
   388   3       10.08140165711246      18.228333137690491      8.1686865385096876
   389   3      8.1695220711740362      18.257482473081726      10.314560834169434
   390   3      10.205560666483047      16.203450034649183      10.359194864808568
   391   4      7.9242319420954423      20.203172493277801    -0.28332365582441238
   392   2      10.114924590164996      22.205601562021361      1.9245369776831318
   393   3      10.129712367753251       22.36552997741585     0.07269868181697299
   394   3      8.2197123547379327      22.337132155903944       2.260246934709857
   395   3      10.141306316697193      20.301682603621476      2.0904180135753609
   396   4      7.9063921640874257      20.205266120017235      3.7300926264504146
   397   2      9.9881719626697159      22.205914232966453       6.054615942885051
   398   3       10.33186938902578      22.284814442416582       4.146894493865747
   399   3      8.0936623139178572      22.214212441225644      6.0916290498266177
   400   3      10.287318164787253      20.309648521542197      6.2876903521293084
   401   4      7.8073761665304273      20.042614108618295      8.0567873931471965
   402   1       10.09655590795707      22.150319210298424      10.075020439116955
   403   3      10.101819768902196      22.555533340669452      8.0527537489301135
   404   3       8.042379657382897      22.322122187864132      10.278450152911306
   405   3      10.266395344691452      20.133475120258602      10.233462778346549
   406   4     0.23834952664552633      11.957679906221356       11.99618188678788
   407   2      1.9427501188331648       14.22325113204486       14.14578933560905
   408   3      1.9776141805349097      14.304804478301952      12.161068044249834
   409   3   -0.047610766731993756      14.283863951056114      14.153578920201824
   410   3      1.8722799501289236      12.151498798737215      13.986946400948355
   411   4      0.3675800877705398      12.117369466730155      16.356657906019446
   412   1      2.0023904601119145      14.220448040493089      18.149830741246095
   413   3       1.957846932750426      13.985042729012978      16.129191830786354
   414   3   -0.028709902698221178      14.233757285912761      18.289985435623482
   415   3       1.873883577027958      12.124544210201186      18.284410371299995
   416   4     0.20579114678572114      12.378948588067885      19.886167372455631
   417   1      1.9586277798022598      14.103246189727463      22.288352504564916
   418   3      2.1132912668731643      14.096557359310916       20.26353772445573
   419   3   -0.084821971092474538      14.315225235492486      22.362935697848052
   420   3      1.9414326388076626      12.062534622338452      22.428389226739586
   421   4   -0.022191771722446706      15.925021979832154       11.96898085305164
   422   1      1.9426294180950394      18.218713040796601      14.178570898949301
   423   3      2.0253969433536363      18.439993423775014      12.142120429870568
   424   3   -0.082543301339284225      18.448973517628708      14.180013163571592
   425   3      2.1597727132303759      16.166137754635439      14.196201871938392
   426   4    -0.35369486517275356      15.949217208861016      16.479932962866105
   427   2      1.9290834503393026      18.195504906452189      18.172534101856787
   428   3      2.0808691073690992       18.26903181013731       16.27660390149185
   429   3    0.051285608190611391      18.291505818097963      18.266400823286411
   430   3       2.071301713352157      16.280972763824657       18.37683893894862
   431   4    -0.21475436284876254      15.928162478099944       19.93873325016154
   432   2      1.9660287436063455      18.107891694735475      22.243546403101064
   433   3      2.1382766886761977      18.406803715999015      20.272088435918278
   434   3     0.04689721794312144      18.215910154597935      22.286695131011186
   435   3      2.1504865406762721       16.23092245284186       22.22067883073462
   436   4    0.081667547449515571       19.95012701641674      12.166214847976004
   437   2      2.0610328595296634        22.2568376496193      14.053651428521265
   438   3      1.9425045912030583      22.295337478612041        12.1887755669286
   439   3   0.0040994845264276216      22.406768494185897      14.330475333098521
   440   3      1.9856481887924342      20.368298474153644      14.360718845533203
   441   4     -0.1435843699064191      20.016505520831164      16.047096934321718
   442   2      1.9828048586349389      22.260498168441007      18.122783979070057
   443   3       2.023741199842866      22.455843473874015      16.261546815624961
   444   3    0.070993878059444238      22.402099717642542      18.336987720352059
   445   3      2.0954632137039071      20.325789406111433      18.258450828281507
   446   4    -0.35453550725165195      20.293584110530499      20.217672514888264
   447   2      1.9464028159150057      22.250912476321602      22.183016249553742
   448   3      2.1119965758627317      22.269713311037652      20.309244684181486
   449   3    0.069606236104628239      22.372361321482391      22.333936392106128
   450   3      2.0876644460335214       20.34166030956839      22.436552779794638
   451   4      4.2602042663865838      12.093563144029702      12.479959738972148
   452   1      6.0041236096107164       14.17604079552906      14.151867635199546
   453   3       6.111137729532496      14.048026919567974      12.104441218908391
   454   3       3.962114744705032      14.054811494702877      14.193841903311609
   455   3      6.1731920000120741      12.145008497085346      14.139375778258339
   456   4      4.1029208934800625      12.682581726227998      16.310765013818028
   457   1       6.071022403433723      14.160767773259735      18.260326746534542
   458   3      6.1528029178476995        14.1129336014515      16.211766337805084
   459   3      4.0493938229604352      14.028052456449126      18.267313799015259
   460   3      6.2544389456285545      12.077576215211277      18.202944300046912
   461   4       3.694334825422692      12.365158360075062      19.888542618345401
   462   2      5.8946208095693136      14.164538914884991      22.292899709236266
   463   3      6.1911091313171855      14.066170056260036      20.322305707289299
   464   3      4.0409899050952776      14.171160596178598      22.372839504805469
   465   3      6.2359519539290194       12.19155854397299      22.367762451839887
   466   4      3.7521779570572118      15.989137291420974      12.024671011494405
   467   1      6.0462382182112853      18.247892809449443       14.18684059909757
   468   3      6.0971894829628059      18.376062474888581      12.165871259483119
   469   3      4.0158717746398018      18.331560026316563      14.297175399242187
   470   3      6.0692212954992399      16.202315906792546      14.235527809875745
   471   4       4.050744799202544      16.405246693923633      15.689181625796044
   472   2      6.0462404613850884      18.059107812095426      18.268188651449751
   473   3      6.1271327251466072      18.240927049880131      16.281604495750287
   474   3      4.0845463420959627      18.345693027056019      18.297537765801536
   475   3      6.1269454047515044      16.195916829204471      18.348004179098986
   476   4       3.722323735344633      15.813296805915185      20.067318735854233
   477   1      6.0510405178429094      18.135384243053153      22.231300330869381
   478   3      6.0915263640850528       18.46967266981072      20.212016319734989
   479   3      4.0313709088441625      18.455153157619336      22.240280478357136
   480   3      6.2192377612616845      16.116170940434465      22.144912308950794
   481   4      4.1110589956846182      19.742978996156214      12.230641989092863
   482   2      6.1493001317197633       22.25194883105225      14.107677490404173
   483   3      6.0032217448492968      22.137257944955998      12.203030769532861
   484   3      4.0038205301791523      22.344536349595167      14.306109335546761
   485   3      6.0535187204431686      20.328751718622701      14.427565921873708
   486   4      3.9871593784228039       20.01419010128064      15.916186983590716
   487   2      6.0027569219060988      22.296247249486235      18.178412465230274
   488   3      6.1028828607503272       22.48102261714007      16.268026872385683
   489   3      4.0868072619250126      22.431772875144919      18.351820328952417
   490   3      6.1174593076524841      20.359517773703974      18.148484406822089
   491   4      4.0455143245194547       19.90778164017361      20.270235534305158
   492   2      5.9708224396210747      22.240538829449569      22.271921893617211
   493   3      6.2166456621229855      22.280888235173759      20.285934728190082
   494   3      4.0746281054541722      22.380735997487292      22.342290126986473
   495   3      6.1388759676192874      20.318716391718151      22.408717123678933
   496   4      7.7139694432127399      12.157433261686096      12.350133094377767
   497   2       10.10394911224081      14.162862175093785      14.069684301362942
   498   3      10.282125800722268      14.172573850381344      12.183033378409183
   499   3      8.1923324469621299      14.245545498382603      14.222464472810112
   500   3      10.200570076145087      12.170041343139809      14.236930674116437
   501   4      7.6266199220717805      12.261541015596013      16.090069601668834
   502   2      10.029900777614261      14.301691617658504      18.179274677111749
   503   3      10.193215661141897      14.136185481758922      16.240203725609042
   504   3      8.1494262938420956      14.137659695748418      18.337287047354035
   505   3      10.200986976647817      12.091498052373051      18.270281574401885
   506   4       7.718532322771237      12.109768315569424      20.174759596864224
   507   2      10.170183404046911      13.997876308596696      22.294190147879149
   508   3      10.231372093307408      14.176592294461978      20.277305050663564
   509   3      8.2026715686022893      14.266563589741754       22.24619363504252
   510   3      10.212860507333133       12.10982913159909       22.41767769479258
   511   4      7.5108252337194088      16.318896812871831      12.196620441707312
   512   2      9.9929650116202513      18.260236138786883       14.21636822898752
   513   3      10.375872139806651      18.186817253143687      12.235210435226524
   514   3      8.1199125717892233      18.238996609122697      14.159580271364641
   515   3      10.314144176595072       16.20414761763838      14.240288938821418
   516   4      7.6293402286745877      15.962193461461441      15.994209624097866
   517   1      10.075808186039103      18.168161538362241      18.201351467429678
   518   3      10.183340775969796      18.311932211857151      16.158987533011732
   519   3       8.030182385699467      18.452046846685807       18.26124860440591
   520   3       10.19848206705818       16.15657641585717       18.25066923428389
   521   4      7.8631700013600678      15.906219088406909      20.386385458166995
   522   2      10.049305473064646      18.163715153229877       22.13834918473222
   523   3      10.182198464886222      18.494958178465762      20.269245368602554
   524   3      8.1510082300254059      18.410569894075284      22.216188641820487
   525   3      10.111540880832964      16.284002450771997      22.144824591932434
   526   4      7.7483351101449811      20.039710576916303      11.969637840513432
   527   1      10.065608885634058      22.239662999289308      14.165838808306942
   528   3       10.25584516126116      22.299084857124452      12.162585544038867
   529   3      8.0465301801682418      22.378162186243074      14.215663984626078
   530   3      10.321717266435357      20.188488509844341      14.183346272634479
   531   4      7.8617965271831363      19.949492832495405      16.304175558690478
   532   2      10.064529822857043      22.250108189180654      18.083376926866862
   533   3      10.213623745786117      22.418988406315496      16.211439454663793
   534   3      8.1360778094068156      22.289694068297592      18.255363492357173
   535   3      10.248879127506545       20.33089381600691      18.163371561888994
   536   4      7.9492007385349677      20.002337753126117      20.140664528924042
   537   2      10.080436349781758      22.326135992019758      22.160686367719883
   538   3      10.204752807364818      22.194648700325864       20.26695438537724
   539   3      8.1532765094608202      22.223566413234572      22.332182265503942
   540   3      10.221310818807362      20.296573997778065      22.488018337399978
   541   4      12.251687971548154    0.074709659286479047     -0.5709360995572188
   542   2      14.078655303923737      2.0828142669403507       2.040181595410691
   543   3      14.214270546424821      2.0011820859068874     0.11930199563654725
   544   3       12.14543321763071      1.9753854604964103      2.2159046609064488
   545   3      14.236287265018415  -0.0076670932649145051      2.2022337872452478
   546   4      12.042197379051707    -0.16824161832644827      3.9130791355372523
   547   1      14.135465753373836      1.9744475815838807      6.1057328905821446
   548   3      14.410087183895881      2.0030340217228053      4.0474511067484951
   549   3      12.145672233535937      1.9773188173944252      6.1054850135990426
   550   3      14.481991755179548   -0.066506108089947072      6.0614232824907344
   551   4      11.976473702244112    -0.35272589034746221      8.3596012359305583
   552   2      14.132687725288401      1.9192405225524649      10.138862866513788
   553   3       14.40049624310114      1.9248784709139348       8.148173375964328
   554   3       12.19478199289602      2.0897875132811641      10.147897120527656
   555   3      14.411768020551399   0.0064202658939387178      10.205461349068003
   556   4      12.058753958108598      3.7936053705250923    -0.33857927666982268
   557   1      14.135574455696556      6.0380239874788444      1.9788049715283336
   558   3       14.21173185009404      6.3313507876113597   -0.022846140694648437
   559   3      12.067387009256292      6.1262869777361537      2.2057692466606431
   560   3      14.073019800388078      4.0026946057291193      2.2071232902347697
   561   4      12.059392475137106      4.1608876781492992      3.8000706596301814
   562   2      14.079322464923079      5.9404518188963849      6.1247282297107581
   563   3      14.130172350342699      6.2023348291030951      4.1464340381383993
   564   3      12.145487831764223      6.1483528483186021      6.2406180115364371
   565   3      14.250863923574006      4.0624255822510298      6.0703573467286489
   566   4      12.155200776505746      4.0494949286205326      8.4493722173407804
   567   1      14.149854720165525      6.0702944681999966      10.111906473115654
   568   3      14.359752280177323      6.1455337315725833      8.0535416607814536
   569   3      12.107790988241112      6.0091657251521857      9.8410406689931449
   570   3      14.148918953964744      4.0097819618878345      9.9035238669455534
   571   4      12.342109838027374      8.0499702390939447    -0.17712771672614552
   572   2      14.277207703400766      10.088052089766276      2.0308554602624471
   573   3      13.976107766891419      10.052194652842507     0.10017978029743084
   574   3      12.107207504386015      10.037581967735491      2.3444669393110997
   575   3      14.119465740688563      8.1463938235787712      2.2198331849435782
   576   4      12.178444873796584      7.9331277666673401      3.8069359205631272
   577   2        14.0245147086377      10.119462838418309      6.0255690900172745
   578   3      14.275573104303101      10.198029954902612      4.1152819017768048
   579   3       12.15211404662198      10.277252306191341      6.0653556686512164
   580   3      14.205901755268599      8.1906388973321729       6.161968599442571
   581   4      11.906282549182865      7.8986678517687583      8.3084282679448442
   582   2       14.20828074768386      10.007917907788032      10.046141565555873
   583   3      14.233798373731126       10.30176479085406      8.1030117958639707
   584   3      12.262454383555147       10.34269436215668      10.153192319917469
   585   3      14.130082889813652      8.1404667815464524      10.048129135795852
   586   4       16.08458693027443    0.089890521494300588    -0.48864223941392493
   587   2      18.129433451258215      1.9354913820519022       2.011175621303448
   588   3      18.283575511878286       2.087645832109903     0.11039905019103019
   589   3      16.230402082527036       2.162250909220591      2.0755582128515333
   590   3      18.147557864695994    0.040068090566451289      2.2216758523014279
   591   4       16.00222485354098     0.11094168022998178      4.2101961875931124
   592   2      18.166586487234788      1.9886636136340436      6.1706786956401336
   593   3      18.342326720545863      2.2124746957487416      4.0284254984222923
   594   3      16.262757658832943      2.1401070258995647      5.9932824067340373
   595   3      18.101895218361022    0.033296570836035121      5.7859953165977718
   596   4      15.900375866535697   -0.029653278312594112      8.0459903382824915
   597   1      18.191660878738919      1.9812424082337126      10.113091835279681
   598   3      18.312928644109508      1.9466610176149932      8.0768913771308988
   599   3      16.189558426473258       2.233485531025464      10.209967618064903
   600   3      18.177249389274454   -0.067852903867018519      10.362988769214859
   601   4      16.149377345284702      3.7803890160959122    -0.28949044297894078
   602   2      18.077082438671038      6.0503340136651342      2.0422223730652127
   603   3      18.243459628154003      6.1908602902687244    0.086012235594949221
   604   3      16.201353928737987      6.1203729159569313       2.179504974494193
   605   3      18.384794630495559      4.0864802204120947      2.0253692926457827
   606   4       15.92061564040249      3.8492197857552619      4.1810688819070041
   607   1      18.157631495486601      6.0510367726250873      6.0574956638132926
   608   3      18.434400094149751      6.0390389482989448       4.030654272122808
   609   3      16.140616757536197      6.2829831929534068      6.0066089116017745
   610   3      18.466499643721541      3.9950128217851026      6.1283238395452768
   611   4      15.904046543411694      3.8609424767184977      8.2986435857849159
   612   2      18.079104107674734      6.0806413513901827      10.034130510348216
   613   3      18.295264019846101      6.1553628413006418      8.1018156864977353
   614   3      16.227907243781555      6.0064213793948351      10.112697539923536
   615   3       18.44257591603472      4.1127632252192248      10.017443354089236
   616   4      16.005152434925574      7.9580627595895086    -0.15067893042235125
   617   1      18.174697815003487      10.096589699296763      2.0907945533101664
   618   3      18.341831069449977      10.158872551437534    0.041339249323676511
   619   3      16.150087673654255      10.177228007998243      1.9350973341071351
   620   3      18.393406442422588      8.0345142565317538      2.1472565344654573
   621   4      15.958553960765304      7.7743246503387295      4.0727793231400895
   622   2      18.087573501102586      10.145188134397237      6.0486066288140048
   623   3      18.392735074276793      10.152688432119717      4.0925569072482197
   624   3      16.192791245949952      10.077327598267138      6.1581607880612586
   625   3       18.40441377251199      8.1405834890633191      6.0388703202796181
   626   4      16.027958347863876      7.8275540317602088      7.8799748872225379
   627   1      18.178780756546224      10.160839570943082      10.033678896111196
   628   3      18.449773223747933      10.050913870187287      8.0390798936742787
   629   3      16.171437640981033      10.164931815024781      10.269212079017059
   630   3      18.360095568162528      8.0316184906466734      10.180748000189617
   631   4      20.408519929100052    -0.41258664483471386   -0.068390955912451548
   632   2       22.16667035659631      1.9727141715612733      2.0836809326565162
   633   3       22.45163487043806      2.0725973815843495    0.076952491504709439
   634   3      20.282408865307371      2.0307426646466773       2.022899163549444
   635   3      22.455693614661804    0.068394591205149929      2.0922430316578393
   636   4      20.004917973999788    0.011814613080107205      4.3371737234696264
   637   1      22.248551118474555      2.0096219072413142      6.0122801324448005
   638   3      22.402463710557232      2.1416569171662241      3.9950022312776228
   639   3      20.232566592702433      1.7484111666755651       6.046115636920014
   640   3      22.517537779593347   -0.073317937664249447      6.0258895028250796
   641   4      20.428950580736995     0.48653668420300922      8.1497932076229613
   642   1      22.302816801268932       2.007161681271556      10.107317569143255
   643   3      22.332460222070669       1.889616836073529      8.0799640297263675
   644   3      20.264189342456206      1.9180822349472244      10.229139319039058
   645   3      22.321260582278516   -0.047205379358800974      10.345732107458593
   646   4       19.95978735220363       3.919442699531035   -0.094213687721090358
   647   2      22.190917115651096      6.0294125152788958      2.0433996047606793
   648   3      22.540927098863104      6.1601820778707745     0.10810466208458207
   649   3      20.334412580799974      6.0846350842017056       1.988487740135473
   650   3      22.432342602519878      4.0726360578171006      1.9556810958110529
   651   4      19.919457756230855      4.0882604589728384      4.2019730114619769
   652   2      22.199523403621043      6.1197741933662826      6.1500510126575785
   653   3      22.328113376804446      5.9318809783978432      4.0384146686230959
   654   3      20.315054835596502      6.0682215920573546      6.1463256095226892
   655   3      22.409004707669855      4.0826473678790176      6.0974196761412616
   656   4         19.957153342239      4.1345847816299166      8.0632380159625292
   657   2      22.234201932163529      6.0295142905557917      10.218383388586918
   658   3       22.49685493222475      6.0967597014512629      8.0559241098897232
   659   3      20.332114974783948      6.0949214995279872      9.9696147555431249
   660   3      22.357417656725264      4.0798216627393513       10.04996159284196
   661   4      19.790855091170126       8.255086558320178    0.028391033787279165
   662   2       22.26356789907749      10.003741726672622      2.0685660194657514
   663   3      22.436234261379887      10.146843146435767    0.087528373072694815
   664   3      20.364120800968287      10.233854666708341      2.0354459243692231
   665   3      22.432523929910992      8.0994947618382813       2.122583930041861
   666   4       19.86223141489118      8.0476012957580245      4.1100481953054588
   667   1      22.275382117533731       10.08024678615948      6.0524785837553008
   668   3      22.333954979920474      10.347706732659985      3.9891965044272797
   669   3      20.262758274174544      10.309918713745235       6.038497219887982
   670   3      22.421098722794699      8.0341585007862442      5.9239691280614943
   671   4      19.904618615708806      8.1256785655419428      7.9839328759320134
   672   2      22.291383871541413      10.008896835684446      9.9818183550131998
   673   3      22.230197875472665      10.210888103477899      8.1124419808949924
   674   3      20.318615961824282      10.107502805508746      10.234638512125743
   675   3       22.38076771993974      8.0994295782067365      10.110827899764935
   676   4      11.868549349480309    -0.36370083360850264      11.842883930490199
   677   1      14.150897384895318      1.9686873477834519      14.140404021273493
   678   3      14.211532808666112      2.2797107983365286      12.113190213325623
   679   3      12.136488262166289      2.2721955376533263      14.157377198715722
   680   3        14.2182744095809   -0.060027335891747788      14.316352493760498
   681   4      12.016033884542884    -0.12342201738113662      15.904296406233726
   682   2      14.214945573027233      1.9743060084333814      18.159225539951986
   683   3      14.182472959521288      2.0822623721492075      16.234561871501032
   684   3       12.17368198551805      2.1233268578012368      18.380771009527365
   685   3      14.162704262581009     0.05050893526010071      18.307286236854463
   686   4      12.326488127839403    -0.34885050360767667      20.060551750284397
   687   1      14.181451568672207      2.0231823962188655      22.239987769663919
   688   3      14.229328818738553      2.1700697852369406       20.22268317439292
   689   3      12.148308623968353        2.13047454619795      22.338987952478721
   690   3      14.249139069482851   0.0046437519003349964       22.30955360793547
   691   4      12.266839300173764      3.7753060962018798      12.178204255627625
   692   2      14.171989009755396      6.0818134747994721       13.97392340999788
   693   3      14.096110057483889      5.9669899903072201      12.133324870153075
   694   3      12.256140033358237      6.0422514220141439      14.368166584553531
   695   3      14.282931382267483      4.1361340869563126      14.330929187287392
   696   4      12.082855613726007      3.9475831770444643      15.911546943496838
   697   2       14.11099848679401      6.0300102895358565      18.147540501059606
   698   3      14.340587241792511      6.1878402011823663      16.281297128920077
   699   3      12.209292053131239      6.1759344416451327      18.291107653728737
   700   3      14.211158087588004      4.1086480198126285      18.235094696319777
   701   4      12.151478478877213      3.5951769972037626       20.30047961773499
   702   2      14.086184026301289      6.0039702231735834      22.242662166300654
   703   3       14.25634823551558      6.1041696139005222       20.34200727337225
   704   3      12.159527221581913      6.1581358723973905      22.401797119036672
   705   3       14.19298730118974      4.1169149185492824      22.469929316293445
   706   4      11.886051512821531      8.1528445226106356      12.087719108220957
   707   2      14.155349129154891      10.250531823650414      14.200177030832425
   708   3       14.22727046889637      10.166447692062574      12.136685578537525
   709   3      12.228212866189416      10.179669863559729      14.200169502490832
   710   3      14.181370023144662      8.0736721758231411      14.205379053796303
   711   4      12.008684467421602      7.9452407883005058      15.897843039854271
   712   1       14.14854843157921      10.076121818467525      18.143802304773555
   713   3      14.357868868679132      10.086904975422859      16.131729171865089
   714   3      12.127027411621198      10.109627674241207      18.419809641222397
   715   3      14.216705354117314      8.0473265174968382      18.463884929837249
   716   4      12.166000510090504      8.1868824800275437      19.871397027838587
   717   2      14.218885728716211      10.183691875163218      22.167728883393679
   718   3      14.281165621135413      10.131628658917579      20.297320942623006
   719   3      12.177945722985392      10.039277337380232      22.360957302543234
   720   3      14.204218094660302      8.1339065879425405      22.380753860268285
   721   4      16.199035667082555    -0.24071625002744756      11.881268358740401
   722   2      18.140384409443346      1.9460240767860695      14.182894166067722
   723   3      18.246852450156563      2.2775718079438199      12.229252760312201
   724   3      16.233807104991179      2.1156788413699936      14.226569549067806
   725   3      18.333913387846032    0.040588101840474199       14.14788606452986
   726   4      15.883895476435123    -0.16917546082340429      16.060860600671159
   727   1       18.18056954385759      2.0342329511004378      18.161552290512535
   728   3      18.401440809038832      1.9480101038855977      16.144229981637285
   729   3      16.154400481232113      2.1260354904696936      18.264428160678811
   730   3      18.420701437724382   -0.028235815654628467      18.341221247459355
   731   4      15.783550042751701    -0.18592850107662678      20.313733937371069
   732   1      18.252834580006176      2.0028873683463151      22.317151015798018
   733   3      18.318228162585203      2.1533983332148567      20.287416319634016
   734   3      16.218962713745743      2.1395562117167044      22.410786371371941
   735   3      18.211007549177744   -0.035057154722708546      22.270616810598913
   736   4      16.128421930464125      3.7346579612390802      12.028691078236394
   737   2      18.239584417728569      6.0604279113574808      14.019855794928205
   738   3       18.34888917903535      5.9750324821847665      12.116682582775871
   739   3      16.243577445616491      6.1139392589873198      14.221910425670909
   740   3      18.217897657559291      4.0802928771510452      14.384673756799874
   741   4      16.004412342920041      3.9097860948908201      15.950564193483141
   742   2      18.138379409679342      6.0221997701132199      18.118148035864799
   743   3      18.198402549951716      6.1590702594072173      16.248766754136653
   744   3      16.246307298309851      6.1900273721451882      18.416216302138402
   745   3      18.312742628168941      4.1218545073244428       18.27787929783338
   746   4      16.283112647863231      3.5024074304741695      20.268268291697762
   747   2      18.147056811367186      6.1026338823843034      22.203484281030793
   748   3      18.332218732480701       6.041735624507429      20.329501652376624
   749   3      16.218894623686214      6.1594562403466107      22.407562098357499
   750   3      18.262144223081599      4.1542759575473429      22.531095563662255
   751   4      16.366844808626965      8.5710537102251827      12.121126578545809
   752   1      18.199283807871815      10.125429684768674      14.183064572867163
   753   3      18.342149458471066      10.040942625399044      12.146902466754787
   754   3      16.194079187821149      9.8987252773363341      14.086178302355192
   755   3      18.335166016601658      8.0183602136753844      14.190179956229089
   756   4      16.075821512796825      8.2769101012421125      15.908475146891996
   757   2       18.12004466557746      10.147331318069245      18.235784076465727
   758   3      18.373319717994825       10.02940114028061       16.27038043975223
   759   3      16.240221458121326      9.9842696893548073      18.255420404307035
   760   3        18.3663521816902      8.0566906499859652      18.374426956499121
   761   4      15.998212022773762      8.1479155876807354      19.987346804223613
   762   1      18.206632114284933       10.09046949059668      22.226916833162996
   763   3       18.34293259873791      10.054765598863369      20.216983364018947
   764   3      16.135427495277458      10.082678052762878      22.556264556902072
   765   3      18.365444288596702      8.0384212560709187      22.374914563443355
   766   4      20.231155605015406    0.078804734731116127      11.751521473058091
   767   2      22.257489525767543      2.0567647846208188      14.066301011703137
   768   3      22.421791672607682       2.165507112280384      12.189839067242385
   769   3      20.295037325321942       2.139696590158807      14.160760200551602
   770   3      22.350311362117505    0.079136842045991571      14.235336321793589
   771   4      19.979790449936651    0.075465698565741701      16.234354907111175
   772   2       22.28125026396954      2.0578327286561304      18.125235926322624
   773   3      22.204084271689577       1.966538866679673       16.25956044137094
   774   3      20.336236388199506      2.0482334675627043      18.434158152400517
   775   3      22.351159846198353    0.074805243948357886      18.441880495750677
   776   4      19.862108485407653     0.28664219973468524      20.124118652213394
   777   2      22.215830849905927      1.9871892526827071      22.239082289193277
   778   3      22.330833166691431      2.1401860504804113      20.366119178227763
   779   3      20.335190997294038       2.169582937342208      22.416330897098781
   780   3      22.339435392043121    0.092700452576844353      22.387366683366626
   781   4      20.096276457184171      3.7546828316945242      11.771291279213816
   782   1      22.229677050256008      6.0646911451147645      14.103874475588448
   783   3      22.286885578209343       6.013869404643426      12.084101577670298
   784   3      20.175317507467533      5.9918065316201483      14.382680187768115
   785   3      22.300090756827601      4.0025577100476255      14.408133547968221
   786   4      20.226216930559222      4.0928488695273968       15.87176034116321
   787   2      22.197842999085573      6.1225928028178505      18.159294849192619
   788   3       22.28080461372635      6.0817416401459212      16.297319263491559
   789   3      20.261089602914911      6.0643104582753544      18.350953204301263
   790   3      22.319387257201633      4.0642346568940972      18.362647338628175
   791   4      19.960778275198169      3.8435488153208182      20.056256964599836
   792   2      22.159355853174819      6.0244884571237733      22.244711273736705
   793   3      22.280045621713608      6.0265211450651313      20.394659725251568
   794   3      20.287617024419923      6.0426591605085251      22.505262662487056
   795   3      22.411603797021129      4.1117037361086242      22.543372518516264
   796   4      19.974181944574394      8.3555594033753398      11.943948878779819
   797   2      22.324656629025547      9.9830735231151877      14.056242941534622
   798   3      22.228802457939214      10.180137492390926      12.166137127195618
   799   3       20.31401886716646      10.159218255349685      14.309274015627739
   800   3       22.23000627767361      8.1139070110143443      14.253088791419483
   801   4      20.117049384458721      8.1362330313498834      15.852380082759819
   802   2       22.32005009663639      10.154397129684414      18.103179273540572
   803   3      22.218872055380821      10.137233268659267      16.226216870115049
   804   3      20.314272397707548      10.066519957172174      18.365957023466802
   805   3      22.264427446169265      8.0726185451135795        18.4394675361312
   806   4       20.01058293980017      8.2816552204430032      20.087831006154754
   807   2        22.2293650010444      10.038393256084357      22.201167912926998
   808   3      22.348212507582499      10.071879893950321      20.347960445436868
   809   3      20.360943202950175      10.121115976919853      22.400007325899161
   810   3      22.400196177770802      8.0786991026769606      22.457454617242693
   811   4      12.550474185256006      12.259692856546103   -0.022848306208297368
   812   1      14.180590245126199      14.112861393422328      2.0214303664858426
   813   3      14.086796259436127      14.284519850860853    0.004329711712831438
   814   3      12.119129092888169      14.266390769827233      2.1133520467811513
   815   3      13.944015207340405      12.075397982490689      2.0468156299612761
   816   4      12.109712796278385      12.264106095067568      3.6503395003498516
   817   1      14.046906941169476      14.155948751963811      6.0978031673088999
   818   3      14.237726699904581      14.212838754509388      4.0536361732652963
   819   3      12.043787701532512      14.413370323405594       6.096443266188567
   820   3      14.385048015876391       12.13013016456221      6.1091818769820456
   821   4      11.869731596978463      11.927916726812725      8.1735854655252922
   822   2      14.053458674486022      14.216476552866586      10.179505386781242
   823   3       14.37684247032813      14.212840836023126      8.1795036628863453
   824   3      12.185994138958513      14.304221777603432      10.161036620381989
   825   3      14.321850134743361      12.237611074939201      10.157518609138442
   826   4      12.263220103730585      15.764387325014434    0.094259111060980338
   827   2      14.340984780095544       18.20771602974877      2.0238898329706081
   828   3      14.168039588265653      18.261244102865621   0.0024035218877980851
   829   3      12.089674758121408      18.346104593836174      2.0443653060666751
   830   3      14.121103904389949      16.293826630649733         2.0776915652415
   831   4      12.291799228793343      15.838686193186458      3.8023059206184016
   832   1      14.133414849140754      18.263369391514985       6.005299014186976
   833   3      14.077150247783305      18.413019279226212      3.9746028373718585
   834   3      12.049768988502912      18.231352739871785      6.3040842958287149
   835   3      14.262041132265262      16.236349370357313      6.1290210084932477
   836   4      12.264353483569788      16.196802778171804      7.6655051205603897
   837   2      14.193722171200298       18.29390767763983      10.001902200215781
   838   3      14.219421244177038      18.188958272502802      8.1336267635175172
   839   3      12.229634761525018      18.073733994802797      10.205673333053086
   840   3       14.39515634279757      16.190801126329735      10.191394692523414
   841   4      12.211447584041439      20.329303933297261    -0.37014214428682918
   842   2      14.211677508708041      22.320203820643361      1.8993551934693318
   843   3      14.215958623343248      22.331648493047254    0.037552327089400872
   844   3      12.157601648837856      22.441687246849217      2.1464576987440607
   845   3      13.999034562665765      20.338160587533704      2.0267116098424225
   846   4      12.316742528376494      20.063706900724277      3.8319394301292107
   847   2      14.089146848464477      22.279851542314681      6.0704629241673427
   848   3      14.088925119525003      22.192999827704913      4.1119869966255473
   849   3       12.16061229426583      22.445062068998109      6.2924457706907324
   850   3      13.999741758392201      20.290650926522176      6.3160179302204709
   851   4       12.14732358311786      20.087382659988005      7.8780239221780102
   852   1      14.178865839732136      22.218448917959012      10.132036216287311
   853   3      14.428935821700618      22.366206367239172      8.0926613956426188
   854   3      12.171632765764027      22.420018731889485      10.089772035954182
   855   3      14.248269437451006      20.189944977824091      10.167386383087949
   856   4      16.485167995014784       11.76655591523703   -0.041397036704786172
   857   2      18.111593898798443      14.139064930209356      2.1061572486796738
   858   3      18.270763961915588      14.397407517534869  -0.0015696500891201537
   859   3      16.221848241140382      14.228962947870551      1.9755178438852894
   860   3      18.322187187147019      12.229147096420885      1.8729336869472077
   861   4      15.912681125169248      12.487720637496849      4.3048040801594736
   862   1      18.252814804936978       14.15977053007189      6.0357218782539297
   863   3      18.328284395297715      14.188643344324145       3.997926376844894
   864   3      16.219178059958015      14.239015414187275      6.0242192817847267
   865   3      18.234438001013885      12.116236108967419      6.1481104193486118
   866   4      15.930543487871056      12.334132195993593      7.8918671966629494
   867   2      18.224229245780585      14.155990192600376      9.9968767501564724
   868   3      18.278117261986147      14.330765410997925      8.1262663047021295
   869   3      16.309719873687811      14.177038088331519      10.255372966570672
   870   3      18.388055833027295       12.23281213284352      10.164287205819104
   871   4      15.954950313392196      15.767230183173533   -0.027304862305755878
   872   1      18.172641965093909       18.20861579987411      1.9704469573313366
   873   3      18.440907685220676      18.172917147654953   -0.096210861657066507
   874   3      16.179630528837045      18.365731952621161      2.0008218845979995
   875   3      18.432030977479368      16.175582962941011      2.0480635260690692
   876   4       15.82069572437312      15.941757505755348      4.3142306614441903
   877   2      18.071632281685094      18.240912066028638      6.0751069646193168
   878   3      18.442410884378056        18.3145543117976      4.0902454575514131
   879   3      16.206066923781929      18.389310265896015      6.0645382312556642
   880   3      18.364408994467631      16.283833528895865      6.0170151793175233
   881   4      15.940428905184399      16.002508763741599      7.7571347463777043
   882   1      18.223637664335502      18.211566052930024      10.060559886842562
   883   3      18.386013508007036      18.233263029112383      8.0364137811419241
   884   3      16.188878822557434      18.245121553094439      10.367273169857627
   885   3      18.248770899912905      16.175670318929729      10.376471051784186
   886   4      16.104471680052811      20.342804302164051    -0.33829782583891216
   887   2      18.298667498783651       22.21738784556609       2.003732510541433
   888   3      18.131286673647196      22.429965423400215    0.055867279538743063
   889   3      16.147579648861758      22.180544503597609      2.1971449888965959
   890   3      18.355235920243228      20.289805005132894      1.8901982197873004
   891   4      16.237558297120998      20.481478765292092      4.0678684137188714
   892   1      18.204551179894636       22.27897786285239      6.0429679676043122
   893   3      18.243323978409329      22.042043789173452       3.988528231040847
   894   3      16.155082441679536      21.943262623747632      5.9867589265329295
   895   3      18.486014613577812       20.20685521448922      6.0941982363507439
   896   4      16.010638782194878      20.445650859293181      7.8503693305983164
   897   2      18.273300136573997      22.277751444168647      9.9400889268379444
   898   3      18.162421762436306      22.274064275573405      8.0903934670730564
   899   3      16.313888142720518      22.209203308498072      10.329146137393639
   900   3      18.324963450802361      20.316387110314295      10.234552051287247
   901   4      19.994657675547963      11.841480413413699    0.066443923782051606
   902   2      22.213406289789766      14.103312674955276       1.986109803270985
   903   3      22.423423410297385      14.354966502327311    0.062373672459948772
   904   3      20.328517920343494      14.221475720617443      1.9660668495426803
   905   3      22.410058114465137      12.228453906574288      1.9552751440499274
   906   4      20.140681557052513       11.79286304758944      4.1377758409925907
   907   2       22.22899844405346      14.121256138066245      5.9593895633262823
   908   3      22.304845035659998      14.228708798444478      4.0558615427087341
   909   3       20.34519056052444      14.284518729849934      6.1927171741100011
   910   3      22.346007032486035      12.258254781822266       6.155122053524547
   911   4      20.131728997263668      11.843342565807566      7.8394181442008009
   912   2      22.273352535983477      14.040307840585241      10.022597714985039
   913   3      22.364339488417791      14.349142450430838      8.1388348849666272
   914   3      20.304155393923548      14.380912589641802       10.18204166903762
   915   3      22.188100223102783      12.179541047517114      10.161329405621411
   916   4      19.902504332930505      16.150577740529222     0.08792738499220519
   917   2      22.230589865657425       18.21649363943753      1.8875324105918059
   918   3      22.391152490584403       18.23559674238679   -0.019713521596817718
   919   3      20.333805951127374      18.266675119590385      2.0364615363218666
   920   3      22.388806265082824      16.250912239878982      2.1600751351494663
   921   4      19.863252174402202      16.284834594020285      3.9260941026572946
   922   2      22.331890457971262      18.167506312991673      5.9486464595115862
   923   3      22.276397335394773      18.368082968694061      4.0728715595024694
   924   3      20.369487420482333      18.252121728078276      6.2106701152596289
   925   3      22.371436076595536      16.271757016201914      6.1362903943389142
   926   4      20.012683554065298      16.153058498025267      7.8233762026384603
   927   2      22.256685349953042      18.163490172683389      10.046059008957245
   928   3      22.356924900598493      18.304632645838609      8.1638423804510278
   929   3      20.327450114705243      18.306677694324705       10.23649035444784
   930   3        22.3290061519433      16.284131095697358      10.283075813261993
   931   4      19.973777431135108      20.084686201509786    -0.09511295187934854
   932   1      22.249187008782094      22.233929515303089      2.0379481361873362
   933   3      22.411208378550494       22.39766585985533    0.014671681919336672
   934   3      20.208475374713316       22.42900577385689      1.9538638330274303
   935   3      22.473562127606229      20.202684592361265      1.9902330745771506
   936   4      19.944130053022349      20.152943311009913      3.9994756962506934
   937   2      22.163863935657997      22.261367545385333      5.9618581054882345
   938   3      22.419335691337491      22.240492204294391      4.0822234122766119
   939   3      20.288967205416711       22.45693808101122      6.0096294556933607
   940   3      22.230720940059101      20.308001669466254      6.2762432558140757
   941   4      20.072479810295206      20.028294773360763      7.8838615851524327
   942   2      22.345948044824571      22.242494861176247      10.013721058578719
   943   3      22.315144013467336      22.406731322214494      8.1360860032087814
   944   3      20.282133393144118      22.390105139266421      10.242491742097121
   945   3      22.231575160894941       20.32384259488413      10.200346350072198
   946   4      11.980489458433615      11.980088169914456      11.916537412304768
   947   1      14.176172861645504      14.221009686450884      14.098786885856477
   948   3      14.312527645710061      14.150651911026594      12.098282081572897
   949   3      12.137252387603713      14.200811052089216      14.418508863506478
   950   3      14.350090430842695      12.142336497143981       14.17966138171955
   951   4       12.24710760625049      12.549021726754649       16.11201099146918
   952   1       14.13749773932593      14.185523169733008         18.202414708553
   953   3      14.302056066202656      14.110402790278837      16.191184850557693
   954   3      12.123463794221792      14.045611811049472      18.290127999906233
   955   3      14.271683680342806      12.106074231643891      18.264531856786803
   956   4      12.299448325872318      12.137979763323651       19.77980083002776
   957   1       14.20412312457224       14.12176054343036      22.270480531904077
   958   3      14.223060078348395      14.194734309963325      20.265598266358353
   959   3      12.117487308776749      14.333872094332664      22.276669777928941
   960   3      14.129594424767756      12.087168726046364      22.462300031781034
   961   4      11.969911725552709      16.358444445063739      12.010625769398183
   962   2      14.168125625656215      18.195101007426668      14.096739893823683
   963   3      14.173101091871791      18.169563267766168      12.222838981993821
   964   3      12.260187809190306      18.222442483462938      14.388798757332705
   965   3      14.217689044355067      16.289881406243737      14.421604844642582
   966   4      12.101385955372386      16.115933305661496      15.947057004378468
   967   2      14.077154081951971      18.204354417211292      18.194514732330227
   968   3      14.349277484257128      18.320670429956213      16.284930716831994
   969   3      12.203293658376175       18.34212208253058      18.256576981155114
   970   3      14.269848079542767      16.268027020874129      18.295983264716618
   971   4      12.252700226353973        15.7149489542797      20.237611390807498
   972   2      14.073709388314322      18.143300872097424        22.2602424215657
   973   3      14.227242433342045      18.343218457625447      20.301155877107135
   974   3      12.155255834292353      18.340163864961191       22.33334630317912
   975   3      14.230192144748129      16.264212605078516      22.260689394445599
   976   4      11.768639300596478      20.427587713408965       12.03177765637996
   977   2      14.096961502700065      22.272406579654838      14.103742549235216
   978   3      14.253774927272543      22.271676285680186      12.214042418589061
   979   3      12.212325772643268      22.264228279016354      14.305357696000895
   980   3      14.327287461232375      20.248705965151068      14.319250145201698
   981   4      11.865651686652834      20.128357065003676      16.090650661387105
   982   1      14.114483087959762       22.25132268257321      18.179337254439353
   983   3      14.425835084312329      22.269818624633665      16.186997002655666
   984   3      12.089330544568524      22.378609257097612      18.334444625329887
   985   3      14.335684002802481      20.225405961255813       18.27766872116548
   986   4      11.951488631459524      20.205808819729238      19.946016097982309
   987   1      14.144040815485591      22.262139420557681      22.243945610724108
   988   3      14.233384118837872      22.347192590535222      20.238538688756385
   989   3      12.112617417556086      22.292604353996065      22.432371289046813
   990   3      14.251728409790147      20.227674940766665      22.411308956473142
   991   4      15.953262383796968      12.222095515915667      11.988705789792629
   992   2      18.139064672772218      14.071326146455645      14.187963408051777
   993   3      18.424758018027102      14.177006470558323      12.220700784861414
   994   3      16.272175454799097      14.276947388421961      14.185564250812263
   995   3      18.346810467985286      12.176049582346835      14.268720826338896
   996   4      15.802758841871633      12.325133359322882      16.387276660901769
   997   1      18.209847411071472      14.150838653843705      18.186666626595517
   998   3      18.302510380096916      14.319728379663596      16.147656887970605
   999   3      16.220484807056376      14.163907058124307      18.334639099414417
  1000   3      18.327046624815477      12.075009423105934      18.236757073746364
  1001   4      15.899259050454805      12.394622576091621      19.916648807258301
  1002   2      18.209446916561046      14.049984144915966      22.219001158328339
  1003   3      18.336861729324401      14.115536937869935      20.323993391631291
  1004   3      16.293483527333265       14.29388009122215      22.334982796059403
  1005   3      18.234156344551877      12.167410201065366      22.467004463186147
  1006   4      16.260122826074181      16.256109882844211      11.800236183344188
  1007   2      18.191339423615418      18.134548831653511      14.160438718447725
  1008   3      18.336482323926962      18.387810504438978      12.275526324955763
  1009   3      16.269997179279166      18.252631119649205      14.239698862036837
  1010   3      18.359987351000449      16.255258421706188      14.153311376851608
  1011   4      15.933435799711333      15.840823372652615      16.192821393665792
  1012   2      18.158505753204647      18.148051755916107       18.20317342636806
  1013   3      18.300057816247566      18.279625068712708      16.272269563509202
  1014   3      16.261276097118635      18.278059132799843      18.369376618151168
  1015   3      18.317314270751094      16.276796568707873      18.381582266929204
  1016   4      15.997975083063796      15.827833950262757      20.034070040497628
  1017   2      18.109320354226945      18.116569185746826      22.234627898616374
  1018   3       18.35110028268906       18.46160278020945      20.306719362882628
  1019   3      16.221989791413602      18.305605511160859      22.342173410654738
  1020   3      18.357431845563514      16.243510039831147      22.208629879697966
  1021   4      16.262070977547722      20.217884188187309      11.774050023022792
  1022   2      18.247594751541456      22.169993460036192      14.124519539998527
  1023   3      18.319464203812185      22.226707158787036      12.246599285272604
  1024   3      16.309761009817176      22.411785964862922      14.230426685326083
  1025   3      18.259150820698988      20.302525443255227        14.3830414276347
  1026   4      15.869027189976277      20.297934269938391       16.23749692135576
  1027   2      18.107117362691852      22.301771429742342      18.170223464202611
  1028   3      18.249336545178952      22.497493401742769      16.249243334024563
  1029   3      16.240884072603759      22.363752833260431      18.336656609531111
  1030   3      18.309502167401568      20.347586951383239      18.244335682086458
  1031   4      15.760431539089637      20.412426589141166      20.176369789800887
  1032   2      18.262445531297825      22.325397488420059      22.189330315921378
  1033   3      18.347032913649446      22.219103492683086      20.276949796805724
  1034   3      16.256557333172676      22.253227222422428      22.340852571091137
  1035   3      18.220861170484326      20.282390392819526      22.526537682350764
  1036   4      19.934435397940319      11.852012794430228      11.989673716914341
  1037   2      22.216195448380375      14.003292030560477      14.121216526795534
  1038   3      22.269059893618735      14.281748127618354      12.177039096477161
  1039   3      20.299085741132266      14.274184439754331      14.269295243400469
  1040   3      22.235056128374925      12.147733695321385      14.256746150369075
  1041   4      20.037498037588193      11.871482590815784      16.000841341627201
  1042   1      22.245771460252225      14.069496015885971      18.163653820947644
  1043   3      22.298166908562326      14.354288940273808      16.127470474081921
  1044   3      20.248302955947874      14.219088696785088      18.294472397215685
  1045   3      22.274621667809196      12.057467252068882      18.380354879279903
  1046   4       20.15729096653584      12.258516957915148      19.825764319757372
  1047   2      22.254158787970407      14.044811615693085      22.248396523811159
  1048   3       22.24350919582481       14.19898860134175       20.34353169153917
  1049   3        20.3002984309529      14.173286011645038      22.415250382039179
  1050   3      22.413144865138381      12.125547344485891      22.436949451182045
  1051   4      20.080912096193778      16.046239260500972      11.958054181015251
  1052   2      22.259966398222048      18.095690129214308      14.166936699629606
  1053   3      22.255856272152496      18.460986880703608      12.219297254712192
  1054   3      20.272977057339414      18.425743883767197      14.292477401140712
  1055   3        22.2918259329333      16.239653124191786      14.152977358331109
  1056   4      20.237946439782007      15.751159632074101      16.335688751501049
  1057   1      22.269472160320198      18.230616803133689      18.209577275012879
  1058   3      22.310775462295361      18.336424440143443       16.16361777039716
  1059   3      20.217456149026013      18.428339788392513      18.293669467499054
  1060   3      22.339441728621754      16.205557428487747      18.313408902113597
  1061   4      20.369895077691968      15.960877141617591      19.845274518354607
  1062   2       22.19486236922307      18.193922860893544      22.150849916818625
  1063   3      22.320860005875254      18.391611066511921      20.267398598190073
  1064   3      20.297812828827631      18.412279719618954      22.276254828634215
  1065   3      22.292672318263914      16.256119616677683      22.303619229844124
  1066   4      20.170736319320334      20.044670971302597      11.896333339827152
  1067   2      22.221837538441257      22.280339918404067      14.147913945900189
  1068   3      22.290217418815345      22.306269428694421      12.258338438974578
  1069   3      20.281403472697875      22.396073284395293      14.370276560084719
  1070   3      22.304559354915664      20.386791594155891      14.395503618652683
  1071   4      20.320610444806601      19.895877573993566      16.263123398960293
  1072   2      22.171033567164798      22.271143193506138      18.226233482317141
  1073   3      22.398587751634583      22.518535151938675      16.290089705588787
  1074   3      20.285397910001578      22.319253869174535      18.248924385808188
  1075   3      22.399884091133803       20.35051292154337      18.190025095689364
  1076   4      20.135572607359215      20.070734244752117      20.037291434415216
  1077   1      22.223606114719701      22.276364283154791      22.204306669517145
  1078   3       22.44271778951801      22.231862812140694       20.19878135823302
  1079   3      20.201465419867827      22.266775588305993      22.519818948478154
  1080   3      22.487533482529312      20.211089477060323      22.342959489681821
