(written by ASE)

1080 atoms
4 atom types

0.0      24.299999999999997  xlo xhi
0.0      24.299999999999997  ylo yhi
0.0      24.299999999999997  zlo zhi

Atoms # atomic

     1   4     -0.2887483903013941    -0.23842456222708355   -0.030162261773449002
     2   2      1.9931447553973685      1.9815142686727651      1.9566414485856134
     3   3      2.1681189556291405      2.0583327519857875    0.075192674363090725
     4   3    0.099447058338139604      2.1474957005133946      2.0119738169754116
     5   3      2.0786950350355169    0.074621503969870592      2.2105254185733436
     6   4    -0.31203892848108866    -0.05932773804800999      3.9948874226532065
     7   2      2.0386244178780606      2.0115673116234039      5.9688417784016519
     8   3      2.0412300660071381      2.1490036563239148      4.0928057986138002
     9   3     0.10633435982496275      2.1700416136404312      6.2562105966552126
    10   3      1.9316172808198457    0.027569461788361425      6.1443365291866376
    11   4    -0.22250545163083738   -0.073080839517047136      7.8300468025117551
    12   2      1.9900401924434032      1.9568688031767305      10.052525996063586
    13   3      2.1536794903495742      1.9516112111727739      8.1748333869799161
    14   3  -0.0095906113314099557      2.1526957131125011      10.081289276406066
    15   3      1.9820540869121817    0.048203327021844662      10.315298480249011
    16   4    -0.15819347546066276      3.8757284362642705   -0.069619166290232876
    17   2      2.0021049176173649      5.9441717240057939      1.9952357521572228
    18   3      2.0873508933011551      6.1845055332548924     0.10080867408603043
    19   3     0.12304653705216143      6.0602387784773386      2.1702604590031087
    20   3      2.2351921003614623      4.0580903018662688      2.0677258177770592
    21   4    -0.30801664947355456      4.0133276034381451      4.2005513833820105
    22   2      2.1265234027546764      6.0221642372893527       6.041428322289943
    23   3      2.2474408506420764       6.052597970242914      4.1000502409749098
    24   3     0.06520744739195268      5.9419466765585183       6.000186849001901
    25   3      2.1422516462350032      4.0485970492462826      6.2769790941421553
    26   4     -0.1504703342228679      4.0564559548302661      7.8398989250624629
    27   2      2.0924982560830845      5.9925627119128855      10.119865534386847
    28   3      1.9134565129084464      6.2250106176436697      8.1304808598883405
    29   3   -0.027984160730959169      5.9643039383579204      10.127030352309058
    30   3      2.0853110205123051      4.0786645197407436      10.129752798501343
    31   4   -0.098411284635845322      8.0444572707569648    -0.14781189430917205
    32   2      2.0616859779376835      9.9463048037725059      2.0721068033076939
    33   3      2.0668768108890303      10.119452800123522     0.11817095379632522
    34   3    0.078256649386944419        10.2649773127318      2.0973245276255956
    35   3      2.0930515732629269      8.0804725544761133      2.2098787523779557
    36   4   -0.016581079088251526      8.0933024468763559       4.423780561986602
    37   1      2.0554722673271368      10.045870985085166      6.0729933983776228
    38   3      2.0797555261702909       10.35760693477267      4.0288348625863728
    39   3    0.010692483761959012      10.266972611125194      6.0017469987089589
    40   3      1.7966996950947429      8.0206327710889092      6.0728361274920815
    41   4     0.28514633975611803      8.0627048120940774      8.0293792555593768
    42   2      2.1665663534193773      10.166092786271488       10.07358141545464
    43   3      1.8480817066356148      10.060551189658479      8.1586592382600926
    44   3   -0.094804364633716456      10.227721736998056      10.206275239556108
    45   3      1.7585577233167731      8.1290501950370526      10.155290724803933
    46   4      4.1924028558783739    -0.26964017381824418    -0.02222631207028954
    47   2      6.0921171733239818      2.0011566587178748      1.9167855127180824
    48   3      6.0889827465929756      2.0112770716122257    0.037639585236588162
    49   3      4.1040278547075104      1.9772526808013655      2.1690627303735051
    50   3      6.1478824420908715     0.07730401652365515      2.2378967108175516
    51   4      4.1867560475144279   -0.072174444121213724      3.7506633858644154
    52   2      6.2110336550701017      2.0153122061744186      6.0901616748006902
    53   3      6.0250553918408185      2.1382569817945791      4.1271145389989492
    54   3       4.016553925939963      1.8480081893242792      6.1449427044696723
    55   3      6.0975076721229016   0.0075494950670105367      6.1157791176011127
    56   4      4.1653623457949127     0.18817124464287258      7.9288695078467004
    57   1      6.0846389313408098      1.9531540522518696      10.108743487244471
    58   3      5.8966657885760601      1.9997464264766596      8.0819910676308311
    59   3       3.950428603184315        2.02174385002809      10.365379113052814
    60   3      6.0338765688313787   -0.065694362237523063      10.345815014348682
    61   4      4.1320806871873872      3.9002275539090641    -0.33442343477057979
    62   2      6.0844147191770306      6.0671613358986489       1.963033801016048
    63   3      6.2019365355401277      6.1523361335857309    0.077966373337116396
    64   3      4.1121946851112909      6.2170008789521152      2.0448956633622766
    65   3      6.0301815132872054       4.056389272494882      2.1465042084475443
    66   4      4.3918629180740627      4.0498409035773699      4.1107013887114832
    67   1      6.1307048903268893      6.0265757464963743      6.0932155858785118
    68   3      5.8469817998167022      6.0107449642367881      4.0778492783969984
    69   3      4.0238317402353978      6.2630810480484778      6.2321521049514814
    70   3      5.8369767700408621      3.9835073266690313       6.169943570445219
    71   4      4.5383561285517642      4.0686279328776811       8.174309865130601
    72   1      6.1014857355254772      6.0711166949825648      10.171589902173615
    73   3      6.0508957830224324      6.2799311677849419      8.1376244278560019
    74   3      3.9768679737932446      6.2627835845065185      10.122082180281192
    75   3      5.9573376685175345      4.0554988252412043      10.128827522159311
    76   4      4.0937995945959953      8.1092602857649005     -0.3125595437831214
    77   1      6.0852795263261923      10.070729686358376      2.0642133108553833
    78   3      6.1478655865203216      10.153978656731587    0.028219418845252166
    79   3      4.0353635707014792      10.280519787703952      2.0937579427487276
    80   3      6.1970574322030343      8.0424124882488552      2.2810031030396227
    81   4      4.2871903529209323      7.7816213964030094      4.0412207333462309
    82   2      6.0157695702863023      10.072661079872054      6.0658755064039198
    83   3      6.1279938793105826      10.371143429795021      4.1424449336983562
    84   3      4.0821139701211262      10.280289899361282      6.0724314522299947
    85   3      6.0918155485048811      8.1720753430063517      6.0013715260061913
    86   4       4.338746955696112      7.8158050370873235      8.1222258774553193
    87   2       6.249495488925171      10.082465396735417      10.138004691949261
    88   3      5.9992321396651773      10.006519250513458      8.1363811274080096
    89   3      4.0210111194728659      10.109474507441188      10.160664009580719
    90   3      6.0562717206011651      8.1765951877756144      10.347447227165594
    91   4      8.1476012035221661      0.1306450006043918    -0.43801511613917077
    92   1      10.114692456224001       1.979383438851781      1.9940284386756666
    93   3      10.142580087325401       2.131382523529278    0.006925064424498477
    94   3      8.0549556425642095      2.1067507767286457      2.1955256499438294
    95   3      10.125169965609963   -0.051785639661986627      2.3174145048821897
    96   4      8.1454345100688457   -0.032404503605334346      3.7092427274025463
    97   2      10.302928550821751      1.8962686641667019      6.1266377060028647
    98   3      10.075726874284767      2.2563560276859143      4.1644830499823415
    99   3      8.0866970247698706      2.1608566882954641        6.11168208204443
   100   3      10.046046082706075   0.0027248381429817617      5.9684221439506002
   101   4      8.3732030285345722   -0.070472411493491871      8.4436810903619239
   102   1      10.138135092463841      2.0214276533397602      10.138322409292053
   103   3      9.9987239073941652      1.9448754998481861      8.0607102659137286
   104   3      8.0962927135617662      2.1630721771530137      10.103948930446279
   105   3      10.063246570716986    0.006024995058466198      10.234962727455367
   106   4      8.3078307545617402      3.6805556119012257    -0.25467830748765319
   107   2      10.138151847615374      6.0630350299977067      1.8953668548830154
   108   3       10.09620302040493      6.1640320153228663    0.040317491849491446
   109   3      8.1168512650084796      6.0593038607340794      2.3100283081274986
   110   3       10.17212136115484      4.1266408177447982      2.1767484033157447
   111   4      8.2631665373716103      3.8414520213790642      3.8541605765274825
   112   2      10.022290678662523      5.9409419856025654      6.0875377237158057
   113   3      10.231501603954419      6.0031875101290666      4.1637525934625526
   114   3      8.1493214533113267      6.1569189417721368      6.1209387460670994
   115   3      10.162935051268271      4.0601195188227939      6.2717113780087343
   116   4      8.2334258279640569      3.7205965978016855      8.3887017632062939
   117   2      10.106055055867746      6.0398785852089549      10.287911718947383
   118   3      10.082924519139294      6.3351785055250822      8.0832204547294495
   119   3      8.1706751376272706      6.1651346027639269       10.10679250697566
   120   3      10.154211064511278      4.1019261125757565      9.8760106899155833
   121   4      7.7825322816774349      8.3360372263267042    -0.21666219513024848
   122   2      10.157946620148962      10.159573833566741      1.9500491465785668
   123   3       10.19200496193824      10.045908065543896    0.084762263094827289
   124   3      8.1664376901759095      10.132591646437341      2.2021415490457898
   125   3      10.035354051530332      8.0892324785859984        2.31923527592798
   126   4      8.0688248807541871      8.0523815566412225      3.8082380198389174
   127   2      10.020865746378183      10.001153194068161      6.1073532684756175
   128   3      10.008098015733793      10.302732035158224      4.1926996231353915
   129   3      8.0999692875037059      10.302599725048129      6.2407264405342024
   130   3      10.159972858615927      8.1360816153226612      6.0300367749857662
   131   4      7.9579346537157942      7.6691566692747291      8.1661803147486349
   132   1      10.088792135237398      10.109222140283251       10.09866202942426
   133   3      10.340557508903082      10.172442225247188       8.065849526607364
   134   3      8.0998345456675764      10.163738885250707      10.103661218604437
   135   3       10.38449563931079      8.0658766748870967      10.223114201397877
   136   4    -0.12235347080775753    -0.19704218145429689      11.902263913315721
   137   2      2.0299716057259087      2.0720805002167677      14.085465776220103
   138   3      1.8309781406286554      2.1380700480033497      12.181162767507812
   139   3   -0.023617330728391044      2.0747619938775781      14.424421966516087
   140   3      1.9328565581544055    0.032904431517974821      14.270880258314463
   141   4   -0.004406373155093098   -0.024968309975572853      15.929892719888551
   142   1       1.988771728448504      1.9935746613671925      18.168709632730582
   143   3       2.242373373467669      2.0113702327054241      16.172107664090483
   144   3   -0.042293640471815684      2.0336635542735673      18.376677187299229
   145   3       2.095245615128098   -0.035947570416358668      18.507031969851248
   146   4   -0.031703220481171718    0.010112204580923215      19.940485150581296
   147   2      2.0623900134335322      1.9585558068879956      22.197607035982404
   148   3      2.0045359432059615      2.1451387404367628      20.333401774399675
   149   3    0.065408414852334035      2.1506466397276647      22.480227986055013
   150   3       2.095307345145843    0.047754877965333793      22.283859947776662
   151   4     0.04407911091104736      4.4066969893142947       12.24379230041202
   152   1      2.0623453346320146      6.0619156351171837      14.094292348898131
   153   3      1.8473980425734529      6.1471984631020122      12.078143949342476
   154   3   -0.031758802654069433      5.9814825829059162      14.270284308576056
   155   3      1.9836449109240595      4.0249500614386431      14.296087478581081
   156   4   -0.042796553011242092      4.2468591544858496       15.85526808208647
   157   1      1.9532640179585359      6.0716409896370065      18.189236425088673
   158   3      2.0619541652767648      6.1531183482188299      16.168331262082098
   159   3   -0.079374895855548966      6.0854835171533193      18.402944305177833
   160   3      2.1191940707062877      4.0461027479306377      18.273437139706505
   161   4     0.12387783622247581      4.0141198105587286      19.791922564262396
   162   2       1.946286457204166      6.0518370410894073      22.249496017914176
   163   3      2.1247131196557634      6.0348259993671425      20.365506354421299
   164   3    0.054966956201402323      6.1661542394699245      22.413312176599252
   165   3      2.0858304389021245      4.1222295472753245      22.506882217721067
   166   4     0.30476097532072777       8.075181013476012      12.101321605186715
   167   2      2.1120377146904779      10.112192236222077      14.252369043096515
   168   3      1.7969990321324283      10.082943368254822      12.123753440315681
   169   3   -0.064035398247039355      10.188255519366141      14.177592314128868
   170   3      1.8533509609803978      8.1712417592535296      14.121462069897499
   171   4     0.19846464629990984      7.7265966522941101      15.883680915521957
   172   1      2.0076928976091271      10.095390040077355      18.163359644892285
   173   3      1.9468352469157986      10.231345524604276      16.130781981545745
   174   3   -0.061475834233446124      10.018106207045617       18.29484175383492
   175   3      2.0338266767872568      8.0918516052336198      18.377970979829847
   176   4     0.15624497564835871      8.1170608062447052      19.804416255742929
   177   2      2.0527835992733992      10.171107134689459      22.166212798492587
   178   3      1.9768354763219651      10.119711840973102      20.307216243408618
   179   3    0.053826124788139716       10.02077394624312      22.537942417966558
   180   3      2.1246285580955706      8.0748963543049257      22.425945072001191
   181   4      4.4030364040201286     0.24970306009170282      12.084132423495173
   182   1      6.0551978681538392        2.02921397323865        14.1936752848132
   183   3      6.0423651502115838      2.1791756333928731      12.184089900106034
   184   3      3.9784407411215743      1.9216505486206836      14.086043914345197
   185   3      6.0276473040838869    -0.03850770440311041      14.178257790093305
   186   4      3.9785312900258942     0.24561169009782224      15.938714329208214
   187   2      6.0057396376738925      2.1621064736705571      18.154812572728879
   188   3      6.0291146240100435      1.7680328393380018      16.262840197005495
   189   3      4.1073317504509141      1.9607926732093761      18.418486385266419
   190   3      6.1472963812413255  -0.0019129964967866896        18.4626329381712
   191   4      3.9216273417657086    0.094963383316481728       19.97756525453385
   192   1      6.0439855585617668      2.0337458973017504      22.196744902174913
   193   3      6.3858034892308648      2.0656615320966112      20.168825762089803
   194   3      4.0077785837666164      2.1572519112385691      22.348651731949261
   195   3      6.3198135352657552   -0.011673857109677721      22.180145173427725
   196   4      4.3859547476197704      3.8360814534776373      11.898265340665262
   197   2      6.0128423034015368      5.9437254998261633      14.226250813753117
   198   3      6.0819670655233171       6.073586153653995      12.209390032964169
   199   3      4.0797240898918714      6.2479687099142165      14.154109080189897
   200   3      6.1331480693337417      4.0593987922628507      14.369636380127103
   201   4      3.5012501589189031      4.1076324769860806      16.267275822705212
   202   1      6.0960497671743878      6.0629530852194682      18.190745111188239
   203   3      6.0362239074365869      6.3771792398112606      16.155654961859181
   204   3      4.0512099295060073      6.1652755756675512      18.279366118345706
   205   3      6.0455293195290594      4.0330803352737474      18.127548667772931
   206   4      3.8705205859654512      4.2017958541967806      19.797419642895829
   207   2      6.0544335987525963      6.0453167938520318      22.129761056833807
   208   3      6.1078243083923267      6.0967460525890793      20.276694893297059
   209   3      4.0968073472590882      6.1138966346589028      22.483452886045846
   210   3      6.0836694017532373      4.1340226781496003      22.410708067354133
   211   4      4.3146514575485204      7.9299967392352082      12.311537108199953
   212   1      6.0420482291729494      10.108888498440558      14.201236494471255
   213   3      6.0469772037377965        10.4380246883035      12.066721090697145
   214   3      3.9877172841573949      10.165694560691108      14.006777173370565
   215   3      6.1530456018628179      8.1240083361104904      13.917084424328262
   216   4      3.8552760741669592      7.6694545594159305      16.345645188936647
   217   2      5.9132565064517841      10.126870800125428      18.157628692557189
   218   3      6.2453748765644068      10.061168742542357      16.236551646590815
   219   3      4.0506751923857314      10.141957165270341      18.265019242509119
   220   3       6.154522261280901      8.1580786053913048      18.316136022493453
   221   4      3.8562927763812893      7.9427523126949167      19.814205641758878
   222   1      6.0166132246892134      10.115728959786276      22.178679157340444
   223   3      6.2988322240803321       10.16502646575651      20.182980121577064
   224   3       3.999514516195676      10.099603425119625      22.485944144626835
   225   3       6.108849693979292      8.0550083227076037      22.412209715491301
   226   4      8.3326679822120049    -0.31804082422579633      11.883458224132038
   227   2      10.112340836180271       2.022492371123382      14.053850559545744
   228   3      10.099352617733311      2.2392148081148568      12.179275331377941
   229   3      8.1716517474784762      2.0419406206698132       14.43306260045866
   230   3       10.28366517071116    0.085097778388550302      14.209083686537035
   231   4      7.8627268675619568    0.078774048470089716      15.912708646384717
   232   2      10.105347884655609      1.9493015212406051      18.189214831265094
   233   3      10.364900355906109      1.9628969762173096      16.252708745608047
   234   3      8.1740884712707675      2.0688555940707158      18.083863434107769
   235   3      10.233245533734703    0.045766283943383286      18.352636470590216
   236   4      7.7784730624329024    0.056708351503553821      20.233311160023142
   237   1       10.12684814537652       1.952554872292843      22.192075343730334
   238   3      10.075279839564786      2.3063908566362046      20.168217252323242
   239   3      8.1212244646286109      2.1769298530336969      22.323076953206805
   240   3      10.066882303651328   -0.068030398107496823      22.367471511688528
   241   4      7.8210167382354845      3.6511517080313025      11.875372734004285
   242   1      10.115040008685327      6.0457198153918092      14.174862735930681
   243   3      10.302316103476176      6.0283311602960632      12.156468897799554
   244   3       8.060544806527286      6.1824368001670855       14.23928672083005
   245   3       10.09702762121813      4.0244909602216383       14.49016798214679
   246   4      8.1465535786725845      4.0417502225724222      15.868402569042011
   247   2      10.015812649062694      6.0494665479997636      18.110026605512456
   248   3      10.241109539608694      6.3052399103719718      16.240503241960006
   249   3      8.1563528977396107       6.225594174853585      18.193010562185989
   250   3      10.159825002848603      4.1289542976329692      18.083140017545997
   251   4       8.078563150905854      3.6809148137817087      20.400345154975991
   252   2       10.04959588167776      6.1057126948339784      22.125817366836539
   253   3       10.17989640913185      6.0820924287304603      20.261074530833291
   254   3      8.1237952119881687      6.1295578693044073      22.324389755399231
   255   3      10.164493491553866      4.1863360534433793      22.414257121081999
   256   4      7.8786235930224118      7.8012021736501671      12.357178253733236
   257   2       10.04969916362046      10.123005209434735      14.088423990495524
   258   3       10.37423386653294      10.217572070268252      12.174663808192804
   259   3      8.1853072185717082      10.093749674125624      14.073820468085083
   260   3      10.373574592424154      8.1769926178650962      14.073865067779581
   261   4      7.7333076354757511      8.0344828739763141      16.101139306261846
   262   2      10.118624916150511      10.173561908232765      18.052866983595997
   263   3      10.244663773175482       10.04103635669215      16.161010307610344
   264   3      8.2176319049582212      9.9746192514085852       18.26472854043406
   265   3      10.308039344198503      8.1196619379532251      18.359621118129333
   266   4      7.8228621516658254      8.2450564657694763      20.010952968173036
   267   2      10.183346082411449      10.059054125308263      22.160229372272752
   268   3      10.118660393426838      10.112105572573062      20.298239455924271
   269   3      8.2210994095408001      10.084230068110662      22.455483897156572
   270   3      10.189246565818268      8.1013525893320786      22.369039017980032
   271   4    0.038437391634365874      11.866276460548605    -0.11644818302605227
   272   2      1.9731331789063291      14.093263107892193      1.9418203459068926
   273   3      1.9937991136315145      14.429618500606182    0.050711700765652686
   274   3    0.056053203857694682      14.348306802575166       2.107845661249879
   275   3      2.0766588528412324       12.21041015893949      1.9572968605989982
   276   4    0.014530947458838973      11.753853375072488      4.1876696103030877
   277   2      2.0284490592355207      14.149772303720615      5.9815799436129451
   278   3       2.150475027333842      14.160424298752595      4.0450586004711964
   279   3    0.021461011001669673      14.259565394067236      6.1627566728124794
   280   3      2.0267463998777875      12.210062021445026      6.2549232292617916
   281   4     0.12557698737324216      11.824928477810953      7.7885577230427367
   282   1      1.9577990684235804      14.085004203496339       10.09142686465734
   283   3       1.964357974406634       14.41101585208437      8.0850529986743993
   284   3    -0.09452240898863605      14.348335741150718      10.187602743343314
   285   3      1.8799341188237193      12.071110758517543      10.190159836880857
   286   4   -0.086207338688886706      16.000153893178538    -0.25476282251437143
   287   1      2.0056323563562755      18.246213956118037      1.9509981993186225
   288   3      2.2501377796027806      18.180250011461069   -0.074099746598756122
   289   3   0.0010790997581406067      18.209679834809993       2.240470202396216
   290   3      2.1427133978333059      16.193653867754875      2.1793673472267518
   291   4     0.12552945649711708      16.337266963334645       3.684060576798398
   292   1      2.0011430548199574      18.225594842787356      6.0357346285198306
   293   3       2.261113807839759      18.304227420996799      4.0464438622324996
   294   3   -0.030381486014737398      18.468840153475021      6.1060103477889447
   295   3      2.1287094717303514      16.186200532468568      6.0548848027000517
   296   4     0.13438184119720531       15.90792281972689      7.9898445002419107
   297   2      2.0453566302601347      18.152986819729787      10.118896114723977
   298   3      1.9432251243923433      18.310042013287713      8.1703944036706488
   299   3   -0.015993017846715998      18.281494576817582      10.329093880713343
   300   3      2.0249648984139381      16.259099886162762      10.278573595989165
   301   4    -0.43009134313754244      20.450876625215855   -0.096107115958927528
   302   2      2.0482005419643752      22.232065428949404      1.9133249427948216
   303   3      2.1733137105824913      22.474666560964337    0.010630273110878505
   304   3     0.13033534538149849      22.349696156092332      2.0514333445291202
   305   3      2.1404453764214422      20.333827473623113      2.0555958853038181
   306   4   -0.069253215067524132      20.094006075600106      3.6965505398014105
   307   2      2.0179837528908076      22.263175161816982      5.9777654780895002
   308   3      2.1006172167525721      22.284424248294666      4.0923822372288221
   309   3    0.072321225941370706      22.229995275710138      6.2515734235026761
   310   3      2.1451784812535477      20.365615433476144      6.2826510430167035
   311   4    0.082467604254515006      20.058279577117492      7.8428374516962052
   312   2      1.9760820518013351      22.227838066607752      10.017620002790466
   313   3      2.1034721852660958      22.442154532856488      8.1486877801719828
   314   3    0.061961008654489558      22.426070056451398      10.195630667947205
   315   3      1.9249731845084681      20.324648926120791      10.082002114332049
   316   4      4.1941997433126676      11.710041390117865   0.0077683420322045569
   317   2       6.017861962642475       14.10403769855086      2.1242767590008249
   318   3       6.223813437850084      14.279396361418076   -0.020694607559915298
   319   3      4.0800693899635592      14.269167697287875      1.9114463902426937
   320   3       6.164247171457264      12.207728070443098      1.9521353102333192
   321   4      3.9967965651604636      11.800978034661359      3.9955738047971221
   322   1      6.0534050436756326      14.169989748690357       6.022575324614003
   323   3      6.1335038985126644      14.137570312512512      4.0056637010589649
   324   3      4.0101493658819294      14.154521465348621      6.3095828909287928
   325   3      6.0671040013952338       12.14879373537152      6.4205887842599578
   326   4      4.0932144651685363      12.146798894447926      7.7790649545759214
   327   2      5.8833179963180013      14.175888067990623      10.103651698746333
   328   3      6.1390902942967287      14.371098089090738       8.173763518936461
   329   3      3.9979552314728046      14.276137109946195      10.165877383208114
   330   3      6.0685216541885181      12.192014721054848      9.9171400288068039
   331   4      3.7395323939613134      16.124384622395777  -0.0091760533665715977
   332   2      6.0802832262344895      18.230126591250436      1.8669490138739171
   333   3      6.1533221857627014      18.208979236887089     -0.0096634724408794
   334   3      4.1490068515009559      18.296311545306157      2.0538547822604327
   335   3      6.1342477661555277      16.265911951365325      2.1383230354899792
   336   4      3.6968145563074448       16.42028450916257      3.9095104123090332
   337   2      6.0305216321242261      18.133009828997437      6.0372611161604217
   338   3      6.0552874770660869      18.412105728646026      4.1219584380986953
   339   3      4.1243166448451145      18.313100454360391      6.2541786276509104
   340   3      6.2019558165945474      16.255935792894963      6.0895029461814234
   341   4      3.8104555162829641       15.94880478678688      7.8866892497201233
   342   1       6.000181702167394      18.174104723192464      10.100498040433132
   343   3      6.2485331021142887      18.256483484588856      8.0777133957807017
   344   3      3.9715777270301582      18.382963123115111      10.145665382845753
   345   3      6.0824052747197905      16.147238263229649       10.33155241226901
   346   4      3.9790346783715966      19.924204471894637    -0.22432823704359803
   347   1      6.1001670152197738      22.251786137113793        1.95934437732481
   348   3      6.0448167187147366      22.500659634635888   -0.052598699227622822
   349   3      4.0400728831441475      22.530051510519389      2.0709989916406655
   350   3      6.2416257937265227      20.209911574539966      2.0249206481644828
   351   4      3.8505738583659355      19.969438802920742      3.8415334114445963
   352   2      6.0125158547727064       22.26602456356828      5.9655798515549767
   353   3      6.0547749827031421      22.259111103667458       4.104961265855418
   354   3      4.0608265441338824      22.427921110420876      6.1861298438074401
   355   3      6.0532041122427875      20.345208083831249      6.3114411821816114
   356   4      3.9510789920610074      19.967516549612387      7.9773248352482247
   357   2       5.963586495806112      22.267454472526914      10.029608519872362
   358   3      6.0717756414422119      22.402483172458894      8.1422611632052853
   359   3       4.022327590255844      22.277402649487588      10.256885054835257
   360   3      6.2276262565703338      20.301053313842015      10.092109768972737
   361   4      7.7906522966232616      11.866244223531238     -0.1433817434378202
   362   1      10.082131985897291      14.146417379552101      1.9593525444078721
   363   3        10.1397520364788      14.394802451578608   -0.074676262274955107
   364   3      8.0562334591022111      14.383925528600475      1.9946342554849941
   365   3      10.161266203830701       12.09872236714012       2.135115599204878
   366   4      8.0721422104667617      11.943217963969888      3.7921933476575567
   367   2      10.079073752040259      14.098101763989298      5.9801283238769738
   368   3      10.003286352268804      14.221270408772664      4.1007426592028358
   369   3      8.1442573186109151      14.189664080729861       6.315150519151679
   370   3      10.176567101700893      12.220997826226872      6.2670606421479871
   371   4      7.8496372129579592      12.235125228635777      7.9101498176439602
   372   2        9.97762187292936      14.197698713079483      10.048659429102942
   373   3      10.186305315206285      14.340009684801277      8.1738923526101761
   374   3      8.1124249467043441      14.215608454443432      10.181814054848553
   375   3      10.325367639031693      12.283838973647059      10.144526920843331
   376   4      8.0931446502878117       15.81670001558369   -0.033273912956006603
   377   2      10.180615037653606      18.171926375580011      1.8689375587213963
   378   3       10.06509384256309       18.25098668691075  -0.0081708759277245111
   379   3      8.1382304729144206      18.267254846248186      2.2071831997409594
   380   3       10.08480652037812      16.298976478681393      2.1798599253900468
   381   4       8.108343341661989       16.00271806681377      3.7344739997785203
   382   2      10.077137865876647      18.166054966602129      5.9434448890123415
   383   3      10.166324606255033       18.37695645936375      4.0951007522090759
   384   3      8.1267382832846078       18.46252691875355      6.1317240081742446
   385   3      9.9955932274464967      16.274394579288511      6.1542358846556366
   386   4      7.8074496366663162      16.056896932702372      7.9452372126278101
   387   2      10.033574199785763       18.19389257360417      10.064753384699035
   388   3      10.084121151195431      18.222871188894832      8.1811450225590328
   389   3      8.1565537822616534      18.224269140976265      10.308003815484746
   390   3      10.232026165908994        16.1990696700745      10.358538778147981
   391   4       7.970017151326668      20.157368790950745    -0.31129681279013166
   392   2      10.108897369493002      22.265244856517768      1.9088363708354776
   393   3      10.178503633561277      22.349650104709035    0.057974674205274572
   394   3      8.1818509851832424       22.31894489645525      2.2325204873242259
   395   3      10.096456133072577      20.288446677331827      2.1201814619165278
   396   4      7.9588207789026217      20.232733247534217      3.6853873223181486
   397   2      9.9979306382229289      22.187673840234279      6.0505070809664652
   398   3      10.225232476325083      22.218210382500462      4.1604671219242242
   399   3      8.0783867696699687      22.242164710421491      6.1277054181023605
   400   3      10.257437550672121       20.29046075799646      6.3094355762353844
   401   4      7.7952660787967911      20.047075769911487      8.0920933286885735
   402   1      10.078026460183196      22.136542944792229      10.093517249446387
   403   3      10.099764550466158      22.534182948949567      8.0721276300115825
   404   3      8.0274094733481256      22.379602883049092      10.206458949634206
   405   3      10.231264300122223      20.124345662971191      10.255458182188953
   406   4     0.23644764825109635        11.9684211166794       12.01176827469877
   407   2      1.9209772011761479      14.246445003621588      14.126097094207216
   408   3       1.976751572840161      14.256016485738348      12.164003621882735
   409   3    -0.04692756501278101      14.253614171992776       14.20727965225452
   410   3      1.8847414931160216      12.136287160894311      14.018572568812697
   411   4     0.37485191197265311      12.148091395917859      16.350298800164097
   412   1      2.0087496504393552       14.22407732776124      18.147521053736924
   413   3      1.9847691678757817      13.989826582254905       16.12728726366354
   414   3   -0.025287168473517901      14.242077663834422      18.272660468114076
   415   3      1.8698706571444343       12.12409684858156      18.272436096792134
   416   4     0.21342564750300053      12.379685917132047      19.885470917971073
   417   1      1.9621540711423622      14.098993525343229      22.286147482205337
   418   3      2.1046048954820891      14.090564439722716      20.260431854158018
   419   3   -0.081298551030123345      14.312536433916234      22.379031384221545
   420   3      1.9298845619526759      12.060952467367123      22.437466435216447
   421   4    -0.11896570891407228      15.984346911741962      11.913685385302504
   422   1      1.9392836054085418      18.225849624202255      14.168682834758318
   423   3       2.037108182113001      18.464212802950531       12.13039040491007
   424   3   -0.083570017012496708      18.462435163597906      14.172866781711518
   425   3      2.1521687459484888       16.17144146503917      14.188494516400697
   426   4    -0.35958654873034385      15.940360125855081      16.477646392010495
   427   2      1.9369740851197377      18.191994942604719      18.172522267430047
   428   3      2.0724571065056527      18.272790348814265      16.275199411947149
   429   3     0.05592817327088765      18.273277766902289      18.277763768216182
   430   3      2.0908171844107364      16.280160837526694      18.375574888153594
   431   4    -0.21273500151562388      15.933035810565586       19.93334862277192
   432   2      1.9729282462438487      18.107054362215919      22.246014635326123
   433   3      2.1438476930821695      18.407367959867027       20.27667145121212
   434   3    0.053088523271181055       18.22003841820715      22.294530768455243
   435   3      2.1558964044920246      16.228484269883761      22.221617504002374
   436   4    0.016214592287522304      19.948110668698625      12.139966786679768
   437   2      2.0668146793962885      22.247911685184899      14.051832309706185
   438   3      1.9581127658130613      22.300010189817549      12.184933024083376
   439   3    0.014947531855102602      22.417325228617401      14.323183687536211
   440   3      1.9850372901361075      20.367157121219989      14.346835131733144
   441   4     -0.1361525996390516      20.007676859928694      16.059887274616354
   442   2      1.9957314532633363       22.25769237124257      18.116734786236474
   443   3      2.0605134118392385      22.443466883388385      16.255366470442695
   444   3    0.081164957995178311      22.434260603159451      18.308338879342198
   445   3      2.0582198698212779      20.324283025459263      18.261741101027997
   446   4    -0.33989340690412856      20.284206978930658      20.199750917053038
   447   2      1.9526632017369758       22.22830300640511      22.181581115787932
   448   3      2.0675396133409887      22.265432172953904      20.312721712163491
   449   3    0.081620507028284189      22.370224358709621      22.397893272711972
   450   3      2.0982202342160985      20.335021176539847      22.447857799337676
   451   4      4.2545880687802384      12.115453585591561      12.494336415349172
   452   1      6.0060130910065528      14.174353107004382      14.154166804458885
   453   3      6.1171588904271239      14.009701085053832      12.107960594888704
   454   3      3.9623550146360076      14.059686953344203      14.184013153538443
   455   3      6.1771192106160671       12.14186029265163      14.153805040160888
   456   4      4.0855608825515555      12.693607192653628      16.296620895161247
   457   1      6.0680611021293114      14.156882056910016      18.257051716584517
   458   3      6.1480920909264265      14.121130871683045      16.210350864435821
   459   3      4.0517071626131447      14.020861701664513      18.272836624475858
   460   3      6.2729876534887374      12.078443045418583      18.197346964456845
   461   4      3.6974753989082894      12.359451230291111      19.884467380360199
   462   2      5.8982676028147187      14.163520807156488      22.295923463185861
   463   3      6.2081626692545031      14.058492688660017      20.321210156571944
   464   3      4.0436109895704098      14.156988115277782       22.35745368150943
   465   3      6.2473447631159607      12.187276751039262      22.371398380043747
   466   4      3.7853793190572085      15.959789599752183      12.020166503210648
   467   1      6.0439772481891163      18.251390315304054      14.177684072626592
   468   3      6.0961032399303257      18.392999363559426      12.163487001674518
   469   3      4.0127260428951557       18.33321006518042      14.291847355565105
   470   3      6.0675423010781007      16.202129395978826      14.221492396166468
   471   4      4.0531423131705404      16.397215575320573      15.680089878065724
   472   2      6.0475647970565785      18.054779892526309      18.260930245572084
   473   3      6.1185997392670783      18.233023690283385      16.276223214509965
   474   3      4.0852987887409657      18.370809068294104      18.293376167134525
   475   3      6.1042033864864207      16.192412435532059      18.352591796530334
   476   4      3.7263201348778958      15.808157729964572      20.074218026487127
   477   1      6.0617229008198592       18.13504132352125      22.230731495877009
   478   3      6.0941785493605183      18.469073775629774      20.209641025099824
   479   3       4.040151613492978      18.447409408634183      22.236682817730571
   480   3      6.2071760808092638      16.114698561519152       22.13631764950004
   481   4      4.1032065556456638      19.761603601488552        12.2251915784984
   482   2       6.141701081010976      22.264330775303833      14.110380684267517
   483   3      6.0769643502725907      22.129332279376069      12.200702873727462
   484   3      4.0115108970263886      22.336752286917797      14.274691816404015
   485   3        6.05562989411166      20.332343798018581      14.435009679811136
   486   4       3.998587375149353      20.008545315747273      15.911696868653962
   487   2      6.0046277310057921      22.282864389338418      18.172758674821626
   488   3      6.0464688427627955      22.486750336807891      16.271630406216737
   489   3      4.0863143926485419      22.378317893659286      18.405090655587649
   490   3      6.1512735124431828      20.351676616923065      18.139095926886817
   491   4      4.0668981691685602      19.907679081135036      20.277632059472573
   492   2      6.0299707483052938      22.263075968525335      22.270585868209192
   493   3      6.2669110629190223      22.240397335210481      20.280564030633187
   494   3       4.089115175576679      22.404741042427343       22.30745967352847
   495   3      6.1478469677778564      20.324392190649149      22.420945643215497
   496   4      7.7165279204500745      12.157676319324331      12.362396287157358
   497   2      10.105565178319658       14.15992667594664      14.075233369168988
   498   3       10.27763616627168      14.183996215579645      12.187496977170627
   499   3      8.1951117785391894      14.251554975466906      14.231147525675835
   500   3      10.201480423531713      12.169740263324046      14.227441887619333
   501   4      7.6228218192620636      12.262749313042242      16.095708552736379
   502   2      10.033044032580555      14.297597651325916       18.18202047882059
   503   3      10.214630090991246      14.124304001267658      16.240088884457954
   504   3      8.1489068546367651      14.159333614297042      18.312754857939144
   505   3      10.188905690516249      12.090150386922753      18.275013989490585
   506   4      7.7220575464118655      12.108401116747995      20.174259547137439
   507   2      10.170566455162897      14.005279575422616      22.293724209945402
   508   3      10.207710513030799      14.182677623148772      20.274880342981852
   509   3       8.198183408632115      14.278326996193476      22.257172251353378
   510   3      10.165976941071827      12.111979862984906      22.412077325243359
   511   4      7.5096524672604597      16.324904279735239      12.199133681926176
   512   2       9.993224007434792      18.249526655266596      14.218798984965215
   513   3      10.373271279385142      18.169508733814251      12.239033055901336
   514   3      8.1199682510280038      18.229069444035886       14.16719032817374
   515   3      10.322802688766478      16.202445921492199      14.251261665246176
   516   4      7.6284095575716417      15.960824099011353      15.995682901672209
   517   1      10.080920336101222      18.161797190247228       18.19530177808177
   518   3      10.183226659664282      18.325843183461998      16.158881150476233
   519   3      8.0292941667648794      18.423215674227929      18.256469621942923
   520   3      10.228341302217935      16.152018606535073      18.234086143385785
   521   4      7.8565142118885714      15.897466981764893      20.379640098998738
   522   2      10.072883975095433      18.137319747584197      22.124845374204813
   523   3      10.182252792280988      18.463228101023983      20.263160844490923
   524   3      8.1635540766873458      18.405916395553255      22.225519280225765
   525   3      10.121233894760529      16.266659355459161      22.155068816686171
   526   4      7.7427888852783617      20.068065033601513       11.95852057420726
   527   1      10.052694615993204      22.241044143173987      14.167109561084212
   528   3      10.224214544854506      22.293372269047808      12.166391183363427
   529   3       8.039597397637321      22.378996970968096      14.281163308588779
   530   3      10.319790849603226      20.184532768575746      14.172383879289224
   531   4      7.8664221617366463      19.944383942998975      16.280977182623623
   532   2      10.061954309602488      22.241693075698375      18.080164342771539
   533   3      10.260402038813538      22.393269526923131      16.212342626365146
   534   3      8.1261741346452521      22.352865622884817      18.190969266854047
   535   3      10.198538408924732      20.328610518002616      18.189258158122051
   536   4      7.9617299037280054      19.980261932870139       20.12309706304702
   537   2       10.12939082725495      22.247359880508409      22.141689103495843
   538   3      10.093069955078741      22.237815999539766      20.259106672800339
   539   3       8.150946203429779      22.229917450159547      22.476128377176352
   540   3      10.188641437890423      20.294017237582405      22.465916541660995
   541   4      12.201294138899369     0.13733803349433132    -0.54562855626945472
   542   2      14.082946192857374      2.1453251543408713      2.0252260157888569
   543   3      14.129913524424243      1.9258448273546218     0.10406827400779942
   544   3      12.167537159316323      1.9571697240396269      2.2736474732279088
   545   3       14.19204145737848   -0.041056051313433477      2.2460421294379702
   546   4      12.014878515294066   -0.024476982789728364      3.7844275938870666
   547   1      14.147072118129543      1.9688774272556959      6.1014889871688602
   548   3      14.455760110133747      2.0173039857985118      4.0287656166208361
   549   3      12.152200975144796      1.9841438776891149      6.0449714921000952
   550   3      14.459414982741144    -0.07452168714727829      6.0256026139499985
   551   4      11.959085881903452    -0.37171902735790996      8.3848750207222444
   552   2      14.122562110907284      1.9247788755360211       10.13540024512942
   553   3      14.390588152860106      1.9033102784067997      8.1436914941464842
   554   3      12.187587008122943      2.0853562058453052      10.153477360069481
   555   3      14.413650810635767   0.0086832459137661591      10.210069900734696
   556   4      11.908078449844739      3.6596644172776558      -0.259156289104639
   557   1      14.123626720378908      6.0309129561392192      1.9966823257745177
   558   3        14.2003758385575      6.3380743220496134   -0.020555821919908648
   559   3      12.059184327145838       6.216098905436831      2.1315801954585933
   560   3      14.071762265829328      4.0195488536270938      2.1176412668633606
   561   4      11.951562585222876      3.9075301491659666      3.8476175550971101
   562   2      14.073822756901196      5.9197335592723652      6.0978265793143578
   563   3      14.128817349283054      6.2416008615826888      4.1344416249391855
   564   3      12.150246681545052      6.1661856026724937      6.2263860988474891
   565   3      14.254014586744535      4.0481907498464142      6.0784986812053665
   566   4      12.144529638701586      4.0511540599044844      8.4481527685476294
   567   1      14.158998741428753      6.0609358949511982       10.10140225199515
   568   3      14.334495752055682      6.1642230762843733      8.0346534948043296
   569   3      12.116735174997395      5.9972105961419926      9.8494506086932496
   570   3      14.152430535943578      4.0022025532828405      9.8885724956877397
   571   4       12.36780304135109      8.0193794949155102    -0.12109727837143497
   572   2      14.288111736859282      10.094823082137108      2.0349176000342801
   573   3      13.965418353298254      10.074709459457814    0.099821749333887141
   574   3      12.091578151297886      10.056965828963449      2.3248295391840399
   575   3      14.111507057355963      8.1617011746126309      2.1809413669491882
   576   4      12.181922561834678      7.8910894590463734      3.8321260281297249
   577   2      14.019715756015891      10.118771077800064       6.022795987419455
   578   3      14.255271577202178      10.208596064677609      4.1084601607510107
   579   3      12.146672325406112      10.279418678343513      6.0756869536374527
   580   3      14.215077874853611      8.1988317843627279      6.1537698355647326
   581   4      11.939184663388518      7.8688404331562349      8.3040096645372046
   582   2       14.20875015237363      10.004940318327465      10.049488483065147
   583   3      14.235354792228176      10.299054726650301      8.1012869857348573
   584   3      12.265767552384119      10.362191650360163      10.146476651285017
   585   3      14.117209135980572      8.1379049358929194      10.052088517851573
   586   4      16.053873926431816     0.11460994441047329    -0.47850242984063446
   587   2      18.127387752506511      1.9269316493757225      1.9924118906361346
   588   3      18.380069236004438      2.0507224184834043     0.10109991893147331
   589   3      16.222729796404366      2.1099328022282724      1.9534889018524544
   590   3      18.167621293852473    0.036994211550961394      2.2357667666955425
   591   4      16.026375523826417     0.14766692587026062      4.2139989055989009
   592   2      18.234667270396962       1.948214997053078      6.2252341498537227
   593   3       18.17004371031247      2.2863163469384227      3.9925740604548348
   594   3      16.286513619576752      2.1097374755624689      6.0120126518031798
   595   3       18.15357363483097    0.026623663494563261       5.809893366279776
   596   4      15.882121181111243   -0.041848892092646951      8.0498347842754487
   597   1       18.22140491977872      1.9815896831973907      10.134442574374223
   598   3      18.345304981016955      1.9721236887368554      8.1004114782355092
   599   3      16.194464714346822      2.2397736516470323      10.196732980116392
   600   3      18.162201034593171   -0.050392263349771184      10.402464339831321
   601   4      16.178242139616888      3.7998703316087981    -0.29540497648614478
   602   2      18.087509041944642      6.0286167448713055      2.0486006803244554
   603   3       18.25536986349864      6.2439114472607846    0.074912942362252391
   604   3      16.202689672565779       6.172755122513248      2.1139523931659512
   605   3      18.346585443151845      4.0930545721689544      1.9466861180841797
   606   4      16.059023657119241      3.7904080884915485      4.2759059651721794
   607   1      18.159757058809948      6.0467965137403326      6.0519510606106808
   608   3      18.370620091522543      6.0580679427931141      4.0179375118247558
   609   3      16.136468043228621      6.2699941147753702      6.0084388713873977
   610   3      18.418445344769331      4.0016446702025137      6.1291498935089814
   611   4      15.919152187258133      3.8314062959515827      8.2855554985224984
   612   2      18.088196176256172      6.0860291668833213      10.024726581363783
   613   3      18.323569505934636      6.1606269089485348      8.1018937196170739
   614   3      16.232625004096978      5.9895294716348824      10.081818330548009
   615   3      18.474068803036729      4.1157491748626835      10.034237526398023
   616   4      16.015872449363734        7.90088959101233   -0.075519740248163478
   617   1      18.179878494599766       10.09785101435302       2.085836804584587
   618   3      18.347928729654324      10.161142665676676    0.037262310309521797
   619   3      16.155935418155071      10.185059100662402      1.9367011093117084
   620   3      18.413551175882645       8.047133684176325      2.1344021093925902
   621   4      15.989240991097317      7.7490690154384696      4.0733642934769092
   622   2      18.080509626340099      10.142968992362333      6.0423134515863319
   623   3      18.388782718034779      10.163831873500641      4.0901261517410523
   624   3      16.186417804996992      10.107766947145652      6.1470848631836024
   625   3      18.378640390217253      8.1444172399328973      6.0354368919545438
   626   4      16.012436736020049      7.8175032864994076      7.8725448560090419
   627   1      18.174493524814892      10.158343642593454      10.031409158569357
   628   3      18.439728095276639      10.049714542292755      8.0369871948601581
   629   3      16.169845696906869      10.151076994551499      10.261157271169388
   630   3      18.338490345092051      8.0335113269373455      10.208278196422153
   631   4      20.436293499833951     -0.4228921985348279    -0.07123688210280206
   632   2      22.168183100185402      1.9873587441242924      2.0748869551135227
   633   3      22.379010382233567      2.0990738184602016    0.091595036858971329
   634   3       20.27977424760418      2.0708783254194909      2.1550411931175759
   635   3      22.432354243571123    0.081112294307113364      2.1072178463009452
   636   4      20.057734119953473   -0.049666676466886911      4.2958363488433795
   637   1      22.247118909700781      2.0157530434140223      6.0374140496272597
   638   3      22.515589234077876      2.1152145001722933         3.9986444121022
   639   3      20.208286525813943      1.8823321103421153      5.8224157572332995
   640   3      22.543258566580761   -0.030667380816776862      5.9514543494152612
   641   4      20.370855046908012    -0.26522878988586829      8.0879536391554616
   642   2      22.269600631972573      2.0110832422654812      9.9738455884988753
   643   3      22.208775888324837      1.8655264644520171      8.0989204160161581
   644   3      20.324444228755766      1.9851786161260205      10.340365722850123
   645   3      22.350576588601051    0.095399729579049644      10.326199070219147
   646   4      19.995929188566421      3.8992650799327508    -0.13024856786579583
   647   2      22.203337103343131      6.0245562433955291      2.0343092918672934
   648   3      22.514322068529101      6.1729978421295293     0.11433080183773021
   649   3      20.343359451600218      6.0918396377874355      2.0286443650469765
   650   3      22.435357200142317      4.0820137670596282      2.0200041007041989
   651   4      19.933530287092807      3.9687945478050364      4.2662298181541054
   652   2      22.166285589856891      6.1178554648899768      6.1335562925133784
   653   3      22.404031408924237      5.9918772641683038      4.0534534964442193
   654   3      20.287610356701503      6.0974429194595059        6.08723242102276
   655   3      22.373901013777203      4.0899032107655344      6.0954547851819809
   656   4      19.935875837270682      4.1130119506133607      8.0715069251800351
   657   2      22.238997697839491      6.0473197338131399      10.202655847352398
   658   3      22.408075844899795      6.1155264010367514      8.0612442224462644
   659   3      20.317599186173389      6.1257938758495989      10.054116633845076
   660   3      22.192177774586643       4.052098847622724      9.9611398026275744
   661   4       19.79117386471211      8.2424679182386047    0.044084524889863856
   662   2      22.262251050159346      10.010787604783594      2.0639427451759507
   663   3      22.438374494402563      10.143009601613242    0.087838513906815213
   664   3      20.364213547298021      10.245676162625315      2.0437885907323192
   665   3      22.434849503070978      8.1075982596853624      2.1352071673108561
   666   4      19.850085192629859      8.0374876806547366      4.0829505898276679
   667   1      22.274571796780155       10.08190658434054      6.0531690360910853
   668   3      22.344711022176359      10.338519935352325      3.9924108121683641
   669   3       20.26020697067322      10.287080997619887      6.0485089516502022
   670   3      22.451792136432971      8.0369235260269587      5.9450409861859965
   671   4       19.90841098653021      8.1461389047482236      7.9558010791571991
   672   2      22.290138925196906      10.021994824045514      9.9837254941903488
   673   3      22.242665193011021      10.171323133293555      8.1182456963393683
   674   3      20.315768240688886      10.108134126325712      10.235398860036028
   675   3      22.352228706320439      8.0927337214071446      10.169749540894257
   676   4      11.831054232866361    -0.36417625457890829      11.858830276210032
   677   1      14.150511765040706      1.9735936261183047      14.136361680641105
   678   3       14.21941860641761      2.2727498291025032      12.107924772383035
   679   3       12.13281243998774      2.2681880928030069       14.15206313386688
   680   3      14.220312447979488   -0.058042210946297454      14.301972691418554
   681   4      12.003020033638826   -0.098444341418432668      15.890068890867143
   682   2      14.209312645851044      1.9750685469116327      18.156629993083133
   683   3      14.168627137476621      2.0744552345135743      16.234483977210857
   684   3      12.174770095001318      2.1680987813144847      18.382119000137493
   685   3      14.124293553081534    0.049431650068892677      18.309065804205545
   686   4      12.345519387212342    -0.34390763610332298      20.068403681480941
   687   1      14.183238883641309      2.0320242912390003      22.250069829870117
   688   3       14.23909299133441      2.1575644262167915      20.226320043857516
   689   3      12.148660960652045      2.1191810364407342      22.287903356772272
   690   3      14.251125853733591   0.0062095771955744871      22.293116456484483
   691   4      12.249953853161321      3.7636397330441058      12.182245239568045
   692   2      14.172777495187928      6.0779573052478044      13.968675676400181
   693   3      14.122418852935345      5.9684630697544527      12.128034058140413
   694   3      12.257419712476823      6.0411723325083289       14.34719070982711
   695   3      14.281828563604826      4.1341143791310859       14.33382327341449
   696   4       12.07961429921067      3.9439170385461901      15.904880963872625
   697   2      14.106002232715234      6.0246386958551561      18.157143009673991
   698   3       14.31134457370036      6.1858369550226344      16.290578803121964
   699   3      12.208282694459575      6.1370139357900166      18.325981112103729
   700   3      14.250688561610341      4.1067450168236972      18.253086064188828
   701   4      12.157940622978273       3.595665310449927      20.312736680044043
   702   2      14.072552192859533      5.9820034696841331      22.259745364754526
   703   3      14.283279577708075      6.1216348071103361      20.357269909893233
   704   3       12.14632883514604      6.1440792045648802      22.386349934372685
   705   3      14.243312497611713      4.1134693448516373      22.451674663169602
   706   4      11.888336446447211      8.1350376457727283      12.089039392810239
   707   2       14.15747287524484      10.242476382926498      14.200933784880609
   708   3      14.226568631236161      10.188514802362034       12.13262709747832
   709   3       12.23079150208237      10.191779159483017      14.198625689229226
   710   3      14.174395608775816      8.0735712501797359        14.2025024842451
   711   4      12.014004554208682      7.9435423865147028      15.899581876345874
   712   1      14.151945708852359       10.07372748109219      18.147630171609745
   713   3      14.355139084526188      10.079633273631066       16.13394872975028
   714   3       12.13003101867986      10.122543400721232      18.425277514329533
   715   3      14.199002613554045      8.0452847385571928      18.471243509593123
   716   4      12.179157768890823      8.1992978901314775      19.871913636598943
   717   2      14.246659939338487      10.161690873250713      22.179070748619473
   718   3      14.272714452449776        10.1362447084209      20.303452562471023
   719   3       12.16004212897365      10.085671565539181      22.361570861672526
   720   3      14.173548710911213      8.1417653148962472      22.386213874347398
   721   4      16.181854530551927    -0.20697643237464852      11.876051494792817
   722   2      18.137294960541468      1.9485794006993276      14.180521879036762
   723   3      18.233302988205534      2.3175054204344301      12.236973443259371
   724   3      16.231762932115942      2.1030061452377753      14.247684934352497
   725   3      18.345404495408093    0.043959749241123468      14.115366880593379
   726   4      15.869261202073837    -0.15298526444435537      16.061992448859467
   727   1      18.181590605218926        2.02802579221559      18.160607321498155
   728   3      18.419840127529092      1.9363172685776406      16.142607914455063
   729   3      16.151446566119205      2.0959219689805093      18.261040316444372
   730   3      18.444265100176409   -0.030311545966932717      18.334440243485492
   731   4      15.780462826572363    -0.16406269072786253      20.332541263028165
   732   1      18.267661324420601      1.9985130082091527       22.31792649643025
   733   3       18.30930956613625      2.1539398102186249      20.288275517140555
   734   3      16.229334589945562      2.1122720122035519      22.454330268123812
   735   3      18.220936530979952   -0.034608143289472267      22.253701045348141
   736   4       16.12852613106315       3.746024136795747      12.009461034046909
   737   2      18.233291606676246      6.0726202081474456      14.039821973429616
   738   3      18.300512742398681      5.9543120664449178      12.133195009255884
   739   3      16.234489792175363      6.1149493652476536      14.264049624913898
   740   3      18.201398313604923      4.0780803627805096      14.402955791545986
   741   4      16.013332329714853      3.9239643739480949       15.94332129417911
   742   2      18.144673421575188      6.0184443807704087      18.125302456917442
   743   3      18.213720713138056      6.1645171263174419      16.254593599734648
   744   3       16.24917388950022      6.2141048733228663      18.403370977852013
   745   3      18.283465441843198      4.1155810585954589      18.278476298815228
   746   4      16.284603376360153      3.5039955835581877      20.251174204987425
   747   2      18.149865400084728      6.1146414486962124      22.211078317845285
   748   3      18.313421616955544      6.0229166976747086      20.332520358915396
   749   3      16.222933766379651      6.1824987944879473      22.432513421913278
   750   3      18.244852788567012      4.1544340239339066       22.56122610742089
   751   4       16.38072682531979      8.5681542218861733      12.113024301090986
   752   1       18.19821413258467      10.131098302925443      14.183347517039401
   753   3      18.339910859960419      10.049820050867014      12.148980562894273
   754   3      16.194288196735446      9.8929175481632772      14.090187003769699
   755   3      18.332877123996774      8.0210522883450146      14.193377726259804
   756   4      16.070700672551734      8.2723452535000561      15.915431275835715
   757   2      18.114001797136414      10.141951043205907       18.24872605954689
   758   3      18.380393102251503       10.01014235706387      16.276466372088947
   759   3      16.238221416092458      9.9696854359049354      18.254391813550971
   760   3      18.385332430889946      8.0554687347361771       18.38221352275238
   761   4      15.985527564804929      8.1167336835809696      20.003824660358152
   762   1      18.216473882651492      10.087849546570339      22.229440289470574
   763   3      18.352713842781657      10.068563051951744      20.217624356674072
   764   3      16.149088557082802      10.087894912811279      22.538719523308586
   765   3      18.408725868701275      8.0425252584318567      22.335143224478639
   766   4      20.185674283139992   -0.083605052621739451      11.815756531995774
   767   2      22.267132855932228      2.0619126281014903      14.028848238023052
   768   3      22.414824140231541      2.2193958810218848      12.168699652858798
   769   3      20.299982109808784      2.1537643937220761      14.155859916534361
   770   3      22.367714685804344     0.09161071516210488      14.221501095741976
   771   4      19.996100604036087     0.07707319775662913      16.226359584482356
   772   2      22.284418175774643      2.0558572660826635      18.116892845016636
   773   3      22.184412786863309      1.9552238809360734      16.255439445919347
   774   3       20.33933417696883      2.0593089679947978      18.447767589268746
   775   3      22.339953528316592     0.07334634431779595      18.448807659351985
   776   4      19.880288901779323     0.29179399685386354      20.123408463543541
   777   2      22.260524416301479      1.9813298121120708      22.222406608421103
   778   3      22.377873058945564      2.1400119151155672      20.353004972159304
   779   3      20.363746218901085      2.2015332245256189      22.365011451052986
   780   3      22.328753875418116    0.090582968234466446      22.392876414251521
   781   4      20.056400870995041      3.8643031379060813       11.88570324840741
   782   1      22.202998227632307      6.0676684713669626      14.130560097068498
   783   3      22.334696661020875      5.9011301038866195      12.090334143366267
   784   3      20.167093881867579      5.9620982763507033       14.35141433689625
   785   3      22.298977633195186      3.9960407830202023      14.438154170002901
   786   4      20.221003396850218      4.0738115196868865      15.881441220331503
   787   2      22.201551240765284      6.1231753626930185      18.157534050316812
   788   3       22.28757666106074      6.0954373806520357       16.29316973670797
   789   3      20.262388885105818      6.0396237957439407      18.360140323934743
   790   3      22.335366013790043       4.061050967583423      18.340111060571317
   791   4       19.96280938480864      3.8399900046393687      20.066442843794057
   792   2       22.16759699040249      6.0249723523253191      22.234370217067106
   793   3       22.28880864351239      6.0274351280330807      20.386813868929231
   794   3      20.293283414731711      6.0149359613787388      22.489762221524103
   795   3      22.438025591897798      4.1209815458104844       22.53435660943191
   796   4      19.980673999067225      8.3600682159152058      11.941411211154845
   797   2      22.318465476903182      9.9799664762324358       14.06125024235898
   798   3      22.200910959238325      10.207458785009337      12.173423200494193
   799   3      20.308051743348067      10.145889607926462      14.325759357193757
   800   3      22.243645921049303      8.1070793906506022      14.218218377137338
   801   4      20.096415673091894      8.1817551662315164      15.883159946842268
   802   2      22.327364267672856       10.15213348760266      18.103347626022504
   803   3      22.224527484385696      10.105532391837315      16.226344711000554
   804   3      20.317036004413119       10.07733089559502      18.361666956561621
   805   3      22.250547604278353      8.0703602922999291      18.447198003257945
   806   4      20.019310592623814      8.2812840892850677      20.096456243702452
   807   2      22.231920279000679      10.039571822842635      22.200377463244529
   808   3       22.35001708886923      10.079986788081053      20.346398403734831
   809   3      20.365370184396291      10.152072134656466      22.394459851967859
   810   3       22.38094805814756       8.084572155711955      22.455009024352385
   811   4      12.568248837511039       12.24035680991542   -0.047451346989968522
   812   1      14.178250684643954      14.117786646047371      2.0202751084357513
   813   3      14.083728065162509      14.294736850377387   0.0043138292431081412
   814   3      12.108381615974167      14.267504917436916      2.1264009046013879
   815   3      13.939790457255773      12.084491589414222      2.0430457951124161
   816   4       12.12571997097672      12.290556066493563      3.6466011973067918
   817   1      14.042090744419419      14.163456015176742       6.095882297229462
   818   3       14.23449486221449      14.207350037923176      4.0514175472477527
   819   3      12.037937971790891      14.418339705293825      6.0896477504603022
   820   3      14.370931162075587      12.138450946356734      6.1147086031819704
   821   4       11.87455644417216      11.928057440617332      8.1855384138924911
   822   2      14.055294836112191      14.216006510981472      10.178801946941624
   823   3      14.360742135564269      14.233637848016429      8.1778105107870989
   824   3      12.186903190497347      14.282714817595316      10.174412380623371
   825   3      14.346405654970134      12.239878519469102      10.124635127650166
   826   4      12.264002847221708      15.763357174331064     0.10231986228062268
   827   2      14.346043613984271      18.225936829386669      2.0346172725318494
   828   3      14.123949689847782      18.252160998689163  -0.0040830178097744623
   829   3      12.081924979893817      18.352536376438557      2.0412200262421871
   830   3      14.096658501501604      16.303757407972874      2.0871314766093012
   831   4      12.284130789027328      15.866426205226754      3.7899962064212498
   832   1      14.121390202506259      18.269723772481282      5.9959352671697959
   833   3       14.09458404597251      18.447523407658011      3.9694654171831179
   834   3      12.041944072669652      18.229726963699132      6.3084237613047831
   835   3      14.260953755142028      16.243087656919482      6.1104172293257335
   836   4      12.259367769659139      16.203439700210119      7.6673923478629771
   837   2      14.184775279291598      18.281411211659027      10.002598311646286
   838   3      14.217555125651375      18.165327499802359      8.1354688968246034
   839   3      12.227810581239442       18.09158276607819      10.214230298163207
   840   3      14.371175057977981      16.194544627843406      10.231126965612139
   841   4      12.304789251683223      20.272419112243941    -0.30386918267094087
   842   2      14.213522020012583      22.341699285969408      1.9018385337612709
   843   3      14.132194189877234      22.344872523274656      0.0383001932810089
   844   3      12.151118040702652      22.346774813257884      2.2163149513961438
   845   3      13.985223277815134      20.316347367652845      1.9660269833988446
   846   4      12.291995824599562      20.142171783009136      3.7752560057924258
   847   2      14.067187179259687      22.292211661018065      6.0552274277928495
   848   3      14.149038770988158      22.078927503762802      4.1089426461323457
   849   3      12.140086782410604      22.403787025491766       6.275560093485022
   850   3      14.011459211932047      20.289639913084219       6.367428475625692
   851   4      12.137260546180045      20.084902312910536      7.8864009429170858
   852   1      14.167473716220966      22.218954263515982      10.135173036361385
   853   3      14.396263661315906       22.38903461802488      8.0892800451760518
   854   3      12.160908470304548      22.412448563906118      10.108292716242548
   855   3      14.261443142348423      20.187652571925156      10.147191496957619
   856   4      16.488275866328188      11.766463814147656   -0.046263357525590194
   857   2      18.110597685563551       14.13814718529752      2.1021873808946583
   858   3      18.280702848948692      14.397933422578863  -0.0017359518828057073
   859   3      16.220243551504637      14.239865553163485       1.964035166956337
   860   3      18.319033531995998      12.231517883779569      1.8725679460722029
   861   4       15.91056895098424      12.490568008514639      4.3203920706508381
   862   1      18.250117243799099      14.162416186757154      6.0363362589072844
   863   3       18.31800889168748      14.194304771402985      3.9962442600241053
   864   3      16.217741407729509      14.247284390440766      6.0217438575826501
   865   3      18.259119184596635       12.11923664682968      6.1479379577591491
   866   4      15.902454760416965      12.316733194847313      7.9151113897354684
   867   2      18.219776576733516      14.151848152411688      10.002176526130617
   868   3      18.299473126870737      14.337566939711941      8.1283819066786585
   869   3      16.303818108368137      14.200890631204301      10.230224382964391
   870   3      18.380811651346413       12.22794121484184      10.145368197725029
   871   4      15.956211143772098       15.77076218526501    -0.02009107796547643
   872   1      18.175910109025917      18.205479673964959      1.9642262735241975
   873   3      18.450457922072619      18.174856368818354    -0.09782800147762867
   874   3      16.184004876221337      18.353182643893533      1.9724776211268544
   875   3      18.437352667256103      16.176504169948824      2.0460164910700618
   876   4      15.815721160409995      15.940940904332711      4.3061288747070927
   877   2      18.072089640899641       18.25513470164881      6.0657614878010921
   878   3      18.439488627648696      18.318367456175544      4.0924985257007469
   879   3       16.20705239468624      18.405423974660756      6.0751731304354442
   880   3      18.352063098273469      16.293876518245309      6.0171866727635122
   881   4      15.943790108839659      15.998300786670017      7.7421588793201241
   882   1      18.212549888443476      18.215465184407442      10.064313159830244
   883   3      18.401931149929041      18.220569788375336      8.0385129651364551
   884   3      16.186638755281809      18.240193836945533      10.367082177849685
   885   3      18.255703344476721      16.175359839061585      10.372036496224119
   886   4      16.118599659915343      20.357083932626249    -0.33712343720394816
   887   2      18.310115813917676      22.215510238605674      2.0081014703495472
   888   3      18.185910877549215      22.419363686048232    0.058299304795558012
   889   3      16.149436082949428      22.167552977022517      2.1434124094479809
   890   3      18.372854390595823      20.287107588823904      1.9049302688390259
   891   4      16.213522743549579      20.502702777147526      4.0726520996534914
   892   1      18.184337222434213      22.258932403456836      6.0292244712758274
   893   3       18.22405566734469       22.05674822415196      3.9924312080386906
   894   3      16.146405172608702      21.946769474652463      6.0142572523007098
   895   3      18.497672084886318      20.213950710570035      6.1256479147328422
   896   4      15.948940578680203      20.421403270561516       7.842199991062377
   897   2      18.246382762772836      22.264653987831405      9.9582582163933306
   898   3      18.245676268630433      22.360521282884637       8.082554966167617
   899   3      16.300223665256315      22.207717895063514       10.32367064867749
   900   3      18.370363177935054      20.315809385037333      10.188979779531389
   901   4      19.998958971287898      11.837929603864202    0.055931212025837486
   902   2      22.215066391517837      14.096786599817253      1.9814927324762401
   903   3      22.406297827071302      14.370637226346279    0.061275959176765156
   904   3      20.330501705115012       14.21998751633126        1.98254656603824
   905   3      22.414781315505323      12.225544458968846      1.9492923511076352
   906   4      20.138513809085911      11.789195754326071       4.140395103127517
   907   2      22.222158486192885      14.109400019228792      5.9535156338270658
   908   3      22.329016231678903      14.202653057804987      4.0521671306471507
   909   3      20.342043622030538      14.298616744854547      6.1611866225813241
   910   3      22.319718011708272      12.247124412484185      6.1803747250398775
   911   4      20.106618481942835      11.854440457703442      7.8295895886673321
   912   2      22.267225999930115      14.063545998042461      10.010414615589564
   913   3      22.332966256933322      14.368156283765172      8.1285599045315138
   914   3      20.298739252980646      14.356684667735186      10.213656954194461
   915   3      22.210582227207823      12.188636706697377      10.139594354668022
   916   4      19.903685806117178      16.150016875114318    0.082725052557940562
   917   2      22.232877141586009      18.207506009230642      1.8886411450057823
   918   3       22.38804827084758      18.224831871770157   -0.014529537081777157
   919   3      20.337948508040306      18.275820568727728      2.0639098304102843
   920   3      22.384321656733217      16.252603640810396      2.1840937616845837
   921   4      19.859992456199773      16.263278095986866      3.9316314140116706
   922   2      22.334297995692275      18.133407866197409      5.9564814349112183
   923   3      22.292130115597637      18.407517163444137      4.0785809210498511
   924   3      20.379816132580135      18.245384555630817      6.1978195215087641
   925   3      22.403302713651946      16.249874463410745      6.0765673502420476
   926   4       19.98657833393921       16.17031767795638      7.8340302917816782
   927   2      22.249007576274838      18.267223673133628      10.014928894590392
   928   3      22.383885369178795      18.214255375314153      8.1308331324936773
   929   3        20.3044922915117      18.206382009055169      10.267007054974883
   930   3      22.303214083455742      16.275311141552294      10.360866173491965
   931   4      19.981564093634791      20.098011590408525    -0.11960138041189811
   932   1      22.270312582889225      22.241304001048896      2.0679448813223678
   933   3      22.387026898841661      22.404072532394125    0.027746333425164527
   934   3      20.221012320978048      22.425333069204399      2.0098071570895799
   935   3      22.476386516855079       20.20112744642984      1.9987720129353392
   936   4      19.966067325803852      20.122840053104969       3.948095148582643
   937   2      22.209323659517512      22.208905963897191      6.0260202745140381
   938   3      22.466936435251803      22.241540578718059       4.111567401616802
   939   3      20.301240171867239      22.514553721665958      6.0460327775579525
   940   3      22.233406957427011      20.294083948361699       6.289175014213769
   941   4      20.047469928764709      20.025754208597093      7.9118051716298163
   942   1      22.310822565588186      22.224073045970858      10.082213787336194
   943   3      22.249824509934825      22.593119512029258      8.0474511266313016
   944   3      20.239447922002263      22.512107409668943      10.138579348765129
   945   3      22.217214799642253      20.205382101497609      10.177218903892584
   946   4      11.979102290754069      11.976874157252658      11.927183504447203
   947   1      14.184011352442848      14.215125869935434      14.100227902020908
   948   3      14.326138486698726      14.112622258066148      12.098489492260949
   949   3       12.14374132228714      14.192922409812388      14.409718851882088
   950   3      14.365883860157023      12.136634788423958      14.194233361011927
   951   4       12.24392888457861      12.537233836211103       16.10801739458163
   952   1      14.143118080003317      14.179666676955685      18.199608214471645
   953   3      14.295844027886291      14.116546947457291      16.192366928750396
   954   3      12.129250333035603      14.035473584064233      18.305266424184538
   955   3       14.28000878029196      12.103601232603898      18.265201784836258
   956   4      12.314102831279556      12.127836927941896      19.786520230087309
   957   1      14.207352553084579      14.115308496603573      22.270824727776578
   958   3      14.240312147106875      14.182487721925147      20.265368324097352
   959   3      12.116509700024478      14.308827287847189      22.265226080009295
   960   3      14.142517100773663      12.082381300725162      22.468259305198607
   961   4      11.973211816043111      16.352307506637825      12.016864661776642
   962   2      14.176682864788305      18.184772109943768        14.1010088575295
   963   3      14.185829508806313      18.220444358002087      12.226019265581865
   964   3       12.26520242232861      18.228943410270727      14.391204616321939
   965   3      14.218447638130879      16.285291638608083      14.388801901924365
   966   4       12.12422994395504      16.092771566613301        15.9467822464335
   967   2       14.09265427606295      18.196413146118157      18.185807646902585
   968   3      14.349850770269134       18.31526421661977      16.283074028049423
   969   3      12.212549122420949      18.380689172559737      18.258481799444446
   970   3      14.234658013749467      16.267724796872585      18.325388077018975
   971   4      12.268651574674056      15.704876653469626      20.216425604350754
   972   2      14.083712463240069      18.136839922572442      22.253161013206736
   973   3      14.216746778980205      18.373349941218617      20.304127342068483
   974   3       12.15090492967059      18.350772974946391      22.327197575650104
   975   3      14.219031157167461      16.260717435467978      22.242185403825008
   976   4      11.750987901238219      20.421144743864375      12.044995680015752
   977   2      14.086901969775228      22.273881027093534      14.100297469133849
   978   3      14.274822164698957      22.247842126936682      12.213112497293679
   979   3      12.204538167598548      22.265381753824844      14.273417644403105
   980   3      14.324883256683057      20.256067049876229       14.33143315769485
   981   4      11.870497115079548      20.128259019963238       16.06571626853518
   982   1      14.115989856527621      22.254548037230435      18.177964309705967
   983   3      14.415035113561911      22.279492069547768       16.17999134286465
   984   3       12.08335675043431       22.31485973215203      18.406011670106764
   985   3      14.348615410064941      20.229606984051351      18.278662781630644
   986   4      11.999435456729616      20.193426697766149      19.906836515902075
   987   1      14.139116652238846      22.269658581761195      22.250258651373812
   988   3      14.259435618957493      22.343634393637455      20.241798103829826
   989   3      12.091377730875459      22.327971375093224      22.341999406612647
   990   3      14.237436290140447      20.235700409594724      22.439228148335474
   991   4      15.950213353968508      12.225664071985792      12.000182651418156
   992   2      18.150692583784465      14.074833481330602      14.162905508727768
   993   3      18.357654185007284      14.146072123649278      12.211370546518078
   994   3      16.275639260377538      14.277115657438868      14.213504047283948
   995   3      18.345279074053199      12.177637028652901      14.291281935111988
   996   4      15.801143981146208      12.314778962097598      16.372108957651648
   997   1      18.213533445388382      14.146867221371814      18.186088852941737
   998   3      18.305653743592529      14.333292539936775      16.149054028984242
   999   3      16.222478694856534      14.184649980147066      18.319449467731168
  1000   3      18.319928427738201      12.071724371945436      18.227671336840288
  1001   4      15.899016911906591       12.38797218424115      19.916871435010652
  1002   2      18.209347114571024      14.052355501951389      22.217438959330419
  1003   3      18.314415850951413      14.120340255609898      20.321530595712893
  1004   3       16.29396946654056       14.30224946498209      22.348617268756438
  1005   3      18.233272534430032      12.171351192674118      22.466678541040224
  1006   4      16.282779738560318      16.253313576651635      11.801790076524503
  1007   2      18.199285245151621      18.136912634342394      14.145884942650765
  1008   3      18.322630841638428      18.405531382189753      12.270297033171959
  1009   3      16.272477783624897      18.274058981739426      14.243217126511119
  1010   3      18.340311605332943      16.260043284130621      14.158722510524585
  1011   4      15.985003467713899      15.801714008902302      16.192476549404155
  1012   2      18.159881373348746      18.153842414609692      18.200866129685366
  1013   3      18.298246377590761      18.290635302469621      16.275697101970994
  1014   3      16.256201781072463      18.261141943254415      18.377504153793208
  1015   3      18.333158496043907      16.283230831700859      18.381126117399472
  1016   4      16.013290865527139       15.81765476351678      20.034777657761332
  1017   2      18.109809451139544       18.12134789115116      22.234538109712499
  1018   3      18.349958306384107      18.464653484759616      20.308069333029476
  1019   3      16.215887177072272      18.308822471776818      22.350465137681706
  1020   3      18.356916534616907      16.248010084344475      22.209897760038803
  1021   4      16.197136006082328      20.200783079420344      11.791451905687072
  1022   2      18.234279367424477      22.167058722828539      14.127880368743231
  1023   3       18.36938150987741      22.222248310569778      12.234415476129039
  1024   3      16.315984051088105      22.409221763851683       14.21874109687397
  1025   3      18.274061462954684      20.307974000518708      14.377541194822093
  1026   4      15.866270396352915      20.302541222661432      16.232476945729694
  1027   2      18.108644580822588       22.30897928953954      18.165592557226173
  1028   3      18.272939348108675      22.498315700533048      16.235517448181071
  1029   3      16.243731427002441      22.382107066997921      18.303391243288356
  1030   3      18.293123253172855      20.350515911851737      18.240062947448592
  1031   4      15.772374122085735      20.426509512502502      20.167291896509845
  1032   2      18.265629672139884      22.338795390764801      22.187554895161117
  1033   3      18.324037388221385      22.215244761116647      20.272576482129942
  1034   3      16.260981088364279      22.248162806328281      22.380256630617662
  1035   3      18.222647158262298      20.279670687205638      22.525241270180846
  1036   4      19.936818729402841      11.852905911376752      11.977412057318823
  1037   2       22.20367365181442       13.99625027855736      14.122361763056615
  1038   3      22.319055021801734      14.231844658725391      12.186911171872682
  1039   3        20.2911730757877      14.272957923359902      14.255614613635254
  1040   3      22.219862970908952      12.141847641637401       14.29078474691876
  1041   4      20.028855293160991      11.882608569257783       16.01195038378556
  1042   1      22.244612609767699      14.069047155148713      18.166875992588285
  1043   3      22.277628406025418      14.360385270959274      16.135794242641122
  1044   3      20.247333610318218      14.211966482834908      18.306900404385289
  1045   3      22.286912618610973      12.056098044434449      18.365070886783979
  1046   4      20.159317363208359      12.244843320437912      19.821291239449366
  1047   2      22.257314830360016      14.046102695322633      22.246265253641297
  1048   3      22.261701802296368      14.193489985303868      20.341594995610723
  1049   3      20.300514280320627      14.177808545380943       22.39808419717156
  1050   3      22.421862068447961      12.131192046171515       22.44112644933627
  1051   4      20.155170810244702      16.150823910458264      11.857850838423342
  1052   2      22.260361778664326      18.083082103632503      14.180870718773921
  1053   3      22.255516854384485       18.42971714097758      12.243752239613963
  1054   3      20.274919796125474      18.418132839029237      14.301320608684517
  1055   3      22.311342774092335      16.225369395711404      14.153228087487911
  1056   4      20.227385423183968      15.748845118086521      16.335493924917113
  1057   1      22.270850674737385      18.231942053447462      18.214527984565272
  1058   3       22.31802634164605      18.341662856683357      16.171413923654288
  1059   3       20.21782988402208      18.449714586790023      18.293358552079575
  1060   3      22.330985588229883      16.207557914672073      18.326007228392204
  1061   4      20.372819327950204      15.956561626347154      19.850255993989677
  1062   2      22.200844291618626      18.197467657331838       22.14963892215356
  1063   3      22.325154994230399      18.404298339609078      20.268147449164381
  1064   3      20.301129009544123      18.412509395949616      22.272600549673459
  1065   3      22.299459112275027      16.258755670241609      22.290472403588339
  1066   4      20.230831909836262      20.070995976398621      11.846492422049163
  1067   2      22.221053493680714      22.270479812241884      14.139367801794029
  1068   3      22.330806001051979      22.354159769010462      12.254173343244027
  1069   3      20.292625180102604      22.412577560691478      14.333677044316294
  1070   3      22.310859451841143      20.386912922784358      14.375931414456886
  1071   4      20.313701590227641      19.899083498608299      16.270054169010368
  1072   2      22.181914242621588      22.276903325544502      18.230381134999387
  1073   3      22.398351569046703      22.528607279171386      16.286411732639124
  1074   3      20.294167255205281      22.293130285438789       18.25856390929896
  1075   3      22.436829591834289      20.355522660454007      18.186374573093563
  1076   4       20.13202010979839      20.081645747288317      20.044324109289242
  1077   1       22.23917254775564      22.275523589643154      22.204398058830872
  1078   3      22.468194970192428      22.223547078934853      20.198561668947232
  1079   3      20.208194705049312      22.263308125439856      22.492373834461574
  1080   3      22.484047217875155      20.210753093935413      22.356526936419414
