(written by ASE)

1080 atoms
4 atom types

0.0      24.299999999999997  xlo xhi
0.0      24.299999999999997  ylo yhi
0.0      24.299999999999997  zlo zhi

Atoms # atomic

     1   4  -0.0056936696504423512    -0.37371625506499145   -0.051154520555564555
     2   2      2.0146598927094983      2.0334725328000358      1.8961575883710566
     3   3      2.0702105391252621      2.1607235818189605   0.0037965432885969531
     4   3    0.053872189161413016      2.2885048212964878       2.056227297357113
     5   3      1.9963730598340654     0.14600295876081426      2.1375428968100665
     6   4    -0.18749863521083518    -0.23868761982689429      3.8597205444866201
     7   2      1.9719610439041602      1.9455953869357394       6.016954244318935
     8   3      2.0078899770805041      2.2897094908536921      4.0971855027953623
     9   3    0.070539939148635877       2.227620601276898      6.1572808678598934
    10   3      2.0663853911862886    0.057443044097770346       6.026386946643381
    11   4    -0.01523762722102015   -0.076426840152690023      8.6934383200465035
    12   1      2.0407145499694157      2.0581058285799756      10.089830478848519
    13   3      2.2031851499714894      2.0984233027414354      8.0231011409032043
    14   3    0.013111332578289952      2.1387718499340234      9.9635350537099949
    15   3      2.1502820163002836   0.0025078771357084271      10.027917379432074
    16   4   -0.041323353410651201       4.088869702795785    -0.25983449469471487
    17   2      1.9465308870266871      6.1493365187600428      1.9163493114078909
    18   3      2.0445610156132656      6.1660960320487375    0.042283914513758972
    19   3    0.053341234314387899       6.042197398520055      2.1196684867510553
    20   3      2.1661233396608068      4.1608093478759338      2.1151270805819995
    21   4    -0.11292091954872406      3.8996465067709214      3.9293082168848095
    22   2      1.9386378014271013      6.0837384825140832      5.9947990046777981
    23   3      2.0806410935990254      6.0099041665821735      4.1098382991086462
    24   3    0.049773155414455386      5.9795936377144487      6.2180613456568485
    25   3      2.2475451634569357       4.117615770470576       6.240693131986764
    26   4   -0.041825371289046939      3.6717720863958996      8.1998977811167197
    27   2      2.0554582375558823      6.0005242228551241       10.00566826038718
    28   3      2.1238741363573306      6.2088564845340342      8.1304845558387644
    29   3  -0.0072783662945585872       6.145896649910024      10.180013766243043
    30   3      2.0398103336657587      4.1196598730880067      10.030345376452685
    31   4   -0.074390897028130551      8.1798648193520567    -0.31855965666762648
    32   2       1.950011901312998      10.137911383296661      2.0031177780250733
    33   3      2.2393404689264003      10.046768454539043     0.06594194476795899
    34   3    0.063223223635843345      10.255320212083769      1.9880118229672974
    35   3      2.0166698846623579      8.1054714697075791       2.194974467567671
    36   4    -0.24200158557471071      8.1977937276525186      4.1938043501432976
    37   1       2.029772491737158      10.120707896028129       6.110902463695572
    38   3      2.0792901292604626      10.200595702873606      4.0290701060597272
    39   3  -0.0040617717235021354      10.256045846504595      6.2358553845292546
    40   3      1.9238998339759603      8.0450929647243932      6.0631761093209509
    41   4   -0.061549976843472208       8.241627692222572      7.7693222633985153
    42   2      1.9763315955896819      10.098158529127526      10.128231808909748
    43   3      2.1201401642109556      10.088646438439607      8.1699843426582213
    44   3    0.013074227459340748      10.304833291712184      10.038555920803166
    45   3      1.8955089451997744      8.1335606343071163      10.365649260627611
    46   4      4.0057200379210549    -0.29753979834104211   -0.054592589146452861
    47   1      6.0015101592072764      2.0911976800587149      2.0189754900699155
    48   3      6.0860517063443922      2.1210872228088542  -0.0029457231926979712
    49   3      3.9697575834500345      2.1129257615030319      2.2197875131060396
    50   3      6.1426447262780801    0.066845645617640503      2.1549018150040071
    51   4      4.1699057161277659   -0.066788757048226982      3.6475338328600757
    52   2      6.0939365979990132      2.0368422933738528      5.9938745990824627
    53   3      6.1602039437842278      2.2035123325512651      4.1077839306467707
    54   3        4.09539991184218      2.1003449048081335      6.0975933021628128
    55   3      6.2490994436982321    0.055388307949475496      6.0023840187605613
    56   4       3.685908080227609   0.0043481481504575488      8.1974113438422229
    57   2      5.9989027121837335      2.1314343950521812      10.129631241205013
    58   3      6.0890381055224951      1.8263940249787527      8.1556381002704459
    59   3      4.1099698792282933       1.926268648851629      10.178212868299509
    60   3       6.164843126537229    -0.04541239082561447      10.336162465717036
    61   4      4.3493472917611706      3.8315231704744757    -0.30125248499633839
    62   2      5.9352466940938706      6.1109880625710957      1.9622268169753601
    63   3       6.079595015974351      6.1733517673420923    0.081621162668778433
    64   3      4.0619080533531235      6.1880953050050129      2.1917755538671324
    65   3      6.0675934552097139       4.156120878071091      2.1156940192225626
    66   4      3.9122080022580636      3.9511864521037445      3.8076451747940796
    67   2      5.9820982584545694      6.1526586270915562      6.0974867100355707
    68   3      6.2694140374751051       5.990017825101809      4.1237338821144931
    69   3      4.0963016124012741        6.18560414119358      6.1324462363288132
    70   3      6.0761283041426069      4.0630265835738717      6.3024673272875411
    71   4      3.8639833557646956      3.8764752182048849      7.9590690846334304
    72   1      6.0376638060729766      6.0526983802402903      10.085658632963424
    73   3      6.2968912111300046      6.1413511868404802      8.0605905607041706
    74   3      3.9586788687589025      6.1782324154515704      10.341068640655489
    75   3      6.1088941639271743      4.0079562567922462      9.9954580717495993
    76   4      4.1657988188025179      8.2792409746532876    -0.35245314226074953
    77   2      6.0111244854927994      10.196657578627725      2.0643206347431811
    78   3      6.0198469146161955       9.884538594328145    0.094863421372225087
    79   3      4.1057537408508376       9.929206236997242      2.1813080669013822
    80   3      6.3208287427658441       8.064578557481914      2.1718571862993383
    81   4      3.8465902836990176      8.4550330981768749      4.2478419295623411
    82   1      6.0905365021716484      10.158947098423138      6.0527652671080467
    83   3      6.3127487978359049      10.083950951155284      4.0178335593242149
    84   3      4.0798104219685776      9.9103768940561849      6.0529424757192958
    85   3       6.344551147472532      8.0340064678478633      6.0068516239443612
    86   4      4.1214107554444688      8.6051302510813024      7.9516298884002294
    87   1      6.0057169809400506      10.151666389452041      10.126609832007928
    88   3      6.1796861779116625      9.9647540485710966      8.1022776220163966
    89   3      3.9914821398359188      9.9538882910518307       10.24964582527722
    90   3      6.1643976197241237      8.0788122817351358      10.295839413656747
    91   4      7.5259968552863468    0.087406772337365574    0.063314875200265033
    92   2       9.977458351087213       2.026440893902548      2.0239961853593704
    93   3      10.202897681862053      2.1787609893612405    0.019132163254898721
    94   3      8.1115861865440877      2.1599250064139737      2.0516668511494882
    95   3      10.220734208445597    0.091705747164080573      1.8973376204692545
    96   4      7.7785614136860834    -0.11527883316540415      3.7909316382559197
    97   1      10.094542032752074      2.0263235255208807      6.0591080877070933
    98   3      10.297598944701226      2.0022637835319599      3.9540964269967045
    99   3      8.0504592387265888      2.1147394049272257      6.2906080242290789
   100   3      10.128049927750624   -0.035075076817228698      6.0066798358897318
   101   4      7.9910482550096367     0.26236377247846077      7.8964137735104281
   102   2      10.120451421891772      2.0977890641788659      9.9595686601201621
   103   3      10.201954583562641      2.0362500479070049      8.1152158076980534
   104   3      8.1567218853008416      1.8232546776747665      10.087616624273487
   105   3      10.208550293649774   -0.036337969621785773      10.051501876730084
   106   4      7.7569793522921939       3.838381307161661    -0.23051075459395959
   107   2      10.029256882935192      6.1215436742879028      1.8764247300316825
   108   3      10.250543766635086      6.0168330685988272  -0.0069937184027980678
   109   3      8.1462291082655387      5.9292044099091123      2.1187281118990939
   110   3      10.311002414104919      4.0563993058986192      2.1323033779498823
   111   4      7.8514690020988596      4.0924091030889445      3.8487735658483664
   112   2       10.12121305104179      5.9355674532134328      5.9503402703464223
   113   3      10.218077047186796      6.0618169770950896      4.0615145481273087
   114   3      8.1860879335156902       5.854455143570152      6.1156752691619474
   115   3      10.325844774110974      4.0492826893500231      5.9737499472402904
   116   4      7.9171685887120127      4.2493450030208351       7.987304919755811
   117   2      10.103372849682444      6.2212632824113925      10.056882213959845
   118   3      10.150894967088172      5.8963505067591262      8.1425331396024614
   119   3      8.1900856031501554      5.9752030655304251      10.223034872937918
   120   3      10.178364921705825      3.9654447316845296      10.286352723588546
   121   4      7.7427253116336363       8.224883379845366    -0.20999142061123394
   122   1      10.091925775799004      10.048936724923898      2.0683030973906544
   123   3      10.225934780162287      10.028625149094127   -0.037633227374488952
   124   3      8.0628635167887737      10.271965900455731      1.9875820509260895
   125   3       10.10370316073586      7.9929902864211808         2.0585190685898
   126   4      7.8773226851401743      8.1696213809702325      4.0213901582867981
   127   2      10.124540064787883      9.9068453795401048      6.1435371084136703
   128   3      10.073839020959483       10.08754557016568      4.1501572268795712
   129   3      8.1928804108283195      10.288726531845434      6.1137298726232752
   130   3      10.090241482791647      8.0213028696126933      6.2546512793335474
   131   4      7.6759822418382715      8.1885648521506837      8.3026239167017017
   132   1      10.151303612505059      10.111445833359497       10.12372827654649
   133   3      10.183488830944592      10.323297924308475      8.0836589069097133
   134   3       8.126693912666914      10.217313782387027      10.183010931354477
   135   3      10.219901412461091      8.0822278581722813      10.181259837120512
   136   4    -0.67390034376197472   -0.035770627597075139      12.144206625805502
   137   2      2.0386778782391928      1.9305394065693859      14.006542384928004
   138   3      1.9249062685012563      2.0711287734255532      12.144302720343767
   139   3    0.058931104569361646      2.0896450579236254      14.340644484631541
   140   3      1.9869876400233861    0.014033186196319457      14.233835210348229
   141   4    -0.16714401368423243    -0.15344100542846068      15.846368076937928
   142   2      2.0540662162853618      1.9698855938991271        18.1185649303753
   143   3      1.9969796301357983      2.1396569719040652      16.234533297738757
   144   3   -0.037278946303520626      2.1810850420716656       18.30093189287123
   145   3      2.0142917285071333     0.10391083956503562      18.317468920197026
   146   4     0.11536566762778992    -0.35285783703727147      20.261731825823581
   147   2      2.0253325445240935       1.996183565731483      22.185447267517297
   148   3      1.8665728051527373      2.2350552049616867      20.278741464310603
   149   3 -0.00085365675099787288      2.2497272931564005      22.430544645217577
   150   3      1.9876535718707211     0.13895777068444762      22.271815719364067
   151   4    -0.10487160234340298      3.5901822177969165      11.885579524577727
   152   2      2.0742089288018311      5.9773975319635761      14.069360095825697
   153   3      1.8151501756398043      6.0665295029062021      12.194451035297975
   154   3   -0.048067171783666734      6.2091716033837461      14.344555144736601
   155   3      1.9183929382623603      4.0738912848878988      14.280524704397457
   156   4   0.0085047862691451752      3.7969108224780377      15.951949981321164
   157   2      2.1496879011092802      6.0576693790244773      18.119116242737476
   158   3       1.908010483110357      6.2040595765447835      16.208703955505367
   159   3    -0.11739520209059183      6.3112378980532684      18.213371090300086
   160   3      1.8078228986229297      4.1496365150649268      18.283489712410677
   161   4    0.051962112119899748      3.9253789566285833      20.037069989907099
   162   2      2.1311486306990615       6.098615557679226      22.151528082970355
   163   3      1.8132710082159982      6.1384405372596937      20.254753380287859
   164   3   -0.028000617338364897      6.1545402456833136      22.470508143811298
   165   3       1.919549351098504      4.1786038828916716      22.384051693546795
   166   4   -0.029788143995142007      7.9021601768651877      11.979245533791701
   167   2      1.9688069039821565      9.9981383495687179      14.206368716405301
   168   3      1.9773278178188318        10.3428930485967       12.17270052100646
   169   3    0.016816280356119644      10.305840971931493      14.120097620862303
   170   3       1.903317569460887      8.1139500900847512      14.113532301397447
   171   4    0.083890702048121657      7.9531560795695491      16.266780641175593
   172   1      2.0212685021877483      10.073798441254338       18.20028831309201
   173   3      1.9438614536200161      10.124184656498453      16.111723428350345
   174   3   -0.080872178756942997      10.066149930172893       18.07323853573391
   175   3      1.8993927027167969      8.0421554561040267      18.295365051866174
   176   4     0.21129414072788727      8.1110711695183504      19.982885583886166
   177   2      2.0360634466436194      10.207451146055329      22.172922530720463
   178   3      1.8803592034289374      10.104818434844043      20.289649063710595
   179   3    0.074570460945859299      10.170232007090517      22.576060912513064
   180   3      1.8871940293368747      8.1091323837936535      22.362408640564528
   181   4       3.737933391751862   -0.010415164652716068      11.757866479486415
   182   1       6.065080929366836      2.0168024057458105      14.120630511950315
   183   3      6.2617671025972905      2.0854346417527285      12.089313156073695
   184   3      3.9577075002090005      2.0228353308917035      14.177253677337745
   185   3       6.119253768769557   -0.042437705311841566       14.21266533703818
   186   4      4.3503766071409107      0.1617500949086654      15.977064889442021
   187   1      6.0417126726395081      2.0001925032646501      18.183033067706628
   188   3      5.8507519539819164      1.9577276781714343       16.19429682952547
   189   3      3.9216297619550904      2.1892981102133939      18.387043205984636
   190   3      5.9797235621805394   -0.032619452224591408      18.468517406284022
   191   4      3.9475131617755683     -0.2918750898226109      20.194277835329295
   192   1      6.0259828710601031      1.9806085206204835      22.249956154812285
   193   3      6.1418870627144111      2.2435449399350311      20.231164407376795
   194   3       3.950301236046863      2.2335479546221579      22.232792839752285
   195   3      6.2633978442784839  -0.0076122592433811699      22.204048817552266
   196   4      4.4728398103308571      4.2550729012017117      12.342951732819127
   197   1        6.03116860447067      6.1627596772714623      14.188941072875558
   198   3      6.0988593528193702      5.8852346171418466      12.159063680985636
   199   3       3.943907870941092      6.0868815985923153      14.086158506032927
   200   3      5.9951994088656937      4.0664146066656714      14.314269784454266
   201   4       4.444541831696073      3.8338592970937571      16.086525258277781
   202   2      6.2600273709137015      6.0431517019818823      18.250877228811859
   203   3      5.9962276691540968      6.3302678589888446      16.236929394787381
   204   3       3.998212473789843      6.1057713732411099      18.252923067165543
   205   3      5.9766928405818316      4.1210456578012753      18.071228721456844
   206   4      4.3640983403433511      3.8023997469074504      20.186442526553961
   207   1       6.038669239102556      6.0962004018095772      22.237362065247979
   208   3      6.1628096616163397      5.9470921897438869      20.192059458216914
   209   3      3.9858885945190035      6.1528748269892386      22.278371872232999
   210   3       6.089550769279084      4.0856026170469208      22.359317832832655
   211   4      4.2572907583711785      8.0382461076273835      11.773889614585828
   212   2      5.9322693951745133      10.105494420556424      14.187032099955232
   213   3      6.2706587467440658      10.214154858705026      12.209746265087491
   214   3      4.0175177512352471      10.157997116139809      14.071759291031022
   215   3      6.1824663577509726      8.1986077993954929      14.066455377695327
   216   4      4.3647003057974985      8.1868147871885064      16.495549927999743
   217   1      6.1230444365306624      10.107703078649376      18.196834780895895
   218   3      6.0431401807144329      10.066978720507363      16.129153080309916
   219   3      4.0391273978883389      10.097633440453448      18.189538403410353
   220   3      5.9006568367496692      8.0610541846017352      18.331871162050785
   221   4      4.2756270586466316      8.5758107716552701      20.062812002038171
   222   1      6.0399802373177245       10.20661210896848      22.321471568200806
   223   3      6.1907667010348613      10.084007263977872      20.245944870016675
   224   3      3.9889883179452474      9.9562522158719045      22.263154206200927
   225   3      6.1820209213241499      8.1001048149117771      22.285846349712291
   226   4      7.8686178410425507     0.27277678452888843      12.017141939521842
   227   2      10.133755791321233      2.0195556191932238      14.039278612024219
   228   3      10.078723593760557      1.8174308943346269      12.149315542013174
   229   3      8.1645584310432522      2.0501774686491401      14.373174403898728
   230   3      10.028136471189903    0.033989687693046965       14.41228510531546
   231   4      8.0353732040843155    0.019045628773051174      15.835481130521167
   232   2      9.9562011214238311       2.049509194808111      18.147280084472715
   233   3      10.320128603814469      2.0130659206809201      16.255222019190196
   234   3       8.113644966739054       2.011422624437452      18.216490608159319
   235   3      10.266038684486425    0.087148223147083481      18.341998882032005
   236   4      7.6167908359807974     0.13863601790861599      20.194733649670134
   237   2      10.138799840539605      1.9218820366242106      22.196489786372531
   238   3      10.181495488011947      2.1102835967722005      20.274784141535498
   239   3      8.1994269930107073      2.2445830506351392      22.290952094586753
   240   3      10.098958670530685    0.035442045000569175      22.386767910996067
   241   4      7.9753774862983962      4.5470284570787713      12.240372597409767
   242   1      10.129283259738067      6.0584618144520723      14.159483070797643
   243   3      10.272279934429593      6.0008726384828321      12.127799325878122
   244   3      8.1137260067567141       5.955941236128373      14.315445979200691
   245   3      10.268800157215258      3.9628764930315539      14.270436618830189
   246   4      7.8906004172765014      4.0462010433946567      15.774052071534028
   247   1      10.093772963867639      6.0582345038653864       18.23673282655826
   248   3      10.367723710020403      6.1210961772438592      16.214428034337288
   249   3       8.116132751836501      6.1816419836139174      18.057628293575522
   250   3      10.316308686688904      3.9886644043117556      18.242810207428214
   251   4      7.7404858213574332      3.9034883038858501      20.451607845395969
   252   2      10.017748717886191      6.0521255144132491      22.178041680480781
   253   3        10.2784352413571      6.0015433480533549      20.288898585357177
   254   3      8.1590752856165008      6.0426117545962974      22.325339634851336
   255   3      10.305857703196386      4.0948076053851894      22.315742563859089
   256   4      7.7893804101142594      8.2436917237122493      11.901770501599815
   257   2      10.023173891190126      10.204352913720786      14.238645411015758
   258   3      10.228318166306556      10.137661474040668      12.224429206283791
   259   3      8.1453849452276703      10.193146975449908      14.255309921110049
   260   3      10.308431096327704      8.1605407130744165      14.195915119173794
   261   4       8.098955958703753      7.6615401167892125      15.948327170918642
   262   2      10.054782276796171      10.062650243509035      18.306095523999961
   263   3      10.411681691800986      10.084426151641798      16.182271880913913
   264   3      8.1851570381939815      10.090300197721628      18.011201563681322
   265   3      10.396131036578938      8.1563037998699794      18.260234127510312
   266   4      7.6863578514043152       8.290215030771364      20.476398823141587
   267   2      10.117455978754414      10.025021866492208      22.370374222350332
   268   3      10.047839641745334      10.227134708031354      20.218633175883522
   269   3      8.1614310336832308      10.010900281624874      22.308553088809607
   270   3      10.159100984499768      8.0635949103339364      22.181437189636721
   271   4    -0.21788543623330758      11.964347153394723    -0.13987367564171663
   272   1      1.9861120571307593       14.09929889227142      2.0340596349720443
   273   3      2.2793229184425883      14.163125429940159   -0.065470099971510223
   274   3   -0.044486797613061936       14.34060536929676      2.0425939739768242
   275   3      2.3044245459824357      12.074620872653618      1.9728404886449062
   276   4   -0.042435630868946299      11.848471739203296      4.4215157574729291
   277   1      1.9408150955668075       14.18891408175338      6.1223884342793031
   278   3      2.0925001069632794      14.219455134155201      4.0684708856419167
   279   3   -0.067117774840583705      14.241042858045791      5.9614708403124101
   280   3      2.1461334416861049      12.164637897702205       6.122791809917616
   281   4   -0.097460118572030588      11.842651384088423      7.9746731230733801
   282   1      1.9181654112213282       14.12146310604191      10.146445044724194
   283   3       2.197334579813301      14.229841373893031      8.1168851447857406
   284   3   -0.095712319539122931      14.328094485521042      10.048795929406685
   285   3      2.2434927479336468      12.113872238012979      10.094247448938791
   286   4     0.10006971123856659      16.157268986903812     0.42758734097637352
   287   1      1.9918408682333857       18.20127801237787      2.0555625435549105
   288   3      2.2341268684354798       18.14107578184219   -0.053640239873845988
   289   3   -0.020186156073403023      18.205258716252565      1.7666649273313699
   290   3      2.0830511735126214      16.175383371277707      1.9763156063673333
   291   4     0.13766197664166013       15.74595996370139      4.0395332243812101
   292   2      1.8860915959411717      18.161036187322406      6.0411085565664031
   293   3       2.135051368262427      18.325986492847932      4.1015332851736668
   294   3   0.0055613878032744557      18.380823844427542      6.0628755579113998
   295   3      2.0636055203294261      16.269815739724617      6.0377038751575522
   296   4     0.18126019483516215      16.079905884943852      8.4970189415099426
   297   1      1.9385500965855309      18.217957306257155      10.104739480638262
   298   3      2.2133899999274678      18.288895491540252      7.9837085788749622
   299   3   -0.063275839099520559      18.217729366729923      9.8524513359310752
   300   3      2.1152614925032838      16.214719602853531      10.071377462788213
   301   4    -0.17410093198183121      20.009998063314665     0.24938296168949217
   302   2      2.0396101697576028       22.14216189655507      1.9881466899033498
   303   3      2.0757229353677937      22.532105177415335    0.051203278905189296
   304   3    0.085205071678841574      22.409724801456949      1.9733161519721327
   305   3       2.110412557120954      20.268851471570702      1.9771407859165888
   306   4    -0.34398553446291324      20.322579573691456      3.9695134615770611
   307   2      1.9588095696136267      22.212778025495513      6.0524600077205077
   308   3      2.0422205674817886      22.364744004383578      4.0191158572784413
   309   3    0.068292747300813222       22.26056414016125      6.0506110195739469
   310   3      2.2214734135673737      20.312112405856883      6.0275767392494748
   311   4  -0.0090126758461990825      20.326776201605089      8.5212626727465182
   312   1      2.0147694599902959      22.268778244944777      10.103660681143936
   313   3      2.2127400136440949      22.339007929400591      7.9754699396672653
   314   3    0.013530456136142715      22.175809752162635      10.027261388745641
   315   3      2.1844479250168121      20.253113040477118      10.025015651876894
   316   4      3.8070228361367153       12.31540426135421     0.11807536419377906
   317   2      6.0821509170142045      14.197138048731007      2.1961711746209889
   318   3       5.990292976608055      14.244768074818582     0.01612561880718508
   319   3      4.1544460102577636      14.264394919016981      2.0532720366275741
   320   3      6.0086897051655432      12.154714071782674        1.93746066564305
   321   4      3.5593818087980713      12.236105363910083      4.2821774064131946
   322   2      6.0497975988883708      14.039447824730749      6.1342730593868735
   323   3      6.2502315811298024      14.159062217265632      4.0922513407278034
   324   3      4.1762805694321621      14.283648541287079      6.0256581137330425
   325   3      6.1124468437296953      12.198235910432773      6.1483449902641603
   326   4      3.5597676286607527      12.301462625455562      7.9875762481494395
   327   2      6.0431301333294272      14.080916540732668      10.131722924585542
   328   3      6.1411474398669634      14.343267238364867      8.1141956273057616
   329   3      4.1628380390808974      14.306731513500061      10.190952579222236
   330   3      6.1285283952970255      12.206368399360194      10.107536968171528
   331   4      3.7668702263414984      16.197858148391415     0.34684572573047662
   332   2      6.0902120299563585      18.240759197331549      2.0166676474910874
   333   3      6.0132041392628661      18.267192080698006     0.04489965125326275
   334   3      4.1046387129597717      18.172907206949017      2.1272710086686528
   335   3      6.2424153301706946      16.196829784434687       2.073224361605245
   336   4      3.6224035613615615      15.977849485515025      3.9631709692685844
   337   2      6.0283309671941039      18.108410290533783      6.0952763243634713
   338   3      6.1923197081995989      18.414268240207416      4.0940216052750733
   339   3      4.1292555122643861      18.307947082121252      5.9857871416735886
   340   3      6.2627022336960518      16.259613975595677      6.0725562750340636
   341   4      3.6464171897324222       16.00888565546326      8.2340854596422925
   342   2      6.0278881187777742      18.136358529209783      10.156435769966061
   343   3      6.1871443732574543      18.341356405111487      8.0914409535346916
   344   3      4.1412464638610738      18.331831693254685      10.120015039010767
   345   3      6.2181099130638904      16.263481829287475      10.130561475653741
   346   4      4.2556980494841081      20.020860878330502    0.076561353497883983
   347   1        6.05303668609191      22.231696978541031      1.9891637801149931
   348   3       5.965561366843577      22.502656828508705   -0.043846212706210974
   349   3      3.9916104320075143      22.531075284228994      2.0157463030141867
   350   3      5.8929828911429665      20.219340910987334      1.9174212708212945
   351   4      3.9304138894480172      19.910364196227079      3.9530623414622035
   352   2      5.9648273773809732       22.21839465663281       5.956254128357549
   353   3      6.1635745834006217      22.354612005331457      4.0635879136413049
   354   3       4.089000674340836      22.474104388991517       5.976174234133226
   355   3       6.040871788438877      20.342088364340572      6.1494612631923307
   356   4      3.7040260152006654      20.111287558634597      8.2312492608940602
   357   2      6.0344960525282163      22.282502180567676      9.9613073533473102
   358   3      6.1395828906783265      22.487886914407376      8.0699639737083437
   359   3      4.1389468904730551      22.348376205232743      10.207652028432648
   360   3      6.1356624835424842        20.3379805732263      10.038313409494526
   361   4      8.3381244509557852      12.088444188499787     0.40742931096134377
   362   1      10.102299251512257      14.136648557523124      2.1334635283128214
   363   3      10.103391019973486      14.309425982380102   -0.098921318466354824
   364   3       8.035017327143656      14.074751721598252      1.8342751224745986
   365   3      10.101738460468733      12.126210299301661      1.9170827621713464
   366   4      8.3100552925199178      11.754627176016466      4.0457526202430563
   367   2      10.121767208049347      14.021252248824442      6.0876180168552114
   368   3      10.063432183555303      14.387042064473841      4.1720244364837562
   369   3      8.1485913117294295      14.256377153280379      6.2388910312925114
   370   3      10.207764508900684      12.170889024597283      6.0233981129742054
   371   4      7.9557806768240908       11.63388709241033      8.1990911899541992
   372   2      10.080757578294694       14.08049059374668      10.126229462322659
   373   3      10.199239028159495      14.311680135619463      8.1147582988471321
   374   3      8.1521180132515898      14.274386206707957      10.019452457631157
   375   3      10.221103111225181      12.231524260900889      10.192137747966065
   376   4      8.3687260145773337      16.009585311022114     0.31581364042216348
   377   1      10.142387447620067       18.21223337163504      2.0595289577564886
   378   3      10.070008030179206      18.357888939047591   -0.071790185283702831
   379   3      8.0619896072444366      18.424831872685306      1.9818964188539268
   380   3      9.8664958141865959      16.204848118846549       2.024757937689277
   381   4      8.4717995634039394      16.193282491516801      3.9139052419720635
   382   2      10.223914588087336      18.213563540906449      6.0744404698616776
   383   3      9.8836030223691012      18.209321525720554      4.1220819932121238
   384   3      8.0716788094987155      18.537805001090362      6.1343423318708572
   385   3      9.9821909467910359       16.31099823081308       6.218301648298282
   386   4      8.1365462642807707      15.960176565465064      8.0205836709232301
   387   2      10.098746663072637      18.208178695628284      10.111644764996456
   388   3      10.073452433541922      18.495983405552568      8.0852227188297316
   389   3      8.1548792581983847      18.495358093596725      10.071343507536508
   390   3       10.12938517113975      16.326848008868172      10.030927629477281
   391   4      8.0815482946773685      19.873804169053169   0.0006762338279047254
   392   2      10.010291237896768      22.185143259616591      1.9918254331339396
   393   3      10.254307693722479      22.403418942644095    -0.01069793167665248
   394   3      8.1368124361812608      22.359463614594222      1.9709255901569755
   395   3      10.195145715554473       20.32335201284101       1.967798081097162
   396   4      8.2118852535638815      19.983346105786712      4.0926228785204479
   397   2      10.042197346085013      22.344836338006136      6.1353164776658842
   398   3      10.178007721387031      22.416195534406874       3.945220781503751
   399   3      8.1043613656336273      22.246160456684578      6.0590192364702302
   400   3      10.171044586796674      20.305822978966951      5.8403845334388116
   401   4      8.0245553720153122      20.081691366971356      8.0315341364107393
   402   2      10.060325645987287      22.335410120819962      10.278289132488567
   403   3      10.189982481582055      22.154386423708708      8.0397272817598147
   404   3      8.1395343197600649      22.272995882539796      10.131814554544121
   405   3      10.307691605262645      20.322145450547303      10.136597216085493
   406   4    -0.23152509536493954      11.980144282990018      12.306774720944142
   407   2      1.9386761092210798      14.058155497998667      14.228114022243325
   408   3      2.2304717819767097      14.152947259257518      12.182939545175175
   409   3    0.053697128388617607      14.209912306517122      14.015725819406811
   410   3      2.0795965169390098      12.161040478884852      14.181994228504985
   411   4     0.20292649691083753      11.922407423626055      16.440226334553852
   412   1      2.0000100780578891      14.169514182023438      18.204839502341393
   413   3      2.0809567272095686      14.296592440258575      16.125588599056904
   414   3   -0.042435924168561186      14.224322175715443      18.414911799862267
   415   3      1.8219782456993663      12.117911787275723      18.133449439085719
   416   4     0.23629539606995142      12.267679434669599      19.913802966713707
   417   2      1.9348298786073443      14.277175306111589      22.271990875928303
   418   3       2.044512975740616      13.907219718516421      20.329919646556771
   419   3    0.041912241960265516      14.108116507197265      22.381851065927961
   420   3      2.1197402639878518      12.118771100084487      22.443170674261136
   421   4    -0.31145922032884527      16.075005541700165      12.396171005393839
   422   2      2.0850053135604734      18.125567687261722      14.050271540345708
   423   3      2.0863553375157777      18.352315351808073      12.169433424123209
   424   3     0.10461022593003245       18.21431680263494      14.323719617566587
   425   3      2.0781651130813392      16.206690469137648      14.055611570485173
   426   4    -0.32011665181414167      16.438694637181388      15.969375602475196
   427   2      2.0602344825209871      18.068825608927487      18.159287611858801
   428   3      2.0860208004428396      18.216727496279283      16.249304673838047
   429   3    0.082865842333647272      18.145345440932566      18.359149085652085
   430   3      2.1536380630244643      16.200840814000941      18.323778542752034
   431   4    -0.12346622780948373      16.189280313057314       19.91423703144455
   432   2      2.0309107218607467      18.384575014225309       22.34490972980354
   433   3      1.9743258611625361       18.32824580038217      20.249381957806584
   434   3    0.049440524577278218      18.267893294124477      22.363371500766473
   435   3      2.1158322884743725       16.16192778163246      22.166141672278997
   436   4    -0.26138447893494166      20.628824560811911      11.969144788205524
   437   2      2.0285922954235098      22.197229291405495      14.119294040775195
   438   3      2.1067616943335605      22.236924163383584      12.217895735038841
   439   3    0.092097917855132161      22.290940174286789      14.283241622707946
   440   3      2.0538334598735921      20.280311336809007      14.321324730338567
   441   4    -0.27265763024915424      20.029651259049352      15.867397337537112
   442   2      2.0144616305897349      22.135409111077347      18.159897485208717
   443   3      2.0536253666447788      22.409487171045775      16.269586262868316
   444   3    0.021023444676655186      22.423893134421743       18.35509838048333
   445   3       1.919300205554304      20.269011180264147      18.263498163860806
   446   4   -0.015477706934348206      19.902033150630789      20.090129609788974
   447   1      2.0196411862646242      22.248774713618079      22.255869836986296
   448   3      2.0057627698104628      22.499216129781132      20.197562387078289
   449   3   -0.015081558043267822      22.475807703506661      22.283845295488771
   450   3      2.1380876450390351      20.246742611480467      22.329475618831946
   451   4      3.7065341687630933      12.149972286517958      11.987191890297545
   452   2      6.0262071087498352      14.167479302049852      14.196843146642847
   453   3      6.2626562401262147      14.170309841429738      12.090370013132764
   454   3      4.0946185790903717       14.23580547482478      14.142749974671771
   455   3      6.1778091422911832      12.169725567620491      14.203324651209305
   456   4      4.0354070110436968       12.01318690793247      16.739738263117946
   457   1      6.0895903875012021      14.150068997381897      18.220400649723896
   458   3      6.1290283063276938      14.294693611003208      16.149046460770418
   459   3      4.0430191901754693      13.997934546657138      18.140632162598308
   460   3      6.2127730273112984      12.124180438024977       18.10342813932629
   461   4      4.0789887847607762      12.554233051306172      20.076237456528915
   462   2      6.0667133269085705      14.119880571829034      22.429310253912483
   463   3      6.1963340213405163       14.04917805077964      20.250521162522819
   464   3      4.0914505265297034      14.141073671020347      22.098838074752326
   465   3       6.154633355245716      12.205864856908558      22.262066140506427
   466   4      3.6518473883715683      16.006484484078847      11.922898502913405
   467   1      5.9992844390778632      18.130363995921204      14.113286291551347
   468   3      6.2229631514551453      18.442975886795324      12.053078718180133
   469   3      3.9986115065146119      18.362764399212711      14.260188259997577
   470   3      6.1856892492810198      16.138386926534025      14.028729447143348
   471   4      4.0312721215897911      15.741639108077051      16.442899788452202
   472   2      6.1440389464917979       18.08773605391514      18.165812619942823
   473   3      6.0295769186218351      18.333398723943453      16.248185313239485
   474   3      4.0375426652642448      18.410432473793676      18.334521514122631
   475   3      5.9573616805016378      16.220260512053862       18.30592024864195
   476   4      4.1614425582925136      16.258349663146149      20.543316105011819
   477   1       6.075763365884062      18.161166252412723      22.299886254857537
   478   3      6.0775287003553933       18.43759481855329      20.192452083149313
   479   3       4.020387726324441      18.165443950206047      22.029166405309681
   480   3       6.064507862712972      16.130214908808568      21.998339417947417
   481   4      3.7263404467163732      20.155672188410755      11.819415392834646
   482   2      6.0683390911139883      22.262779173515757      14.007526524391713
   483   3      6.1814892186600892      22.174089821981525      12.136490629230368
   484   3      4.0568550063293785      22.336347337914908      14.279834782814049
   485   3      6.0386611609066199       20.32576665927477      14.399305230055342
   486   4      4.1645817774125753      19.982385723013557      15.965728499695729
   487   2      6.0653273387454041      22.271989511356779      18.162671794124723
   488   3      5.9904229118835559      22.447383710927735      16.272652224897637
   489   3      4.0173065120467921      22.330246260603879      18.389342897633483
   490   3      6.0845859139821412      20.333946476718481      18.189219254241404
   491   4      4.1786766856449278      19.927117133824563      20.308843778109619
   492   2       5.977064501388913      22.218133050847367       22.27588919663042
   493   3      6.0930771338461431      22.286162729551588      20.299482380835386
   494   3      4.0572172366660606      22.537584521910848       22.25656948041356
   495   3       5.905602855710935      20.304836863979439      22.401282670720377
   496   4      7.9742280719386551          11.81064272617      11.956823990922906
   497   1      10.138199609853158      14.120848679507162      14.201648164722055
   498   3      10.151560504360017      14.386788506444054      12.048273213885723
   499   3      8.1176654863467625      14.319383900356515      14.184281838192518
   500   3      10.344227282634943      12.100943195850563      14.165092766707803
   501   4      7.8129878601324352       12.05078250242525      16.455340287184455
   502   2       10.06696627437392       14.18905341369795      18.283007524479611
   503   3      10.177838432170404      14.435942443017529      16.217110166514189
   504   3      8.1472190848593424      14.293326537447632      18.102012921342748
   505   3      10.105208862695665      12.177789988883326      17.991543478210449
   506   4      7.5979513017901246      12.028998994967573      20.234775011774378
   507   2       10.14790283414693      13.993062363266368      22.279592183465112
   508   3      10.061939103553115      14.097383340380736      20.231402020966708
   509   3      8.1068283299726982       14.27343979422329      22.226683600217644
   510   3       10.12076284143027      12.109954843112199      22.314351243592938
   511   4      8.0528942961695087      15.959319430300404      12.454302653730309
   512   2      10.024162320650877       18.28590050475578      14.294819431722807
   513   3       10.14648254425258       18.37033324662092      12.073024526842962
   514   3       8.111147646692304        18.4136899812185       14.17038704494764
   515   3      10.154973766486073      16.343848518340781      13.987669242979907
   516   4      8.1484678135954809       15.79500628755361      16.095870767129828
   517   1      10.078085372576375      18.161174868391569      18.274664302734124
   518   3      10.229460965863272      18.213879816998709      16.170023098068985
   519   3      8.0404009778276997      18.287568332628336      18.276508073815112
   520   3       10.30850763118063      16.139837181554597       18.29032978991599
   521   4      7.8280398376486167      15.885795176053222      20.368272827537901
   522   2      10.053065300847454       18.08008726296498      22.238222843586701
   523   3      10.064973690705971      18.480483436979338      20.308396559040755
   524   3      8.1091873393293792      18.460426936175828      22.264689754798219
   525   3      10.017485712221227      16.202318520330373      22.115121650745536
   526   4      7.9407907099500221      20.056770307318612      12.140766003603975
   527   1      10.045874162907538      22.262649124770707      14.220071615855719
   528   3      10.232911143864493      22.275138910241601      12.148508311236942
   529   3      7.9953344352866962      22.227828643920205      14.396859728684264
   530   3      10.239990089439759      20.226729195921443      14.086197238324058
   531   4      7.8599976001979677      20.145222917118943      15.980438671819998
   532   2      10.070162624463736      22.212017391618939      18.160490883965483
   533   3      10.111618030846531      22.407912207726739      16.287870307046994
   534   3       8.067335567589323      22.401484782149627      18.312392864817749
   535   3      10.100680024969579      20.326729327813656      18.208293923295162
   536   4      8.0360460785479901      19.880877621476994      20.191099917985767
   537   2      9.9702037854709111      22.191785576751627      22.228999750041751
   538   3      10.135300331335968      22.402945496269645      20.330325430884837
   539   3      8.0890003954094656      22.216664029472408      22.379978708089126
   540   3       10.22409725355625      20.332980242670857       22.37434223697451
   541   4      11.895263409493655    -0.11438359178514634   -0.016992511238116039
   542   2      14.116675495179043       1.919932633401175      2.0183289917137088
   543   3      14.357101678624375      2.0265821561835491    0.075951519385585017
   544   3      12.241752891886815      2.0747858900033513      1.9887237105796904
   545   3      14.343317868489446    0.040254305411670112       2.042155581685662
   546   4      11.856718773756866    -0.04244721955373823        4.26016252222961
   547   2       14.06488651415313      1.9942241556467641      6.1354208915703907
   548   3      14.352384073604387      2.1604313456009532      4.0151615073265319
   549   3      12.210617036341755      1.9197648858685232      5.8870858528317829
   550   3      14.360549188901754    0.074908572939517803      6.0015330810966976
   551   4      12.268986736867161    -0.15145156706885141       8.392877309729375
   552   2      14.271952679193333      2.0610853586191342      10.223998541961825
   553   3      14.101479072267338       1.993579362557365      8.0484678375552399
   554   3      12.129794640324887      1.8950510279816888      10.250009425707711
   555   3      14.095277515041278    0.034835172747349159      9.9306238210765621
   556   4      12.004990409639129      3.8288338758951936    -0.22213021902360011
   557   2        14.0674061409355      6.0084575575542596      1.9370225986893856
   558   3      14.291539883912247      6.2140665802691881    0.034126098940769407
   559   3      12.191523119762348      6.0850206768155646      2.0806571683782131
   560   3       14.30608659549269      4.0801152092876496      2.0485109093115437
   561   4      11.893852822499191      3.8667894830971989      4.0447614843272115
   562   2       14.29435016375691      6.0391131386443977      6.0004605126982318
   563   3      14.276147661179335      6.0586794311708312      4.0580774381904963
   564   3      12.138168459284106      6.1152385585089704      6.2419173657143467
   565   3      14.088182967469447      4.0435786774696236      6.0560718097915531
   566   4      12.320351102020995      4.3226103661552724      8.1625658752197392
   567   1      14.161300846708848      6.0496536678238435      10.148963034792649
   568   3       14.04851296558247      6.0593440718363976      8.0782413621231761
   569   3      12.115193288047662      5.8621214182306645      10.135245466427545
   570   3      14.145249508987995      3.9680322244512034      10.014511320519587
   571   4       12.21972033329682      8.5127669749871924       0.178097465342136
   572   1      14.177865962625576      10.128826748559293      2.0491962401442296
   573   3      14.198185570344735      9.9336501317073349    0.012124412212556224
   574   3      12.130978607961103      9.9426011362796771      2.0222253368472378
   575   3      14.274699160588364      8.0013804710346559      2.1702476220611899
   576   4      12.219820538290692      8.4179768231530421      3.8159679141676759
   577   1      14.166885836857404      10.041265107176008      6.1318675819630002
   578   3      14.079430506715958      10.010232740943545      4.0918236332468325
   579   3      12.105620124748505      10.161562227800975      6.1471400247138464
   580   3      14.132381743164393      8.0114296151020223      6.1563542200682111
   581   4      12.422805505770876      7.8967075399739022      7.8775103485722378
   582   2      14.122722284232243      9.9863484712641526      10.187276340148946
   583   3      14.119074709611294      10.315064624757987      8.1851328663255689
   584   3      12.232034807348986      10.294613400008487      10.202378218167052
   585   3      14.191859696169903      8.1309619971696367      10.082193815382812
   586   4      15.998760945226627    0.073216660250668641    -0.33531049361193088
   587   2      18.181603297771652      1.9264417156689795      1.9833966947164421
   588   3      18.413003619080133      2.1494909661130674    0.081706991563429088
   589   3      16.294092939029841       2.223348103704291      2.0441941079815682
   590   3      18.254148469899103     0.05320097765185014      2.0582245417046474
   591   4      16.140398495094217    -0.33717379752744631      4.3476837977627101
   592   2      18.123954815454695      1.9560515085328027      6.1280486103078848
   593   3       18.26126702252672      2.2771298045723709      3.9987587964767082
   594   3       16.23454122552889      2.1731238723242363      6.0167529512410081
   595   3      18.217264855784979    0.066900387456412316      5.8132573123477167
   596   4      15.838156495622533    -0.28041824097797252      8.1881607914825825
   597   1      18.185156722736455      1.9516732038470039      10.071242895600202
   598   3      18.458190418355699      1.9372388418342215      8.0095896837962623
   599   3      16.161354928737907      1.9487003887319938      10.011252599930012
   600   3      18.437386237597131    -0.10525656125820076       10.18466461588682
   601   4      16.059233292358947      3.7370502795350369     -0.2531008871336034
   602   2      18.122708615273517      6.0446237177357744      1.9927699381320605
   603   3       18.40479992872385      6.2146887942990165     0.04094104935030219
   604   3      16.260972970996757      6.0927781988539298      2.0793568834401772
   605   3      18.441376989662999      4.1418381327798075      2.0097699830148446
   606   4      16.074048560871571      3.8344906282627473      4.0101505647395603
   607   1      18.180546960433052      6.0063936369301283      6.0440901488185395
   608   3      18.420248895904013      6.0854375473125382      3.9973798994706216
   609   3      16.172287737478889      6.0189770721749065      6.2291747800877104
   610   3      18.509411835471607      3.9786969252724562      6.1130783184469983
   611   4      16.277526408357499      4.2127816494541106      8.5424628194492911
   612   1      18.279558445099433      6.0421853160446242      10.128817197829232
   613   3      18.343048407253274      6.1499682357544971      8.0835137212769883
   614   3      16.205198640531208      6.1266788004928641       9.990019487878719
   615   3      18.174803516885607         4.0107149662807      9.9955611854538873
   616   4      15.834934519417718      8.2761688147836132    -0.12171926578224782
   617   2      18.090576278321244      10.087409631996435      1.9984237453909928
   618   3      18.297103050588465      10.136620898371662    0.095298076151806715
   619   3      16.233763779268205      10.084113150827847      2.1361947850682297
   620   3      18.319220729341751      8.1512718925686087      2.1720196806463972
   621   4      15.793275737847226      8.3354444259107972      3.9675027199499233
   622   2      18.116985851178359      10.072897889930294       6.080561809228918
   623   3      18.296370128581817      10.168264214027667       4.081349313523682
   624   3      16.216355935890135       10.17738996148055      6.1621553952690755
   625   3      18.333056311321421      8.1445904792641191      6.0647634937112906
   626   4      16.287838154580392      7.6462511150402115      8.2260262937418265
   627   2      18.112923815184921      10.072151773811902      10.191182284631475
   628   3       18.37819358208457      10.185654902545364      8.0923964963197861
   629   3      16.216697240884084      10.248139895161959      9.9658076788125403
   630   3      18.227140860863173      8.1753340068761613      10.064422995324261
   631   4      20.244150185030183    -0.39466841652958023   -0.012372967271575924
   632   2      22.218051861160795       1.978433624812616      1.9874497189615397
   633   3      22.297909860864358      2.2230242525939472     0.06209855710604413
   634   3      20.321388111356875      2.0757389982400851      2.1492447216119417
   635   3      22.443881058788655     0.10902509913809424      2.0314879170388345
   636   4      20.093069340103717     -0.3283360016566832       4.004693982858325
   637   2       22.18136855530507      1.9318924163439339      6.0716725595025238
   638   3       22.54503606984548       2.079144575552812      4.0455278711786882
   639   3       20.31581454136326      1.9339283559612792      5.8525901221394427
   640   3      22.450908443248892    0.015953771513577877      6.0168069026608704
   641   4      20.336895409674728     0.20114124849335788      8.5315295433068297
   642   1      22.279396622593755      2.0131501207716522      10.064693471350216
   643   3      22.241333064798461      2.1013628490216645      7.9805759028281624
   644   3      20.263149359142499      1.9150076132228122      10.230617352323165
   645   3      22.330413689394462   -0.015451937970567022      10.037643648508912
   646   4      20.087906357741556      3.8811392612756279    -0.17819918441904956
   647   2      22.205821738633883      6.0372483834660304      1.9777061177357682
   648   3      22.320469964042463      6.0881078229811907    0.097404740637793835
   649   3      20.343973257292763      6.2664143021291236      2.1369071474019607
   650   3      22.321315536264311      4.1289734534155729      2.2088986985185386
   651   4      19.916658860058387      4.0243860285046624      4.1494489662531331
   652   2      22.207739635953345      6.0030621677149805      6.0268234947630148
   653   3       22.44777095946149      6.2204667054949354      4.0996784746411583
   654   3      20.334970818823294      6.2149574328792623      6.0709725337268798
   655   3      22.288183816088406      4.0666887598564063      5.9839752849038073
   656   4      19.785860362063044      4.0695594369528587      8.2120688457058684
   657   2      22.245248616127142      5.9897942504931159      10.018549700734923
   658   3      22.305280387302211      6.1022709372590773       8.099869093614485
   659   3      20.351184373306626      6.2220075682553198      10.169392451794733
   660   3      22.284619968016475      4.1108195977226307      10.195452566866431
   661   4      20.294443343614354      8.1307746592657661    -0.29533942140957614
   662   2      22.165776506872035      10.034576160159183      2.0942914478754058
   663   3      22.321814789397951      10.292506887584878     0.16118875522432768
   664   3      20.292117043465577      10.133753823507044      2.1726225655535574
   665   3      22.479805721725977      8.1283266748857947      2.0996873951592985
   666   4      19.928052765613931       7.935157596110038      4.1326256097990886
   667   1      22.208544598307046      10.071852592308087      6.1050755388289577
   668   3      22.555082537245397      10.112350110460394      4.0434993036584626
   669   3      20.224034128221064      10.282198931352704      6.0638823243298852
   670   3      22.554234972709526      8.0374561373010387      6.1305725665835284
   671   4      19.928288936660728      7.8260279610797259      8.0297312442620825
   672   2      22.134047418000026      10.024342105524035      10.134292173671582
   673   3      22.299063412389788      10.332358899961122      8.1869395268832736
   674   3      20.244081826912275      10.187799827729407      10.163560067234528
   675   3      22.416061663288456      8.1506245688247994      10.082838838167911
   676   4      12.242007212085625     0.24152410936852198      12.167964788025241
   677   1      14.116421181075038      2.0156124437576288      14.210194297973723
   678   3      14.218711232770289      1.8400514146950984      12.126332091409985
   679   3      12.107024147914611      1.7417451984024146      14.105498428766653
   680   3      14.319050965606356   -0.092460393675967353      14.159989096225758
   681   4      11.875032021654439    -0.04615337608407382      15.988551158583892
   682   2      14.083532431271768      2.0270954406345609      18.190187710225118
   683   3      14.250646282284018      1.8679578827864169      16.285523215536614
   684   3      12.209154900628549      2.0586958386576932      18.400082578555971
   685   3      14.230569369468098    0.053809720816515333      18.428318681614545
   686   4      12.084772409446021    -0.19337717713400338      19.924255840979331
   687   1      14.123509723074584      1.9985609220275935      22.249672756072041
   688   3      14.435637234043076      2.0765757718607714      20.225079525672552
   689   3      12.103314485903981      2.0629904863611914      22.413587153878556
   690   3      14.413067590489923   -0.048378433131311085      22.242318858107627
   691   4      11.988415874955964      4.3544704021928222      11.991700748314365
   692   2       14.19244659769959      5.8846306245359461      14.061113477319704
   693   3       14.28917105654628      6.0463922931142928      12.175289240591262
   694   3      12.265382192215808      6.0909169217576151      14.157027989079694
   695   3      14.281655187501475      4.0252797047403499      14.296919230172579
   696   4      11.765584770826583      4.2523130693008335      16.139985678337453
   697   2      14.195380724338676      6.0338408307750964       18.10973770071374
   698   3      14.208594377163614      6.1812728240360091      16.231223456561306
   699   3      12.292045445931533      5.9938658259324002       18.39793199667406
   700   3      14.358521339666655        4.04869088667032      18.237122747960832
   701   4      11.886943040610193      4.0784064357022141      20.049953839400892
   702   2      14.073751053058555      6.0442326514705043      22.202265408429646
   703   3      14.344523425938862      6.0116945107738795      20.311421689216772
   704   3      12.209206432934346       6.134225987822151      22.301924181421835
   705   3      14.254068589390284      4.1152743306170345      22.452163711394544
   706   4      11.764652097840104      8.0956724236726458      12.309619186022449
   707   2      14.207468828365466      9.9848110193625921      14.273916382191304
   708   3      14.348907252134092      10.281581851084002      12.115865011763994
   709   3      12.268413642812021        10.1336653244079      13.952161395821598
   710   3      14.291668583745246      8.1010552800371389      14.177635019130271
   711   4      11.832742320751173      7.9019803813257194      16.103978448600202
   712   1      14.136702330397684      10.073078345812384      18.184467163104085
   713   3      14.108675535996351      10.238526373843154       16.14067830482238
   714   3      12.120245355697252      10.357505950332428      18.341316012598032
   715   3      14.147769697848611      8.0085442973271164      18.486945322611227
   716   4      12.099457430032922      8.0317045510749026      19.974463244584314
   717   1      14.101377709828288      10.068824670636726      22.290347234218565
   718   3      14.304007886320358      10.229394239057568      20.235658134007846
   719   3      12.080810859098055      10.075300929985973      22.087265587925121
   720   3      14.429844182634614      8.0267130256424899      22.232069017080981
   721   4      16.235508214541955     0.38672806086382078      12.420513083914717
   722   1      18.258646964983356      1.9316729957595797      14.192891014720781
   723   3      18.202256790380545      1.9720313467417736      12.143632831224645
   724   3      16.220032667473891      1.8627808002504758      14.300487230409201
   725   3      18.349765231494231    -0.11711746294306966      14.169877997366255
   726   4      15.927352519943394    0.073963851344201539      15.997900794588958
   727   2      18.213269433106323       1.839958189973137      18.238907413083787
   728   3      18.379803918299196      2.0645210465888257      16.320503737807407
   729   3      16.310828369922458      1.9862480991539648       18.23565240088595
   730   3      18.421345007656033   -0.040387215359295105      18.374743838818834
   731   4      15.830858031619156  -0.0026835604313853708      20.250684351454954
   732   1       18.27539764319754      1.9121429498904201      22.287099567053382
   733   3      18.312559007860965      2.2022523973825163       20.22470820440051
   734   3      16.274134657187744      2.1637183912806677      22.366510649809197
   735   3      18.335319056770864    -0.11171114032564132      22.250557298726605
   736   4      16.883770309924554      3.9964273150159966      12.180996759404724
   737   1      18.251252724861295      6.0120752736421146      14.194298685972024
   738   3      18.145468914179588      6.1397698580776243      12.149987808068392
   739   3      16.185518638488723      6.1674114393525556      14.295596369597881
   740   3      18.150952063534646       4.012824590553481      14.269685295000356
   741   4      16.306940337620514      3.7391146664862052       15.77101950759574
   742   2      18.167467270560032      5.9692320837536501      18.202262036458347
   743   3      18.334437738792563       6.219789913090203      16.313040098851751
   744   3      16.280148994163579      6.2220651099114193      18.285172579792597
   745   3      18.298374595317533      4.1053058822331909      18.284446472307845
   746   4      16.131220430381255      3.6312549492517947      20.451572696318298
   747   2      18.151602607900305       6.060853287743603      22.262448918952892
   748   3      18.363831300470935      6.2155719879555207       20.32215546742329
   749   3       16.28988360777694      6.0426624001670008       22.38010649606835
   750   3      18.457041715379138      4.1749725360203174      22.351279042413104
   751   4      16.291409420176784      7.5769770381803978      12.051200808520932
   752   1      18.198532420145067       10.13959032856773      14.159590013413901
   753   3      18.134815213555033      10.200314909982417      12.071983188098601
   754   3      16.161576594745238      10.290252222413377      14.207557785341571
   755   3      18.262688497123317      8.1101774985438357      14.270521681523419
   756   4      16.405583926693652      7.9416433926989045      15.784635343701432
   757   2      18.135441918950423      10.113134796174283      18.129561898325335
   758   3       18.40375449446147      10.200106784981433      16.231305672170272
   759   3      16.250391495606195      10.137195860215108      18.135886703791297
   760   3      18.434895894863907      8.1792836475712782      18.329866112458202
   761   4      15.779545143418654      8.2588570016337233      20.188627063772966
   762   2      18.215699529963466      10.101814836552109      22.199081954265129
   763   3      18.312610702136279      10.196092229447748      20.285602353653349
   764   3      16.309581606997558      10.171577393149672      22.342291069400105
   765   3      18.336001904270667      8.1550424523077645      22.367357043809211
   766   4      20.008212704891132     0.24583214659236724      11.982947186010101
   767   1      22.309888094463769      2.0262472488688767      14.165315803803399
   768   3      22.383318075517508      2.0772525348674842      12.139109690691599
   769   3      20.287503969644668      2.0423304935733984      14.198767288901875
   770   3      22.371310483564123   -0.013982653151249972      14.282793300823789
   771   4      20.373463451301639   -0.023598275296367599      15.644830079117131
   772   2      22.254911479646573       1.921565044801004      18.153043443269965
   773   3      22.287272235272365      2.1621448904880736      16.284658194184185
   774   3      20.321251204516074      2.1804710788086954      18.377225038710129
   775   3      22.281054998060533    0.055967699317754291      18.279446055768901
   776   4      20.131679836158554     -0.2909263598392946      20.354035722732522
   777   2      22.281409487657854      1.9709978494048268       22.21874835597146
   778   3       22.37332167336519      2.1979397550932331      20.311517474585187
   779   3      20.361385030143573      2.2008801889617828      22.289859459688387
   780   3      22.325439961497761      0.1119803288498834      22.352673057586905
   781   4       20.36628673475413      3.4976534468367855      12.021554782992176
   782   2      22.296883214352913      6.0064344010449098      14.069859980896934
   783   3      22.365469829581542       6.238211837871658      12.152533807297123
   784   3      20.328524095848064      6.2317651677680805      14.165338023384539
   785   3      22.310107098748478      4.1344820990811355       14.21417579907782
   786   4      20.063860614487282      3.7488752214994143      15.768068510176924
   787   2      22.218987584933835      5.9999314772164043      18.094309276073567
   788   3      22.196403535034321      6.1714236405801595      16.206197030851833
   789   3      20.267888991856491      6.1660463108080927      18.404722967395397
   790   3      22.333350878590881      4.1370748108964639      18.340279243258724
   791   4      20.067536354403551      3.7674467276594026      20.266564349543678
   792   2      22.287869558980727      6.1241146651987757      22.145391219062812
   793   3      22.311887917228958      6.2666055524336315      20.263900399634942
   794   3      20.327591607902292      6.2626266484459681      22.361085513726614
   795   3      22.322959700739638      4.1759350586413895      22.391048012032389
   796   4       19.87772978584205      7.7706232185656718      12.301892705379586
   797   2      22.166094391439909      10.120064740092769      14.266323408970447
   798   3       22.47424113495925      10.130823562687985      12.082658171295437
   799   3      20.277251972191205      10.185602639289252       14.00509764811334
   800   3      22.322982180090584      8.1868348404246927      14.227094334565379
   801   4      20.001901055027396      7.9877725918108267      15.905812169297212
   802   2      22.259565687161849      10.080300878665074      18.367331276240943
   803   3      22.225158825295242      10.329951935156299      16.151325523363962
   804   3      20.291875285881265      10.364682430239624      18.257945670917145
   805   3      22.117748072061765      8.1592936174339989      18.193453745050373
   806   4      20.167341486857048      7.9847345587275926       20.05387257100978
   807   1      22.282488449675366      10.124024186493198       22.23816298984141
   808   3      22.328315366174969      10.101587814123208      20.227777681913555
   809   3      20.227850516607887       10.14373079647139      22.512344751450573
   810   3      22.326820674388905      8.0983863190767718      22.554208425581766
   811   4      12.069625679143385      12.135616912272054     0.65015248217594446
   812   1      14.180859934323157      14.127071671102296      2.0480832063711549
   813   3      14.152933537261447      14.302317703263688   0.0042893012965367775
   814   3      12.114899257417381      14.305758119921444      2.0207798519586908
   815   3      14.033304842477406      12.123453689440092      1.9799033963758217
   816   4      12.600927643480279      11.902327760394247       4.147786338005969
   817   1      14.105385580817412      14.147653338453846      6.1226525204222604
   818   3       14.17743330916475      14.212440225923505      4.0704621092413618
   819   3       12.06939391044695      14.406677522255334      6.0921499483387889
   820   3      14.223638388487364      12.135878878594909      6.0316567099252927
   821   4      12.137392414315205      11.743405621912922      8.0359662288493041
   822   2      14.072117776470817      14.119039014682787      10.154864137227355
   823   3      14.201601631585493      14.345180551707379      8.1846308596271058
   824   3      12.172793367998651      14.341127074092556      10.153638707269577
   825   3      14.263716784438767      12.257413750148897       10.10413604972708
   826   4      12.156439732973286      15.756781299886411     0.24869611203881689
   827   2      14.048848619263719      18.146705064370039      2.0972681398800095
   828   3      14.269317518003731       18.26682956652801    0.038669840111497225
   829   3      12.171238983783033      18.269569564195557       1.929549681128911
   830   3      14.230347971368666      16.251357682605956      2.0328745402496891
   831   4      12.266055506659326      15.702714177254256      3.9450458410235765
   832   1       14.15906196476196      18.236181729029134      6.0734655749383544
   833   3      14.222577711833319      18.342258160344223       3.977125225027915
   834   3      12.103430156747972      18.261012271460491       6.040355948034672
   835   3      14.245544993629355      16.224201085808573      6.1407905943310386
   836   4      12.377281948421455      16.068512996255862      7.7592315755021559
   837   2       14.09466903942298      18.211326431906411      10.039993809776391
   838   3      14.252457546392314      18.235266073087406      8.1529886553244761
   839   3      12.175544005129398      18.313880869837075      10.134284973489196
   840   3      14.278246421996993      16.271741402927052      10.225357395666787
   841   4      11.994786236897614      19.829415692550089   -0.025961768197479571
   842   2      14.097062658029857      22.223822784305511      1.9966258992957193
   843   3       14.30017753357963       22.46941068722705   -0.017575084901183247
   844   3      12.212060911274868        22.4434635263157      1.9113811971053765
   845   3        14.2201590427663      20.307929968723666      1.8513760042851037
   846   4      12.313817097518138      20.330553375944145      4.4744363002416332
   847   1      14.115494759950989      22.332630538472007      6.0554055759358674
   848   3      14.237394772650187      22.269835280867525      3.9253185865873506
   849   3      12.086559359568655      22.281483771062675      5.9195663783346051
   850   3      14.195821268414416      20.272115466180207      6.0034196141481848
   851   4      12.147625488456191      20.563164637026627      8.2906511495469655
   852   1      14.135141831636524      22.294053905985905      10.202766970903873
   853   3      14.234280154956403      22.288867261763862      8.0901781213065238
   854   3      12.111218904433503       22.29110805778646       9.934297196788668
   855   3      14.331144660462662      20.212042486363902      10.099162661644467
   856   4      15.491080071573966      12.126500097954352   -0.014370332896882261
   857   2      18.102553145943936       14.04675266171161      2.0341098782202276
   858   3      18.363214473281726      14.275779347871888    0.028641676791127162
   859   3      16.251423257369058      14.163060414498352      2.0193826102956343
   860   3       18.36773356837239      12.138764544059237      2.0499621866844939
   861   4      15.931411134828778      12.432864255767589      4.3958431993092706
   862   1      18.215885448007722      14.182510623493389      6.1034210642145892
   863   3      18.349135793901926      14.253036660599978      3.9532518562136505
   864   3      16.204930145211073      14.234330024606846      6.0277888571576321
   865   3      18.310520957450624      12.138746029972342      6.0583064162011082
   866   4      15.835214882086554      11.999508389729916      7.8885266795577058
   867   2      18.132407343450708      14.086167733328553      10.085076521563932
   868   3      18.333083929834086       14.34836880882909       8.147322435256692
   869   3      16.236484642189204      14.345103489083046      10.082807662140713
   870   3      18.300810175581269      12.200984208945231      10.059999889912218
   871   4      15.672484055762913      16.028024901759895    -0.13440574318058091
   872   2      18.095402879338845      18.106210670181092      2.0630500111624244
   873   3      18.422906465386134      18.276295250942685  -0.0020307417817331743
   874   3      16.242403751312864      18.325398462768483      1.9250844926137869
   875   3      18.317891310907356      16.222948475127456      1.9541297237555624
   876   4      15.829710026428415      15.940773685071518      4.3479515467537748
   877   2      18.134892265999245      18.249768030786058      6.1389273979437569
   878   3       18.33997577679602      18.272671247016568      3.9611717389458336
   879   3      16.263472937382701      18.290431611842042      6.0251137127143997
   880   3       18.34943149170984      16.312400835008908      5.9841454248229695
   881   4      15.985308935789778      15.937791576090595      7.8009825416405842
   882   2      18.154194140850684      18.227347891044051      10.117913019473537
   883   3       18.38201729938045      18.277115132397071       8.061692262800717
   884   3      16.277142254450677      18.209615212395629      10.152539457898598
   885   3      18.412575280907699      16.307255430852532      10.068049172673126
   886   4      15.866071623203618      20.036664746400287   -0.085197935511613199
   887   2      18.167378931385482      22.134937623494515      1.9919045232787962
   888   3      18.403436929064952      22.329521745125291   -0.026239366317069017
   889   3      16.261066855145309      22.299746121208489      1.9486334297300349
   890   3      18.363456783478011       20.23561885675333       1.915529544014293
   891   4      15.972953837711776      20.366945174765295      4.4441857129082196
   892   1      18.229735285460269      22.271356696001693      6.0887393663810929
   893   3      18.332222483016508      22.288481702417606      3.9283921685595429
   894   3      16.209895957095988      22.238802977606621      5.9327879776404915
   895   3      18.387536625617912      20.203979270675312      5.9030490374358271
   896   4      15.731560047642304      20.469487009715227      7.9392371504795527
   897   2      18.139305174013661      22.277478877339782      9.9836978109356078
   898   3      18.257872101000238      22.267058540130897      8.1082188621886413
   899   3       16.23376405769973      22.331463607871985      10.153298843970436
   900   3      18.234023193392989      20.231807717619905      10.088985062901436
   901   4      20.242231668584797      11.928910982435522    -0.20658558446194705
   902   2      22.256101432103968      14.039628777733107        2.05718827705561
   903   3      22.345055752972119      14.145111189390843    0.066559105263486851
   904   3      20.312948349195004      14.327696353535554      1.9760446474198639
   905   3      22.334178468096631      12.161785449031353      2.1815327674402591
   906   4       20.02498605059461       12.01702654783894      4.3423397003227038
   907   2      22.289938465540704      14.126250892296566      6.1350755946143529
   908   3      22.297007794619688        14.4217451163581      4.0141929293554908
   909   3      20.318062850334396      14.282289310328892      5.9665560953277748
   910   3      22.293073416960919      12.219902792011954       5.944142198092524
   911   4      20.083208437106034      11.891743618246009      7.8955573206108438
   912   2      22.263880977074248      14.085987512644518      10.156067363937389
   913   3      22.230726260613849      14.169312760003519      8.0565365040838639
   914   3      20.273764102809434      14.345162441763106       10.08557313703326
   915   3       22.28115525293185      12.199759399284657      10.226547001900553
   916   4      20.144630317929312      15.945009435516004     0.10626733432291902
   917   2       22.22637076509238      18.168993666235203      2.1204804132010797
   918   3      22.284864483808903       18.46149792229215   -0.041807798359881514
   919   3      20.302304705791641      18.307421044826583      1.9523799347508215
   920   3      22.319867537772531      16.261828170532475      1.8396419220411115
   921   4      20.041333131715383      15.944477642825543      4.2334365015079927
   922   2      22.224006976117394      18.159850015443169      6.1606871493979671
   923   3      22.446038470325391      18.254267352133489      4.0091867723740435
   924   3      20.335073451634823      18.311001322752713      5.8584227508620383
   925   3      22.321244314743392      16.279257661545277      6.0862200426626032
   926   4      20.059657221589489        15.9883212954073      8.1949782605752031
   927   2      22.267954596912588      18.172025577095319      10.189688859615304
   928   3      22.189459840083661      18.480208322840753      8.0046482859507897
   929   3      20.295176096494256      18.415570875049124      10.040679983194178
   930   3      22.248179526779548      16.249104392397452      9.8389835168951194
   931   4       20.14389406766453       19.99986908352049    0.020927926309055191
   932   1      22.240755543496199       22.24824198921943      1.9950745658166309
   933   3      22.344129556295023      22.403636973280083   -0.062183425212386942
   934   3      20.223814703478414      22.483169044159425      1.9705873827662432
   935   3      22.497021696071485      20.220227040329835      2.0314596247092078
   936   4      20.025355208848598       20.23132861928574       4.234606477121833
   937   2      22.201807874555531      22.243340337267863      6.1176552642074764
   938   3       22.50514022163188      22.368941142879965      4.0422704201949831
   939   3      20.322860429189618      22.356840861799075      5.8724324650858115
   940   3      22.312158104793884      20.299119256777725      5.7938629762267331
   941   4      20.222314706733162      20.337396307422722      8.3729324454076099
   942   1      22.246415402714412      22.281919140372562      10.065471827999769
   943   3      22.252437784881103      22.140661870096693      8.0003129535329727
   944   3      20.231367112971974      22.044801709729228      10.122735143345773
   945   3      22.391516024943947      20.206596892826838       10.14689264157912
   946   4      11.946479740409918      11.880579777608533      12.257681254208327
   947   2      14.075703380443539       14.12969334132783       14.19705504388914
   948   3      14.339228213098984      14.314991109371869      12.118343974230003
   949   3      12.217723620398548      14.350544459518364      13.992152274837609
   950   3      14.222013115024684      12.234841119883157       14.07761057314235
   951   4      12.074966554526229      11.982167236681404      16.515757348812294
   952   2      14.190449729881957      14.154615124930375      18.348927485986781
   953   3       14.20916708811197      14.320907232626528      16.093537532052828
   954   3      12.192602647727973       14.12627014670076      18.079206979742832
   955   3      14.245776875537993      12.206136467488395      18.050023688814381
   956   4      12.358455480317488      11.734456986217452      20.409803540104861
   957   1      14.077445123396743      14.141072948728656      22.290608077028928
   958   3      14.186338111731724      14.140152147377941      20.226941565486765
   959   3      12.038201264196315      14.342874753112875      22.179649022502094
   960   3      14.260407815719471      12.130179030746911      22.257307540366487
   961   4      11.854699419902182      16.068770530169129      12.311163570003677
   962   2      14.089718285326878      18.200526933729016      14.152028451933596
   963   3      14.378188657673237      18.353656308611761      12.162287764610227
   964   3      12.199572496411838      18.245628904518927      14.049964506227077
   965   3      14.329894229551973      16.255702982525452      14.047281333064513
   966   4      11.894398057926281      16.150523686793044      16.529207342060847
   967   1      14.131785001512959      18.198218610716392      18.204956018166055
   968   3      14.288118512602686      18.186392403512709       16.11212602007906
   969   3      12.120634722601583      18.406652117870813      18.226518020023391
   970   3      14.228561580259495      16.162992908654847      18.193149079372436
   971   4      12.324439170456737      16.181245243060697      20.625962624526689
   972   1      14.100098357947989      18.243019723589054      22.308254298845622
   973   3       14.25184885350289      18.297521960381395      20.259895977413358
   974   3      12.055294863131165      18.248908178102457      22.203660774880422
   975   3      14.237125078585034      16.210987955652389       22.11789885581214
   976   4       11.83127349663056      20.357487683736373      12.285115564598305
   977   2      14.034235078608162      22.282445906591409       14.18529343307412
   978   3      14.185411047155817      22.100293392980568      12.231721367682608
   979   3      12.155809190705575      22.341997559495752      14.252008624576268
   980   3      14.336515414195537       20.22210824183222      14.256602553052119
   981   4      12.140274183579395      20.047182096619441      16.630994293206559
   982   1      14.146664023069764      22.296569557158445       18.19853533014841
   983   3      14.366376383705934      22.285049169721248      16.157032109475242
   984   3       12.07007325667379      22.338621615401816      18.325355679993606
   985   3      14.295166737019629      20.260775480673946      18.131742949589682
   986   4      12.143187905704291      19.794818275088776      20.103333638748413
   987   2      14.008173067657548      22.235612598785796      22.236428841607101
   988   3       14.26144558439284      22.254847925890449      20.328270791281479
   989   3      12.133579382781569      22.459810356554449      22.340837086220276
   990   3      14.201370566207901      20.324944129627113      22.440914374922237
   991   4       16.20525236920377      11.928749317970071      12.449896792733091
   992   2      18.197349266609304      14.200020463995102      14.318406805221535
   993   3      18.268686318079652      14.365665821783645       12.04805489207056
   994   3      16.240695217094743      14.266261793901972      14.075716720664227
   995   3      18.280912883058523       12.24602215047519      14.018290393659985
   996   4      16.044626351069521      12.129791709112563      16.497806878260217
   997   1       18.14243184588344      14.188949372763149      18.260748515761392
   998   3       18.31036483628127      14.100009895655555      16.180679319550233
   999   3      16.133084465395392      14.176742691375003      18.015988606288897
  1000   3      18.322289074805546      12.119973474128029      18.233899557960022
  1001   4      15.800695020774075      11.976502275347496      20.530830483542974
  1002   2      18.104078483954147      14.133035835770036      22.252484053793353
  1003   3       18.37890518758687      14.090753356655579      20.366600256203558
  1004   3      16.249169914397548      14.203395705894335      22.333006986693277
  1005   3      18.364955289825271      12.171049829836111      22.428645970609256
  1006   4      16.029525614619903      16.077344990569742      12.154640705527875
  1007   2      18.177830970273813      18.265645587008468       14.06051315769408
  1008   3      18.342894418003564      18.263690181688535      12.131932064948083
  1009   3      16.287512390169134      18.199754878301224      14.173903133805764
  1010   3      18.331973605148839      16.237373493727684      14.142275254980746
  1011   4      15.903532305079644      16.209551054351991      16.418642169579872
  1012   2      18.229113678536649      18.095787051226349      18.102652198410411
  1013   3      18.310146748621669      18.142605890071565      16.220835494778285
  1014   3      16.297859053488363       18.21325236523073      18.271037907173749
  1015   3      18.322860152696173      16.213697195196353      18.387996649605942
  1016   4      15.772835257742029      16.430222095832821      20.358135829458075
  1017   2      18.147820685669799      18.147196351886773      22.263007799756224
  1018   3      18.304521919226914      18.327469369075374      20.341699829565705
  1019   3      16.277479395522231      18.277926210910614       22.33855724697181
  1020   3      18.340491582821734       16.21414093427866      22.306848065112202
  1021   4      15.845105351175533      20.383402900104489      11.979654921177671
  1022   2      18.193216866672511      22.241399404076756      14.079000561780628
  1023   3      18.373277591594341      22.126422345810742      12.172825018832594
  1024   3      16.283917683083381      22.239078007202853      14.166516448828162
  1025   3      18.320951607043835      20.209150136720325      14.337915776295823
  1026   4      15.797282338881626       20.28456082151504       16.30450615060219
  1027   2      18.169268852201725      22.159895319217743      18.127519005987011
  1028   3      18.286342660248302      22.284879275479661      16.258210414822134
  1029   3      16.319743530812943      22.306825620834442       18.34018359186901
  1030   3      18.326681917210323      20.241403485458225      18.326303293754343
  1031   4      15.759282584167025      20.103165726582809      19.992531068636389
  1032   2      18.134001324843101      22.215245180177387      22.228760192218783
  1033   3      18.452558076757917      22.225992405766156      20.297843648580248
  1034   3      16.260635712409734      22.224440756969805      22.335506719251924
  1035   3      18.438378691759929      20.248814136603919      22.381835897189827
  1036   4       20.17217160404649      12.157108907648245      12.491567102315386
  1037   1      22.246064043929515      14.125789217990709      14.175157419449624
  1038   3      22.265424683441676      14.434191706347146      12.056782083241997
  1039   3      20.195004601404992       14.21706075978026      13.964835187672092
  1040   3      22.245641206263425      12.124503836591307       13.86155564526846
  1041   4      20.007507323636943      12.150661809647969      16.371815984072192
  1042   2      22.288795453347941      14.161818145265997      18.057096537491763
  1043   3      22.262655889989865      14.179775781875357      16.202517575989351
  1044   3      20.331595576880588       14.05705855509537      18.391498632209892
  1045   3      22.419202808685064      12.175851610786861      18.275949539138335
  1046   4      20.038503799083173      12.262587381662184      19.999542803635865
  1047   2      22.216598821827361      14.070591411414922       22.24276041801124
  1048   3      22.316395235480798       14.19190938416714      20.360947193283813
  1049   3      20.316864475114251      14.218850209271869      22.429515599880563
  1050   3      22.305777092856502      12.177018962188029      22.458870801496388
  1051   4      20.175855975410947      15.944831344531169      12.251134708916302
  1052   1      22.277702914442369       18.24602524702637      14.063277894194595
  1053   3      22.372202668322867      18.094971625008299      12.065172041990213
  1054   3      20.235136393283828      18.217291469227334      14.311732370546045
  1055   3      22.390558110042363       16.19694653416903      14.227871635718708
  1056   4      20.551588170466985      16.489969441380715      15.871695605103397
  1057   1      22.262018202857767      18.209460666360709      18.239522864733441
  1058   3      22.342154834089381       18.12353763162875      16.236802394728404
  1059   3      20.228362432972656       18.22380954503906      18.457091121365618
  1060   3      22.252882125425099      16.126693171923254      18.402379416925061
  1061   4       20.20453655220113      16.112994963467752      19.888106338045183
  1062   2      22.267639745960974       18.04144219952812      22.283284136276869
  1063   3      22.459903104068747      18.217580758091593      20.352427851376532
  1064   3      20.353631795771378      18.287111154377286      22.278035006851898
  1065   3      22.384892235572782      16.165617094823993      22.426470942046738
  1066   4      20.462222986899611      20.638750340986046      12.031530771337662
  1067   1      22.276876560075639      22.242000847318504      14.167808078395737
  1068   3      22.337464591206889      22.203798230573884      12.140151037635123
  1069   3      20.241565335873762      22.173475415181013      14.330528875144815
  1070   3       22.33399487635225      20.233576991192251      14.302528775784543
  1071   4       20.45896677888453      20.172175956345288      15.770079277388399
  1072   2      22.253935198633208      22.157953919885568      18.193112993789388
  1073   3      22.369480720994535      22.310582066024324      16.311982601117673
  1074   3      20.337689168009227      22.273009199048317       18.36531091989449
  1075   3      22.412556874419177      20.283242714613294      18.388820324002964
  1076   4      20.139259575119116      19.978651069714552      20.088809090352193
  1077   2      22.344525267205736      22.104805774228289      22.274041686972708
  1078   3       22.34182179727782      22.485610317657599      20.301657261334604
  1079   3      20.372142888807311      22.405102594017826      22.296575346369693
  1080   3      22.370844034628266       20.24599031748814      22.217904522036424
