(written by ASE)

1080 atoms
4 atom types

0.0      24.299999999999997  xlo xhi
0.0      24.299999999999997  ylo yhi
0.0      24.299999999999997  zlo zhi

Atoms # atomic

     1   4    -0.25477144096919063    -0.27436312466592377    0.027257479738417422
     2   2      2.0038753511844218      1.9550938348108304      2.0044674438860635
     3   3      2.2353880081455073      2.0741194283779674    0.068942502501879943
     4   3     0.10322749915511203      2.1890105536773778      1.9507007780572763
     5   3      2.0591708024383859    0.076427091050724691      2.1693519760175088
     6   4    -0.31569842049613367    -0.11575898293916047      4.0505059187883345
     7   2      2.0542416615707357      1.9381880985955677       6.005857340498526
     8   3      2.0225234621528507      2.2383747598242127      4.0616679563918163
     9   3     0.12595904645286601      2.2367324925397956      6.1331673187789679
    10   3      1.9710925053991923    0.051040694923479055      6.0702265049213189
    11   4    -0.28619067419119049   -0.097266542129450323      7.9067072895067216
    12   2      2.0008211025295823      1.9571542847969474      10.008826785745795
    13   3      2.1437950319098933      2.0678243127718572      8.1006600344375439
    14   3    0.085514780072449059      2.0664759524041378      10.118001884449376
    15   3      2.1672343160764376    0.097161023657737197      10.232933466554144
    16   4    -0.14897763067317449       3.886578672786686   -0.026200891457230827
    17   2      1.9569389057036883      5.9715324896039643      2.0794915771676643
    18   3       2.056704480437916      6.3687721208008021    0.086195531298391664
    19   3    0.081170687030847413      6.1222514650601401      2.1008278514047865
    20   3      2.1748681412531417      4.1126208580196852      1.9248910290603514
    21   4    -0.21547866678296099      3.9287284842948997      4.2981090148310459
    22   2      2.0402662492206431      6.0340774676910813      6.1516098413966871
    23   3      2.2919696758036987      6.0523127862297041      4.0154527824643926
    24   3    0.078336411941524284       6.112028146657007      5.8740856033476874
    25   3      2.1440019545094615      4.1185942942167957      6.1438829200692719
    26   4    -0.26197647876820085      3.8640701193331486      7.9715088081919969
    27   2      2.0491823086994443      5.9738742949915604      10.229401456326405
    28   3      1.9424356728499548      6.3055188025208286      8.0758776525082858
    29   3     0.02281982336881334      6.2425904653203332      10.067195633445309
    30   3      2.0075584169671945      4.1049494185352948      10.060780466665777
    31   4     -0.1235765077455164       7.930757103175309   -0.053891380836179434
    32   2      2.0905241555564289      10.017677924148256      2.0479929597495619
    33   3       2.157229147479963      10.117641400456552    0.081176406584163377
    34   3    0.066940269693156862      10.341649264491616      2.0023167248446643
    35   3      2.0556398950165491       8.141839568770985      2.1808847275287699
    36   4   0.0062542451504714871      8.1922837684756793      4.4799305258507642
    37   1      2.0412716769991222      10.069001305041908      6.0760733523654595
    38   3      2.0110181255653408      10.434113927063784      4.0121914570766144
    39   3 -0.00076524540128669941      10.229707151514843       5.992863187152377
    40   3      1.9998932045924704      8.0723851422827231      5.8135077271689317
    41   4     0.15545637122449779       7.978098872361465       8.294131093724431
    42   2      2.1428469868644933      10.147612402650237      10.065377888919761
    43   3      1.9289947504178122      10.080700356560074      8.1465733369168429
    44   3   -0.083282485479053758      10.156398803269546      10.090971868119453
    45   3       1.869745653173104      8.1465382432876883      10.177804481557493
    46   4      4.1779744401440952    -0.30573699644675467    0.053589027440027255
    47   2      6.0738260732056606      1.9682571982945329      1.9679730797513892
    48   3      6.0303094953545813      2.0207601001101434    0.072507800009557588
    49   3      4.0875760595699999      2.0992301313924999      2.1919649141882016
    50   3      6.1041628984542156    0.080750514809803942      2.2457827188322854
    51   4      4.2086629007975684    -0.24038386880386664      3.8794023135091833
    52   2      6.1824597178120344      2.0014345694757325      6.1187062500644878
    53   3      6.0844180614577708      2.2435732619098605      4.1219151334249542
    54   3      4.0312475921629209      2.0755835949663997       5.991903547367726
    55   3      6.0371689374074764    0.073192079838887494      6.0781083695437905
    56   4      4.1451706078260742    -0.19427966487917248      8.0216053117979857
    57   2      6.1028791209854747      1.9819403894274106      10.176396128991241
    58   3      5.8806564073118839      2.0592307198303508      8.1062796206332077
    59   3      4.0520520500987143      2.2833707166189066      10.238368338473418
    60   3      5.9484280351158887    0.084402635796167622      10.208888558036636
    61   4      4.0578784039191884      3.8133725283521653    -0.18454809200626751
    62   2      5.9967567642583877      6.0464330930857439      2.0207184064479233
    63   3      6.2680815977465825       6.278591487836346    0.064129386739582975
    64   3      4.0958646228579596      6.2932406353475017      1.8993201907776216
    65   3      6.0419179776765226      4.1115251242913526      2.0458484782057149
    66   4       4.231044196588905      3.9118781457979197      4.2669177312540691
    67   1      6.1002210176239915      6.0524462167184998      6.0718573142581835
    68   3      5.9845000261725732      6.1739595189889496       4.007235994840042
    69   3      4.0258929344646139      6.2918920541023269      6.1318225270168938
    70   3      5.8706440400421434      4.0357419170775337      6.1875702774294359
    71   4      4.4556978307697781      4.1228587558410901      8.1341626892392576
    72   1      6.0790497188675614      6.0978535665018336      10.137795365799718
    73   3      6.0618524449974984      6.3367529142939825      8.1079604017934575
    74   3      3.9695165395594443      6.1950964419644352      10.035129803960279
    75   3       6.199251436577085      4.0699099682624267      9.9364881508751868
    76   4      3.8939630009237929      7.9770070234976922   -0.060101564235148543
    77   1      6.0484502421856838      10.113912660425132      2.0359620041400062
    78   3      6.2706086288240517      10.134583553535691  0.00030181854691768614
    79   3      4.0276610909514519      10.231205877605664      2.1894310293140862
    80   3      6.3651242852301708      8.0992382690245392      2.0936412242709586
    81   4      3.9826571421375734      7.8614211938237126      4.2792302323537186
    82   2      5.9942001392303377      10.091485534467923      6.0384230779183916
    83   3      6.2123725362745876      10.345643709888563      4.1288427932062364
    84   3      4.0751646538860999      10.272587939141527      6.0060084350630474
    85   3      6.1209817440182714       8.184423419965638      5.9696186752317137
    86   4      4.2858172867165321      7.8051063720035767      8.1312216151720182
    87   2      6.2490022778599732      10.114368135004874      10.093190596408276
    88   3      5.9623932514629185      9.9445194366471519      8.1259334749002594
    89   3      4.0131238553127009      10.129347364593469      10.245565191678208
    90   3      5.9816824018543144      8.1772144414527208      10.412187919203188
    91   4      8.1158321620525324     0.12011433668992058    -0.41776315601530717
    92   1      10.094344572915503      1.9687988407444146      2.0327841605471599
    93   3      10.194814400273275       2.042185289942803    0.033794872108887181
    94   3      8.0346765644588842       2.160253226396124      2.1618526071881745
    95   3      10.106214095264455   -0.038054634933950025      2.3757930784362569
    96   4      8.1873864174979651    -0.10223531045895513      3.8298602021843844
    97   2      10.260174470407849      1.9085224156388019      6.1305148498225588
    98   3      10.034398711303428      2.3083420026583155      4.1382973654539361
    99   3      8.0695064707050452      2.1865180101448454      6.0980743150386347
   100   3      10.011775989632731    0.032401354504763162      5.8923118332148681
   101   4      8.3641619257436393    -0.14183103580199788      8.4114753200753221
   102   1      10.098209401482702      2.0265530722672165      10.109062509938905
   103   3      10.058310258579585      1.9806223206745928      8.0319533979475164
   104   3      8.0319329858820154      2.0670248940266638      9.9874677785616353
   105   3       10.19520409716028   0.0024747563212367883      10.103473372016397
   106   4      8.2490437579799369      3.6598630684966107    -0.19080766525190587
   107   2      10.107731114225002      5.9883558524692768      1.9297536912030473
   108   3      10.067173092656919       6.229307235619296    0.057176771589293671
   109   3      8.1581306800815696      6.0498549222759497      2.2678129396720705
   110   3      10.264838550050337      4.0990525996846277       2.089487567173042
   111   4      8.1473193655855951       3.798322234152907      3.9233613999395756
   112   2      10.049089095505037      5.9808375880112807      6.0516962327200128
   113   3      10.307549846831769      6.0228181997210122      4.1051467512278315
   114   3      8.1579524075004901      6.2044944422274817       6.032912050218779
   115   3      10.145097362794656      4.0969301064568597      6.2104580706057808
   116   4      8.1768043814975027      3.9359056821026819      8.3571383942920416
   117   2      10.118446490234472      6.0614983569515299      10.267355546825256
   118   3      10.065927689536338      6.3404334470279249      8.0279696047818696
   119   3      8.1718261939281387      6.1883153264282242      10.070436439591131
   120   3      10.064988026041272      4.1057462201562602      9.8430029461173394
   121   4      7.7569382634235939      8.1880363739707729     0.08918690699837134
   122   2      10.128373415235496       10.02331859497456      2.0010365850545262
   123   3       10.22722937476267      10.115725920728142      0.1140478993247582
   124   3      8.2066677704162814      10.368204744816669      2.1118190672073482
   125   3      10.006424154929348       8.140407536826924      2.2832677511860546
   126   4      7.8313916534915933      7.9057533449249622      3.9493247366373625
   127   2       10.02976558442413      10.034777190964215      6.0826201211375945
   128   3      10.060252433012966      10.436748167809462      4.1509277445069861
   129   3      8.1147755026812458      10.284734730277751      6.2427462822331083
   130   3      10.184880905443253      8.1710110729240704      5.9440977921784528
   131   4      7.9493990231050988      7.7288715187618076      8.1197544882624051
   132   1       10.10243854791482      10.107483119488593      10.094585871593123
   133   3      10.368222419268083      10.126002805670897      8.0253196400815465
   134   3      8.0981883280342419      10.047188954242024      10.071579927988239
   135   3      10.412180656115648      8.0547027510999882      10.189268749495952
   136   4    -0.26502946540637512    -0.16515583107186799      12.036460606395332
   137   2      1.9626327921640483      2.0532909117327942      14.042793893499189
   138   3      2.0763822340826086      2.2370751341336512      12.139846955112514
   139   3    0.063135432920772547      2.0088147895427122      14.253595148702527
   140   3      2.2031114764569706     0.11283109552303955      14.198683298242447
   141   4    -0.22993232246466677   0.0043494459601430523      15.910677029120544
   142   2      1.9960300130615842      2.0012597830794148      18.136827684851518
   143   3      2.2168466949651351      2.0265119752281531       16.26532911221517
   144   3    0.090378747092550032      2.0890585943368012      18.311060695896021
   145   3      2.1671715791988229     0.09555176652055837      18.433269978510168
   146   4    -0.24095514529146167    -0.15963304163978934       20.18740177721762
   147   2      2.0349122029842004      1.9383907055397906      22.219474952087925
   148   3      2.0412527363835724      2.2151972097392978      20.330177299484614
   149   3     0.10179058274778786      2.1649092875274816      22.468784493465943
   150   3      2.1294088322795282    0.059547209254910256      22.286925353352938
   151   4    -0.34835934808079622      4.0290363755507359      12.351318529525294
   152   1      2.0421465151090223      6.0516601420077789      14.157598119713484
   153   3       1.999455428520698      6.1411434087423853      12.116428066085186
   154   3   0.0016605407116620677      6.1819076927855612      14.233390159180374
   155   3      1.9958918087245687      4.0293554522768904      14.400990352784335
   156   4    -0.22963119608673557      4.3068426186885578      15.825508418877718
   157   2      2.0500180582197447      6.0492521444054024      18.143565245940319
   158   3      2.0028633704235861      6.2304548627839713      16.257581061195292
   159   3    0.090648342096852033        6.06252440574118      18.477995312658514
   160   3      2.1839311393311354      4.0712712356831773      18.300376617405234
   161   4    -0.20925026667779764      4.0990502086678466      20.035443980598195
   162   2      1.9933448277301433      6.0525346649485261      22.247791814924895
   163   3      2.2240422704320895      6.0153160583827612      20.369210926435741
   164   3    0.091532262039228388      6.2458958149030428      22.333472110224072
   165   3      2.0793031047824968      4.1657123394769604      22.552100664409288
   166   4     0.27699764037159491      7.9191815254300959      12.253697128658558
   167   2      2.1045330929795192      10.059444716636904      14.256672893981952
   168   3      1.7535885778653446      10.126444727405069      12.141562571258754
   169   3   -0.067103049819697475      10.036965902553403      14.266617827286012
   170   3      2.0470954363674458      8.1473167802106836      14.093780767316851
   171   4    -0.12294395996969698      7.7483155930851257      15.929324474837664
   172   1      2.0507889032875415       10.06048034343673      18.182556616736587
   173   3      2.0095284049005606      10.197540337811322      16.146386674811225
   174   3    -0.04623892536079089      10.090387464277182      18.250445000839179
   175   3      2.0008697316080295       8.039466032863082      18.497383548021688
   176   4   -0.032029731392472685      8.0691262346981514      19.875501756448259
   177   2      1.9444318664434346      10.132406774182456      22.166380301180489
   178   3      2.0148410436730066      10.204332887009798      20.312419544652805
   179   3    0.053272395315485457      10.107554530258778      22.487215596876247
   180   3      2.2124914525752795       8.159874879954133       22.34981479931804
   181   4      4.2792238197109462    -0.27134451405344007      12.244522495673316
   182   1      6.0862395793952384      2.0510344692261477       14.13555763040449
   183   3      6.1051309928798316      2.3698109080362304      12.103131673751919
   184   3      4.0479772707021091      2.3090533655237087      14.147393163351142
   185   3      5.9864707466183864    0.039896220558803278      14.174585623234721
   186   4      4.2212250937093367   -0.033080548237893359      15.770674380045582
   187   2      6.1032998873609987      2.1451509638980086      18.120192371020391
   188   3        6.01694186655737      1.9627411066878009      16.243783661122951
   189   3      4.0805003818818033      2.0231503623978617      18.496946951888752
   190   3       6.086992347643652    0.048050511247666905      18.485026101589707
   191   4      4.1160624700006236    0.010826110047329607      20.031314548854439
   192   1       6.048193580947145      2.0160792387986617      22.274645247610639
   193   3      6.1842850915024572      2.1837455760272584      20.257253792430795
   194   3      4.0095886398978706      2.2758402850237962      22.286515896003792
   195   3      6.2913231928473001   -0.015560398088503707      22.213465332071294
   196   4      4.0769553091033135       3.812227009752184      12.131804674896809
   197   2      6.0769841751970608      6.0434424623647942      14.159280534289993
   198   3      6.1223538128488393      5.8570585312716545      12.172445541423924
   199   3      4.1076683711342223      6.0155266444309268      14.337867541763282
   200   3      6.3195381400570296      4.1176583137584641      14.350746057021928
   201   4      3.9427018403297533      3.9583493403125942      15.849179635598054
   202   1      6.0922266095030331      6.0617007432305066      18.236277802577355
   203   3       6.139042071828432      6.4527035022186547       16.14631777210192
   204   3      4.0365350813844536      6.3160074735895462      18.187520668836111
   205   3      5.9772614461592717       4.035651031118495      18.206289166222511
   206   4      4.2155620801904066      3.8235299372249569      20.160778226613026
   207   2       6.050990360978683      6.0231210210574533      22.219242597198487
   208   3      5.9593759666122672      6.0593910580399486      20.355388094037796
   209   3      4.1093525684166989      6.1805564143733447       22.56607827644995
   210   3      6.1029077283261426      4.1508856319260863      22.471927236015375
   211   4      4.2467127700847662      8.0903315231527486       12.10732632525519
   212   1      6.0454865871185097      10.079935654897685      14.150798302448631
   213   3      6.0642199929792229      10.425233107517506      12.053601015201052
   214   3      3.9839630246471951      10.243954418598287      13.985470710631532
   215   3      5.9784131517304475      8.0826690031619037      13.767183967284115
   216   4      4.1136715332119458      7.7913686118666821      16.161044732954043
   217   2      6.0346232966389151      10.090031264212254      18.042074621066906
   218   3      6.1384245918761824      9.9314457314788811      16.175782475669514
   219   3      4.1219865058915506      10.066171850799693      18.337609140351894
   220   3       6.134587684204666      8.1550265928890742      18.478083827888767
   221   4       4.041549507770716      8.0587891399322018      19.884161363540816
   222   2      6.0106926801328679      10.103066596134941      22.221471894729756
   223   3      6.1751422111437675      10.277249015669144      20.340325639940367
   224   3      4.1061194854754257      10.219234325188687       22.40192194059733
   225   3      6.1560481609358702      8.1700242334590349      22.351723001045656
   226   4      8.1538590707228078    -0.55599426230440996      12.207159691854402
   227   2      10.096727107631764      2.0415018783276437      13.983598726684923
   228   3      10.146826246693848      2.2096513944249265      12.129127333855322
   229   3      8.1593813005779019      2.0079129951394252      14.335243960134186
   230   3      10.271568818416887    0.076704813472486894      14.186216341903261
   231   4      7.8923568487648703   -0.076987932079259622      15.727160400958011
   232   2      10.168989785664197      1.9195490625040252      18.200347877122372
   233   3      10.176016803684558      1.9678586374626479      16.275855639082884
   234   3      8.1072970102945252      2.1176652014475525      18.269482136381804
   235   3      10.120936280842415    0.033124864293291242      18.419431318179047
   236   4      7.7921662490599957   0.0088110532362175257      20.215342751019879
   237   1      10.088889733273167      1.9826987522339794      22.202514125945452
   238   3      10.065932446412001      2.3186600638708241      20.200694078426526
   239   3      8.0952754153409519      2.1680610374469951      22.372461083990082
   240   3        10.0283484712652   -0.043290436071947234      22.383102071464691
   241   4      7.8018403013787028      4.0811254956183136       12.03933255624473
   242   1       10.14563771590133      6.0431686835750327      14.163407919122138
   243   3      10.282733759675418      5.9705795299394371      12.131222034126598
   244   3      8.0957823387763259      6.3585442543965058      14.179174926028304
   245   3        10.0490119110425      4.0153850146104668      14.423690886933718
   246   4      8.1963660523634587      3.8882807893052069      15.930023107591735
   247   2      10.067917499321645      6.0142368937313799      18.143270852120605
   248   3      10.126940565448994      6.3193430663311032      16.250844370651119
   249   3      8.1595375385997411      6.2111223031682563      18.269252671963333
   250   3      10.148895465096603      4.0987838638218186      18.113525040694427
   251   4      8.0777377073512451      3.6515798523493146      20.377391117390353
   252   2      10.037720964712305      6.0829854085783843      22.173960191035906
   253   3      10.221472090745475      5.9866521882042907      20.308076410133538
   254   3      8.1200451545267907      6.1571432386849656      22.275090698333166
   255   3      10.137221761662085      4.1774104401171606      22.503910265552229
   256   4      7.9355288920212086        8.04655472160076      12.330390822378414
   257   2      10.050653689688028       10.05674551075456      14.213818059728888
   258   3      10.363421309926396      10.146249065429448      12.155184375560125
   259   3      8.1494446739443624      9.9280647103868418      13.992843176564264
   260   3      10.409047032916293      8.1160158918983729      14.047869829209278
   261   4      8.0579497919306124        7.86958447016353      16.146167946453435
   262   1      10.134140192221992      10.105050113876617      18.114744535313875
   263   3      10.200757777636747      10.011144341450354      16.109768695671967
   264   3      8.0927351117479542      10.080628636492774      18.410977440786304
   265   3      10.159484403167788      8.0585298488083499       18.49122201630658
   266   4      8.1214268596266947      8.1655652857056253      19.860458137008511
   267   2      10.133794513502512      10.042779405714809      22.250160201861039
   268   3      10.147032147832389       10.29699512214415      20.379338795700033
   269   3      8.1846735803141328      10.192402984501246      22.405316383764124
   270   3      10.192792968677532      8.1262168438999414       22.31639731225355
   271   4   -0.089541917507816232      11.896388013150315   -0.040063011519764546
   272   2      1.9341824729255208      14.157480275093882      1.9246911459958054
   273   3      2.0493140270917118      14.386344974141974    0.047466392615868783
   274   3      0.0349501021369064      14.239730908708051      2.1192702602584292
   275   3      2.1795706768057568      12.242119167517648      1.9252567176905004
   276   4  -0.0069746691748504607      11.782685567139032      4.1889563606894837
   277   2      1.9911955989947168      14.139974882079386      5.9884283394601097
   278   3      2.1756956941721963      14.079602215619381      4.0658605158564809
   279   3    0.013341307716412657      14.286391724350489      6.1426323537412353
   280   3      2.0080004695099234      12.202003667244837      6.2841593212021873
   281   4     0.10933315917612271      11.772355084647396      7.8264125576942245
   282   1      1.9578415991918221      14.074636473455799       10.09563003472673
   283   3      1.9441189031882227      14.412909123087587      8.0892550290915999
   284   3   -0.093347971276246264      14.381667321565986      10.193081729378836
   285   3      1.8406251797115398      12.068868277924839      10.174682633923769
   286   4    -0.13585043748792588      16.069242741540631    -0.28302602334304433
   287   1      2.0195278006547324      18.184808412126159      1.9210401772458077
   288   3      2.2347447340948072      18.196772832345474   -0.092630736099506575
   289   3    0.010902074272391076      18.189581535962983       2.252552675966947
   290   3      2.0325576948436219        16.1566116254123      2.2845547778602509
   291   4    0.025735341788374069      16.283875935483753       3.697983786715529
   292   1      2.0150709888728491      18.186295639280036      6.0894097254303796
   293   3      2.1606590553056888      18.374835714255145      4.0717908731044501
   294   3    -0.02210578148509916      18.448930135518911      6.0766724994739221
   295   3      2.1766720122105285       16.16553517623683       6.025992419433388
   296   4    0.087534052516351463      15.883099856942026      8.0660014312189787
   297   2      2.0492486926905431      18.130231859403469      10.152208708204524
   298   3      1.9402808876788422      18.303093563894883      8.1780203589441864
   299   3   0.0049822953725431017      18.283138096945134      10.310190150053721
   300   3      2.0643479882519591      16.239206753050691      10.273050536469199
   301   4    -0.39363686554244831      20.430490257817283   -0.096585632090439771
   302   2      2.0364881966290604      22.178439252025015      1.9344073429814228
   303   3      2.1743283372419109      22.449470884262517    0.017921517662527107
   304   3      0.1252127273876007      22.360209451528949      2.0296770221730829
   305   3      2.1508632177839808      20.295408114817775      2.0462618241635546
   306   4     0.18598563326448733      19.859855445005245      3.8771060078822006
   307   2      2.0589368823395735      22.190459601843859      6.0126457546059688
   308   3      2.1089091327069731      22.271594091855544      4.0991114923421579
   309   3    0.084504297360330785      22.279815211402806      6.2057269966062449
   310   3      2.1075324093774888      20.327556563968667      6.2553243304545401
   311   4    0.070379876703603475      19.978576409232488      7.8897305817789132
   312   2      1.9613269182558968      22.221839168512723      10.060584989020981
   313   3      2.1127020303508171      22.484487513387638      8.1439668392702558
   314   3    0.085983513941959702      22.493108363552444      10.194616293850677
   315   3      1.9688334967136196      20.343878190333548      10.070484490307749
   316   4      3.8599747355279748      12.065655939094231    -0.18787164171032295
   317   2      5.9598112246664492      14.138089292316481      2.0763058358289683
   318   3      6.2918355046236965      14.259923606016237     0.10391912575289686
   319   3      4.0815374127559032      14.334780419348659      2.0054001450614707
   320   3      6.1518991758389561      12.231859212147031       2.020422329485938
   321   4      3.9300388817033585      11.875235777322489      3.9455884150152727
   322   1      6.0285541192435597       14.13974042490085      6.0388470888163335
   323   3      6.2027362562278405      14.198301397287599      4.0187412397541484
   324   3       4.002805457773273      14.113362048541548      6.3481762133149546
   325   3      6.0817759267524547      12.123116544280544      6.4018426749141817
   326   4      4.0547688392785588      12.152231313384018      7.7847045078385548
   327   2      5.9088199985649439      14.176990948353557       10.06092734340487
   328   3      6.1958320167488772       14.32364287700732      8.1577560458572691
   329   3      4.0131021486990361       14.21123843941051      10.091095905104083
   330   3      6.1004785533835033      12.149481692744191       9.896329414659105
   331   4      3.9241994521873536       16.08684666312076    -0.29976997763707375
   332   2      6.0356256972821587      18.275543406854499      1.9418680523411203
   333   3      6.1379170301809935      18.182782469532331    0.035584219406010149
   334   3      4.1212422712428713      18.151370024642425      2.1278577413799846
   335   3      6.3318687566425851      16.232231697629476      2.1268267986936142
   336   4      3.6588516679577698      16.384922932297918         3.9621429862027
   337   2      6.0514936336765599       18.07353451603284      6.0942903925189142
   338   3      6.1189232981238932      18.346267680705242      4.1000430973099773
   339   3      4.1095153816297607      18.332575864073306      6.1612256933038188
   340   3      6.1680071588253291      16.199645657567167      6.0535899289367165
   341   4       3.800604382521271      15.901174033667578      7.9146974311014588
   342   1      6.0307108177460655      18.131613380879333      10.087726347070621
   343   3      6.1591655231717874      18.298488521595367        8.05999642096263
   344   3      3.9848792845990149      18.378947098636292      10.108941400779905
   345   3      6.0375394535702789      16.114734120169416      10.358361329386335
   346   4      3.9712727388213782      19.907222090411707    -0.21168251754873094
   347   1      6.0778162724494527      22.208634431984162      2.0179261803147019
   348   3      5.9929989565962138      22.469903425283889   -0.013162517377030326
   349   3      4.0174297251290199      22.527117993664415      2.0904182052727323
   350   3       6.059355997716998      20.186313081723831      2.0052732344603279
   351   4      3.9055054411148196      19.923477614540321      3.9391819128621188
   352   2      6.1659814078920245      22.212827720571454      6.0117122843783344
   353   3      5.9730539994138452      22.349072438558931      4.1374198653746603
   354   3      4.0379946730614931      22.475081566022439      6.1829382603768659
   355   3      6.0160630207477164      20.341773571956608      6.2265855876921066
   356   4      4.0474315569005803      19.858442104664775       8.057840595545537
   357   2      6.0323971867145643      22.125196527297422      10.083548756717816
   358   3      5.9900969639794601      22.492365969061758      8.1251076598827332
   359   3      4.0567303048313557      22.383745536820207      10.166924262802475
   360   3      6.1366684242094269      20.265910562608695      10.095523463336933
   361   4      7.8180929820750746      11.944923511253755    0.013347643333849876
   362   2      10.128034271927547      14.082129095766533      1.9069268407858402
   363   3      10.106572761380807      14.377672095754713    0.035966073230006217
   364   3      8.1906530425338282      14.209091039090607      2.1753057774983331
   365   3      10.284614376868184      12.204038529530859      2.0749879782847778
   366   4      7.9407376623616104      11.992149876352228      3.8669671700861286
   367   2      10.147088126918266      14.154089129750663      5.9611770799520682
   368   3      10.168046522811968      14.208657702340791      4.0734041189893242
   369   3      8.1491243416234678      14.152418816618137      6.2413605919477355
   370   3      10.172002677621773      12.237188020360735      6.3056117850712958
   371   4      7.9203832434289652      12.263683816969831      7.8465735779007248
   372   2      9.9746985043380469      14.100623692107648      10.115870997548795
   373   3      10.107542539818482      14.353136046066005      8.2027236173588207
   374   3      8.1049956486207115      14.229193074392853      10.238478814529689
   375   3      10.209054524988504      12.225297663917118      10.059376943125981
   376   4      7.8427868821958713      16.049751246928036    -0.16381736642246553
   377   2      10.138248791685779      18.089133954732954       2.036052284474382
   378   3      10.197421920274229      18.315292778093124    0.058612597629326753
   379   3      8.1615287553242393      18.383780586188816      2.1066362030200212
   380   3       10.07792880535232      16.231125246873141      2.1992960176608167
   381   4      7.8977812280132556      15.949667327456673      3.9534806633221655
   382   1        10.0905990021646       18.18873971081225      6.0345309419283373
   383   3      10.118382902666355      18.517997790884991      3.9902988138008197
   384   3      8.0331442309212484      18.455364658535249      6.0505715194072351
   385   3       10.00895586127449      16.161257368681589      6.2482348727666954
   386   4      8.0615995206343047      15.996084452287745      7.8176579315034482
   387   2      10.029683519633778      18.187664321021447       10.05424754693445
   388   3      9.9410117663367448       18.18965864389094      8.1540738671214186
   389   3      8.1220792763596581       18.25291810438717      10.322228943474823
   390   3      10.227380328251712      16.202094925697931      10.296412487819731
   391   4      7.9306819521947114       20.13005980737719    -0.21210490034303697
   392   2      9.9873524815182542      22.280145961413261      1.9392599654553431
   393   3      10.217218520980282      22.436096194756821    0.077622600547404483
   394   3      8.1211799845774504      22.315709463415722      2.1581301364286749
   395   3      10.279479917055603      20.356448879614994       1.998702958005508
   396   4      8.1473539817057308      19.932776866692567      4.0369710584721137
   397   2      10.212743536932329      22.127466591058596       6.081070679125224
   398   3      10.143779832363101      22.226329615263911      4.1147296584764943
   399   3      8.0776648841056549      22.322533397487625      6.1066806617376974
   400   3      10.085000212457077       20.28519966265468      6.2138921015439426
   401   4      8.0971579123955468      19.902176193206593      7.9582507160352316
   402   1      10.030839876398499       22.17513205369514      10.105905198026264
   403   3       10.07063457040082      22.491282733762038      8.0359213944405852
   404   3      7.9996774347173591      22.474374857936276      10.100976138024587
   405   3      10.234075928450295      20.174866087655413      10.150902097757106
   406   4      0.2513563299847969      11.972375405488853      12.007050433461778
   407   2      1.9355713414360085      14.216373678491962      14.130545151143759
   408   3       2.006327211790548       14.21075050057931      12.160710315341335
   409   3     -0.0443846530295708      14.382047071503258       14.16035096419853
   410   3      1.7653329321632607      12.136700372540108       14.07311754495715
   411   4     0.41100025435155441      12.086814274087823      16.323815774817675
   412   1      2.0152239202488489      14.200722487983123      18.143749079327083
   413   3      1.9594225689152505      14.018706450829889      16.124766168049536
   414   3   -0.020008240253059119       14.22402221554853      18.287369166720456
   415   3      1.9219770458525742      12.113766708919197      18.239863106954473
   416   4     0.25259542942453239      12.383514262662629      19.859948759910484
   417   1      1.9778821386319234      14.108882293283116      22.251548152688812
   418   3      2.1483001642680648      14.063994918115522      20.252007758667624
   419   3   -0.071264782379100985      14.317833635437839      22.336086415450367
   420   3      2.0849989532701345      12.072543730637577      22.517121148862564
   421   4    -0.12062225314118151      15.974244636967111      11.944538395346541
   422   1      1.9457857094044104      18.205583817033364      14.167428879452562
   423   3      2.0615233142771392      18.446222056547064      12.122685211145676
   424   3   -0.078982733374192926      18.391706466437277      14.176617272615227
   425   3      2.2206983499223174       16.15099505368087      14.156057750560445
   426   4     -0.3128880977609384      15.916222235141108      16.468955613466175
   427   2      1.9959319510192277      18.177398205633754      18.137029254544611
   428   3      2.0920782822924924      18.250618602372711      16.256974455757565
   429   3    0.095955413030424763      18.345231195217572      18.268130942705579
   430   3      2.0673956751806934      16.269445566219954      18.369592921999445
   431   4    -0.19246134371292253      15.942465396615598      19.916229467797105
   432   2      1.9839927785191911      18.094043887618074      22.230153447742051
   433   3      2.1131274350766116      18.433980991878837      20.274952897081313
   434   3    0.066478290322029399      18.175621435603212      22.303101041967007
   435   3      2.2155457356952497      16.209764173486054      22.215284324077803
   436   4   -0.069866511840991852      19.935134303917216       12.16913542289638
   437   2      2.0225263714497426      22.209733376933723      14.081686090339959
   438   3      2.0663748873043506      22.385777158052267      12.162265204660326
   439   3    0.081564626341125199      22.485297542481877      14.246302898473415
   440   3      2.0070027364007452      20.349916029282223      14.289488597874964
   441   4     -0.1759169177436305      19.989636368337774      16.068104723482421
   442   2      2.0272603078538873      22.232913409118282      18.098304622782187
   443   3      2.1224303954026107      22.485136089486918      16.229255354946797
   444   3     0.14334018821251332      22.450196571482543        18.2932116153845
   445   3      2.0973565518592943      20.352904180844479      18.226358788824442
   446   4     -0.2673764135328115       20.17813979117329      20.143880354446409
   447   2      1.9959756110847526       22.21142782232705      22.163978247980253
   448   3      2.0891535790427103      22.351299348065922      20.287083885023549
   449   3     0.11691650151365371      22.373303955114753      22.375362443203823
   450   3      2.1114849700899492      20.324820793083983      22.405806524005556
   451   4      4.2417809006292089      12.102821655702478      12.423686837721339
   452   1      6.0078546661007159      14.132364137604304      14.134642523719101
   453   3      6.0787752565606876      13.935001612452078      12.092228056780746
   454   3      3.9669982276764686      13.985183372250869       14.20055481074378
   455   3      6.2516334883053011      12.105895427783391      14.174710012941128
   456   4      4.0946959892457375      12.664396167269093      16.308961075944307
   457   1      6.0934619679366291      14.140805634423993      18.230641683030029
   458   3       6.214691745503047      14.098864972141806      16.197200008602056
   459   3      4.0626682729827452      14.054645080904244      18.224826512428503
   460   3      6.2304378329550332      12.067491763426379      18.159841138913659
   461   4      3.7533806003094647      12.304284803679142      19.843973494046942
   462   2      6.0487605122245149      14.155577391923813      22.163681999833155
   463   3      6.0533925353711364      14.094448726658639      20.302171620291254
   464   3      4.1428749265692257      14.118393461632785      22.506138729643364
   465   3      6.2030148076630836      12.165423735329066      22.498153742952955
   466   4      3.8231282697417996      15.926080563296386      12.029360449325972
   467   1      6.0631539084007207      18.195756491458308      14.168972537100307
   468   3      6.0835638553752558      18.326435001896339      12.150725152096364
   469   3      4.0261186366828188      18.322672975710983      14.257585953303483
   470   3      6.0624790960774533      16.159471741916811      14.197910561131382
   471   4      4.0671269597081139      16.391551029524681      15.679807872956326
   472   2       6.093089034277857      18.069329841419709      18.189518994551854
   473   3      6.0410757384119114      18.225921029218213      16.267369084733595
   474   3      4.0803071035575647      18.340784886191329      18.337117458245871
   475   3       6.123101709235355      16.191318250887683      18.331886735876306
   476   4      3.8009514491332301      15.775250992814588       19.97855460033562
   477   1      6.0699983857030002      18.144559187858079      22.224723471277908
   478   3      6.0796057504467633      18.452687895137881      20.223174559494709
   479   3      4.0547656990968557      18.402415233914237      22.255083136922647
   480   3      6.1107047092100535      16.110321975781176      22.417537331163444
   481   4      4.1406586689873874      19.738272056426151      12.270214695164407
   482   1      6.0457581638644982      22.271283241981667      14.116916939974216
   483   3      6.0873355752782263      22.379917649316912      12.070886436185617
   484   3      4.0068916398388694      22.375667660071315      14.196723992604843
   485   3      6.1292224175479237      20.263470755236799      14.295431604823358
   486   4      4.1906475750030809      20.037059104487803      15.805186175016603
   487   2      6.0430799043729007      22.224379483209702      18.158311659374323
   488   3      6.0474353452340148      22.420305342762692      16.275435613798948
   489   3      4.1065962513548087      22.438271931628236      18.401442532300603
   490   3      6.1501544166570401      20.328602737614005      18.225776836583137
   491   4       4.142142138675653      19.852054582741918      20.286467855965995
   492   2      6.0473350072578835        22.2495409180321      22.310630880783844
   493   3      6.2431860784140749      22.288440348449573        20.3091212925573
   494   3      4.0896505485425196      22.399631935833664      22.307722769137374
   495   3      6.1443210045023573      20.307073895898277      22.440656266288546
   496   4      7.7511051374666193      12.143055763868142      12.372375499505027
   497   2      10.186826673957638      14.082725203832458      14.049858829489407
   498   3      10.313272010072644      14.193610904044956      12.155211335587349
   499   3      8.2163149783646769      14.265028472509169       14.19033900535446
   500   3      10.064703865836341      12.152560455011381      14.189062522670907
   501   4      7.6748936125422036      12.270892309002368      16.008509821119631
   502   2      10.088908759157393      14.128919791716353       18.07265346801001
   503   3      10.085388595029123      14.296612046766912       16.20508246050089
   504   3      8.1782345883028995      14.198855966390555      18.410039413330708
   505   3      10.196129557863401      12.216317605158114      18.342306499668361
   506   4      8.0451185176001907      11.968970843760047      19.876097024933259
   507   2      10.147602549884182      14.023819053321162       22.22101251053266
   508   3      10.244205580628954      14.169927836373857       20.32844540102149
   509   3      8.1613823903629896      14.275019520744966      22.332717269185178
   510   3       10.15179412618903      12.166306482551045      22.491693416377252
   511   4      7.5515191654875853      16.256753332091556      12.178235743422848
   512   2      10.030556080122459      18.124506989947054       14.27387247779447
   513   3      10.323936666195415      18.263203698532443      12.225313854086187
   514   3      8.1380110595043362       18.22915700564009      14.148124225017934
   515   3      10.301350293339025      16.209126071513065      14.158954371023253
   516   4      7.6873032474680905      15.914235935434615      15.908312601169042
   517   1       10.08505566475815      18.168242484050875      18.180929173634681
   518   3      10.250588778405126      18.257456772278456      16.167195739804917
   519   3      8.0498033445488595      18.229212741454692      18.412702962110135
   520   3      10.132167742371621      16.133007733290647      18.512865518070956
   521   4      8.1668553868895142      16.101542089652288      19.906099828442613
   522   2      10.047210614799182      18.136637649203948      22.230807059349804
   523   3      10.144418061153736      18.436515042696669      20.355625820353168
   524   3      8.1475787829795649      18.346920473598004       22.37127438803731
   525   3      10.150563626414703      16.261374407750608      22.250306143281104
   526   4      7.7170836217047496      19.938862519536812      12.136107034881139
   527   1      10.093433926587743      22.269219499936892       14.18598678060858
   528   3      10.164667608060265       22.28799636127307      12.156989228845255
   529   3      8.0869927597994966      22.397997685123837      14.262769820579928
   530   3       10.18530716289499      20.211883764750084      14.255616951177593
   531   4      7.9191288881996051      20.384445423454334      15.711352847378068
   532   2      10.061040371162628      22.245960607783726      18.108277204120505
   533   3      10.219988358422707      22.367060410256723       16.24688661509224
   534   3      8.0867929638240135      22.402016110265819      18.246424094416906
   535   3      10.144922257510702      20.324527109797831      18.268296362001756
   536   4      7.9647092726011666      19.962279964764726      20.097963109570102
   537   2      10.126444098462454      22.247010389138278      22.180079823216992
   538   3       9.987812559662494      22.227624251109134      20.304396129366214
   539   3      8.1245181078898661      22.251118434960958      22.540585302370893
   540   3      10.141335373410492      20.303946988507668      22.539217207119666
   541   4       11.94412116395306     0.23460500176483287    -0.41637681244081526
   542   2      14.077524933118898      2.1387889956563919      2.0473842964023725
   543   3      14.184525300930297       1.925422884003628    0.099340494941855886
   544   3      12.178843734861122       1.904690801137739      2.2726883273734666
   545   3      14.347708199267064   -0.027913053562582297      2.1487330030287235
   546   4      11.977374324702843   -0.056978368294565526      3.8917574282298286
   547   1      14.132589676319725      1.9659750586609064      6.0847836303042415
   548   3       14.44382616902743      2.0008546329276271      4.0198688107582852
   549   3      12.124433448725556       2.030454246561932      5.9587230277208114
   550   3      14.390402965316508     -0.0540841883954324      6.0274387964371448
   551   4      11.919507526478158    -0.28020768703956533      8.4357852062001744
   552   2      14.101151817415115      1.9597774038658264      10.136397348432261
   553   3      14.398251344372385      1.9221483756986537      8.1282920412224158
   554   3      12.166559429725131      2.1438245120996191      10.087353859622924
   555   3      14.333337704198247    0.023743194935072518      10.178312158142425
   556   4      11.917541082458797      3.6786213049914354    -0.23040783259094985
   557   1       14.13737689128252      6.0166262214473107      2.0076389697748129
   558   3      14.207635946786636      6.3589581250717364  -0.0083455545125713237
   559   3      12.067741314857276      6.3299913359343885       2.031541264404467
   560   3      14.070341538851933       4.009303910410237      2.0786298248854025
   561   4       11.93412433731592      3.8287760544073173      3.9314821219852547
   562   2      14.099368640296257       5.918041429692015      6.0920713978412726
   563   3      14.111037889708824      6.2315781799373546      4.1146781469762592
   564   3      12.158916580392114      6.1608540263475566      6.2058692097906096
   565   3      14.265485429466024       4.044818845927205       6.078162593068317
   566   4       12.11105100834811      4.0284810588691764      8.4008696012792807
   567   1       14.14311473683469      6.0505883649073446      10.093229762213845
   568   3      14.334546535061286      6.1755507905803881       8.021689456159887
   569   3      12.098099686691031      5.9384315050862284      9.8124386823859044
   570   3      14.170403650409828      4.0000044932892314      9.8800659969719344
   571   4      12.362803724855322       7.890932190154003    0.031562692023882656
   572   2       14.29912294155428      10.126748415791694      2.0264586722371583
   573   3      13.975099690073527       10.07866298467192      0.0975134856808752
   574   3      12.094605384131517      10.107687573638977      2.3552395604367162
   575   3       14.14062680653373      8.1852489241529458      2.1931549273990116
   576   4      12.231783455412213      7.8372769664861259      3.8613626854844307
   577   2      14.051051026313012      10.097363118398906      6.0623333916443807
   578   3      14.238424947501157      10.276305034973261      4.1057875147745158
   579   3      12.163751973600798      10.326898623286134      6.0093888584978057
   580   3      14.171787063795186      8.1880776558287227      6.0828116280130837
   581   4      11.977545127874309      7.8887722012616823      8.2980805473628401
   582   2      14.227456196980006      9.9830758930845214      10.092857504083828
   583   3      14.198720902477405       10.28319271571851      8.0691527647328112
   584   3      12.250480411346011      10.368751645799438      10.104589845449022
   585   3      14.012377857596332      8.1204360651585041      10.040922943897348
   586   4      15.895894993102536     0.10967611181135127    -0.35133790476774318
   587   2      18.135023772054296       1.927103578393826      1.9976026229758419
   588   3      18.377351988575164      2.0710926380013652     0.10072981140063572
   589   3      16.247076108809974      2.1305449771575349       1.974361992570236
   590   3      18.224327924723493    0.038792748323913863      2.2051658629817359
   591   4      15.916365045374892    0.028200465686340589      4.1719046839396734
   592   2      18.261796374897138      1.8707702453745485      6.1681022668984253
   593   3      18.209970919226567       2.273173294771945      4.0120750949257316
   594   3       16.28549827199782      2.0982404929796146      6.0318951403148864
   595   3      18.216306770886696  -0.0083145624025226655      5.8864685637107108
   596   4      15.893488182729818    0.033296248004907832      8.0314129082247092
   597   1      18.208551905598309      2.0000407303604817      10.114885500335737
   598   3      18.274090291516735      1.9837971737774001      8.0752417883967187
   599   3      16.176188918338539      2.1438891423112341      10.227899662300036
   600   3      18.182532897472871   -0.029253173861626049      10.415999155541872
   601   4      16.115574064197602      3.7823116234721756     -0.2839609136997614
   602   2      18.083427439014873      6.0350345502968565      2.0583595287764425
   603   3      18.262667723069271      6.1836964747797349    0.065779021594627882
   604   3      16.205907260713925      6.1569023054470913      2.1242097095920331
   605   3      18.381257775337794      4.0927352781508706      1.9646957258749853
   606   4      16.131660708453222      3.7531501695912355      4.3215985265710009
   607   1      18.156979831298273      6.0586842028519738      6.0566935823644199
   608   3      18.393751579820574      6.0899719468178102      4.0108430565244868
   609   3      16.128694286201117      6.2876929762503915      5.9853844896389523
   610   3      18.331510526897866      4.0362468869088275      6.1096529295423512
   611   4      15.954826853507139      3.7831257928375819      8.2256368532053532
   612   2       18.06087019918612      6.0404921393049733      10.063261031597284
   613   3      18.232222937331695      6.2434196149099099      8.1147739092605438
   614   3      16.207669163365566      6.1104856704610597      10.117212247366924
   615   3      18.320347907689268      4.1091855344996278      9.9573277864847576
   616   4      16.008830785877453      7.9296942356574185     -0.1054140512664799
   617   1        18.1764862035634       10.10228762397044      2.0675093856147302
   618   3      18.340153605171945      10.185535870516942     0.02185267315799987
   619   3      16.165771026767626      10.200486989749425      1.9407880757471903
   620   3      18.409908146710364       8.046932126161332      2.0880188807969104
   621   4      15.983529146387315      7.7718795831993148      4.0689901020470991
   622   2      18.087569543542195      10.138491363301155      6.0448734551556909
   623   3       18.40233448654471      10.133254498073775      4.0744802405355651
   624   3      16.186488690514945      10.067851459426221      6.0966285668501676
   625   3      18.409861583157916        8.14528274529032       6.021528125433866
   626   4      16.060969238756755      7.7812411458269759      7.9542577383459703
   627   1      18.164590623841903      10.138615016444305      10.033933682900146
   628   3       18.44607888197968      10.047553363657888      8.0301361867008794
   629   3      16.167595468943716      9.9931483824911638      10.126092121666096
   630   3      18.422926771519577      8.0168963051805076      10.212697844136608
   631   4      20.417669346734844    -0.47418826610028308    0.043427576470625423
   632   2      22.185075167799301      1.9949994575234131      2.0862218289576338
   633   3      22.387908145131057      2.0965197002806795    0.036915604803951334
   634   3      20.303210607645237      2.0622364068396597      2.1151289066096717
   635   3      22.456964202630122    0.096726982116849394      2.0617748023065277
   636   4      20.076513188743355    -0.34974888660026343      4.0593046635824059
   637   1      22.238748575961313      2.0115916591612311      6.0584831198306359
   638   3      22.517805896323956      2.1342618279517773       3.988047183765552
   639   3      20.221203266870273      2.0662603276099372       5.973141114248163
   640   3      22.546624935895299    -0.01191192450098166      6.0188720219827188
   641   4      20.316740525758366    -0.32516359389670724      8.0223750731380399
   642   2      22.202532286337679      1.9677330023128607      10.092861537528064
   643   3      22.424833244485551       2.009277236124734      8.1421866398142679
   644   3      20.297568862615133      2.0791227675527288       10.20692166498306
   645   3      22.349431375883736    0.073666639911067797      10.274629996888322
   646   4      19.929036958046506      3.9520183658988244   -0.073581492274877369
   647   2      22.189132329775546      6.0098470576087015        2.08035777256356
   648   3      22.546016461188817      6.1722947443251144    0.054906788103591828
   649   3      20.338464700025259      6.1076560534067079      1.9437850261268905
   650   3      22.409708480142736      4.0908342280687036      1.9345817759079902
   651   4      19.930389895999525      3.9737914161898473      4.3198215607095962
   652   2      22.169894799570674      6.1370944002397545      6.1431927275517211
   653   3      22.318561107404111      5.9995043458854225      4.0149949065760602
   654   3      20.296044321352294      6.0517607222714123      6.1382351782906781
   655   3      22.446306275829183      4.1322373956102894      6.0881136757744789
   656   4      19.855713282036564      3.9824840845938749      8.0157306249240392
   657   2      22.209997552794725      6.0183983170909388      10.174204937498786
   658   3      22.501818521600363      6.1690741717097239      8.0529724233455973
   659   3      20.331909799863077       6.033054574510329      9.9840191539089211
   660   3      22.444510134473905      4.0868329235751979       9.967277633967969
   661   4      19.775862800082546      8.2152229869969187     0.05722526063037351
   662   2      22.257037457344772      10.022664194991226      2.0563332749258385
   663   3       22.40468617603776      10.211710669432545     0.03834791159608629
   664   3      20.359315985819929      10.237574350768746      1.9984230708955282
   665   3      22.426928951366516       8.121567474959269      2.0273625350748281
   666   4      19.859870018167008      8.0712751492600958      4.0978568095660499
   667   1      22.251746383599741      10.085393111206306      6.0554765523252145
   668   3      22.344219091814242      10.323969630569607      3.9654879003978594
   669   3      20.247886299204222      10.340958182199651      6.0200602975689321
   670   3      22.367058386211916      8.0510212799778564      5.9115430145135903
   671   4      19.870005730492316      8.0852355136114511      8.0134105656580008
   672   2      22.267290949562067      10.020859329724704       9.990977245118378
   673   3      22.179703316568425      10.207146969596497       8.117270290958162
   674   3      20.314438687364138      10.162791894093145      10.271852809156714
   675   3      22.280103666356428      8.0998189894581838      10.128413206557321
   676   4       11.75559165686156    -0.35378786473855495      11.848637713107514
   677   1      14.152610811361829      1.9874210443291653      14.121534240313441
   678   3      14.151287122750588      2.2775028860122206      12.104255952206104
   679   3      12.101735845085065      2.1793689345604017      14.267470062496194
   680   3      14.134380058857777    -0.04726565749558783      14.332963266840467
   681   4      12.072889913909293    0.054215305096583198      15.801357829759938
   682   2      14.248848310782856       1.960666922034664      18.186050340558584
   683   3      14.154220323279048      2.0379404965753896      16.253154327614329
   684   3       12.12291862201708      2.1115118450902797      18.363131880814311
   685   3      14.108937125752909    0.050159448870066382      18.295972681042358
   686   4      12.380450647806876    -0.33857031023307987      20.186469061381359
   687   1      14.143684216269833      2.0198079928967636      22.272100186067046
   688   3      14.180347828969735       2.159627373700499      20.234547248969765
   689   3      12.122579486576152      2.1147229563734777      22.315603164341034
   690   3      14.282844809887523   -0.006704042317455426      22.287008940604011
   691   4      12.268397034536219      3.8512023016987218       12.11388211298147
   692   2      14.140852490560752      6.0723405907526331      13.958650782815962
   693   3      14.010874111831621      5.9102973143008342      12.120997927429155
   694   3      12.228804947827326       5.984823859035906      14.407135518364214
   695   3      14.207758664385821      4.1009481245987542      14.369422864990879
   696   4       12.16936193366497      3.9598836679488549      15.875452487150344
   697   2      14.158795741132481      6.0080640010165407      18.159735473177715
   698   3      14.318238285899877      6.1518837718949699      16.285250585174527
   699   3      12.198810583652563       6.212106735453105      18.262177071626478
   700   3      14.111661711227445      4.0852176987328521      18.242260022352742
   701   4      12.150754428637166      3.6018289159682113       20.32479911520965
   702   2      14.051527161977083      6.0052226589268969      22.238735652534135
   703   3      14.193456246620459      6.0689448683353948      20.345620059583766
   704   3      12.130877906224534      6.1360630900294897       22.45663890630393
   705   3      14.210059934315154      4.1269637266876487      22.473584839173764
   706   4      11.878576103079766      8.2216498143398447      12.105971735226197
   707   1      14.152671988238852      10.075341998067351      14.091964417305135
   708   3      14.209083658768437       10.26350951419059      12.072512933412561
   709   3       12.14796065381393      10.307543919669673        14.1477141603192
   710   3      14.149067236964481      8.0209694262925186      14.222968462062797
   711   4      12.037763334975434      7.9980577209998778      15.917446060931367
   712   1      14.168222261335751      10.073218529329836      18.185492425529155
   713   3       14.24315194107203      10.135024547400217      16.172764591960295
   714   3      12.157788314760587      10.104467501690737      18.431415230793611
   715   3      14.272716949454905      8.0364253373881596      18.436521380870673
   716   4       12.12507208553626      8.2135315677121898      19.803141480750565
   717   2      14.205822465592792      10.148297167979017      22.174132095711101
   718   3      14.340856366442111      10.205427010256479      20.297597767143667
   719   3      12.158934147534422      10.192629980917607      22.313223688593855
   720   3      14.190088235837933      8.1421266252589071      22.354616004701615
   721   4      16.187887480003184    -0.12984178471416633      11.822598343044536
   722   2      18.209060303252244      1.9541506747943929       14.20561192369237
   723   3      18.226686624713988      2.3168909329341458      12.206232935914578
   724   3      16.232294371920553      2.1128255803519798      14.199777359117087
   725   3      18.387575522963889    0.034119059345273373      14.073262493375648
   726   4      15.830134097999116    -0.11683769282718658      16.064447683738635
   727   1      18.173633346643097      2.0230560119241416      18.176470193326626
   728   3      18.337455783193054      1.8517468617051394      16.159614060233366
   729   3      16.151629344541746      2.1330711806332401      18.283905178352907
   730   3      18.440468172800468   -0.034717446081844114      18.346951038147328
   731   4      15.803513424369289    -0.17642306462216126       20.47920538809089
   732   1      18.249560490763994      1.9941395678432168      22.335493802577279
   733   3       18.32666505925954      2.1713559793942108      20.281214847243486
   734   3      16.213000891415675      2.1314345346549586      22.402175960050627
   735   3      18.258982558476163   -0.033255285934780013      22.183394056406954
   736   4       16.19240149638231      3.6879544499626098      12.042810241237451
   737   2      18.195707614361925      6.0866114335006971      14.058705890010133
   738   3      18.347038523596769      5.8947746972135526      12.136856169358023
   739   3       16.19347252556712      6.0481145226208168      14.184056068321455
   740   3      18.150247002018688      4.0835541154902257      14.417049260560663
   741   4      16.051689268194586      3.9106937735663516      15.879174302703634
   742   2      18.188265146074613       5.973134104252714      18.082131967434336
   743   3      18.127314703388798      6.2147198894670543      16.220874676672548
   744   3      16.231461711257751      6.1069646964634732       18.44809957160923
   745   3      18.334376433105838      4.0987953777108057      18.237199474813671
   746   4      16.274642458949824      3.5098414013670314      20.330292928125832
   747   2      18.120980505762802      6.1128757049845204      22.206569176017346
   748   3      18.320055750246954      5.9786556036943983      20.327383518277358
   749   3      16.197589742473582      6.1502580520554293      22.409422590231536
   750   3      18.263650416850407      4.1420202567612936      22.518790645805058
   751   4      16.399678760380212      8.6116191552944006      12.233816319499391
   752   1      18.274493281314662      10.060784292820809      14.202828905370961
   753   3      18.305610787592229      10.066485288578134      12.139761236342741
   754   3      16.237944937880187      9.9998409646974764      14.217825775195911
   755   3      18.282184529926095      8.0034495118387916      14.011267446345947
   756   4      15.868438449659518      8.3231780674022353      15.937233187628255
   757   2      18.207106648063178      10.074373150944584      18.158025032829848
   758   3        18.4142248548807      10.077781346676547      16.252086719619655
   759   3      16.252838286303064       10.11716529189524      18.240659454835932
   760   3      18.199909136136824      8.0920096000455466      18.486691566864629
   761   4      16.095059156692166      8.1098681344374413      19.942415360552037
   762   1       18.22532915452183        10.0550297501344      22.237553807819182
   763   3      18.077497032504624      10.259375270369546      20.251715071329958
   764   3      16.137060456172456      10.122635570208006      22.536561267429658
   765   3      18.331300041642479      8.0274667666792769      22.366893677892875
   766   4      20.091169207189921    -0.14080420135501875      11.862979208812762
   767   1      22.245908860223722      2.0014872432508892      14.120327043353521
   768   3      22.391357884917465      2.2649521606691425      12.069287718437794
   769   3      20.206035511151747      2.2975454438021607      14.119175953175043
   770   3      22.376825466151619   -0.010427965518661332      14.203430330921151
   771   4      19.959811449355911    0.073994516679685526      16.254870404147848
   772   2      22.235155826846075      2.0832144876569658      18.130202300574851
   773   3      22.273893511822596      1.9727896763004893      16.257533394590858
   774   3      20.346004147025909      2.0102630121437612      18.405808332483343
   775   3      22.449426904924206    0.069917561262555744      18.390377413105259
   776   4      19.847394458916561     0.26180083443507535      20.189470625011776
   777   2      22.233776286436704       1.961208092420565      22.276382832857951
   778   3      22.479597208481309      2.1301753945386102       20.35263528142525
   779   3      20.361472546889388      2.1774918948224182      22.290793649173686
   780   3      22.402267927543299    0.075188269497342516       22.29267723394652
   781   4      20.126085727977458      3.7525733029449291      12.108458241870323
   782   1      22.234271133566324      6.0898418309013627      14.084182742738557
   783   3      22.344251536987102      5.9504111726806448      12.056792209813867
   784   3      20.170274992183423        5.96908061704268      14.393679691478811
   785   3      22.400951997712379      4.0577573243127416      14.271657445537066
   786   4       20.44451262944936      4.0401689199132935      15.780724505367971
   787   1      22.248325997488841       6.050735298089867      18.250105794311345
   788   3      22.345838021596396      6.2051633309733578      16.236993808291871
   789   3      20.165853564572625      6.2561732778447254      18.264011045250456
   790   3      22.387616281827832      4.0037062263871883      18.339912089106527
   791   4      19.931369213675882      3.8580185387212715      20.112154909886385
   792   2      22.159374667440566      6.0331568930824329      22.278899528413525
   793   3      22.313156053858226      6.0499204296228095      20.392600693392655
   794   3      20.286868108825857      6.0306042310327825      22.452999887310462
   795   3      22.478327289801342      4.1218414759802373      22.440500124890104
   796   4      19.947385815204932      8.3254933278578864      11.960363558249172
   797   2      22.288944430665325      10.033403400312736      14.039841166790326
   798   3      22.317534674961472      10.213493292967801      12.154064469583917
   799   3      20.328708587944952      10.362665470414319      14.166910552712084
   800   3      22.134341890917771      8.1423858392334925      14.209247916587683
   801   4      20.503170559339701      7.7114456350397811       16.08919315200712
   802   2      22.353646126502674      10.127152130318647      18.108707568459529
   803   3       22.11309914082554      10.101924505683339      16.230862557248756
   804   3      20.254831601964629      10.053041707065224      18.482880655260331
   805   3      22.263626471806695      8.1482086313335156      18.466548105510711
   806   4      20.248264296709237      8.0089964106212985      19.918820301996345
   807   2      22.166697780822041      10.048887297142022      22.208483936110113
   808   3      22.372141957687219      10.132553742656789       20.35223024494702
   809   3      20.316148664450978      10.190615492423012      22.344525681081436
   810   3      22.356482825516093      8.1143375377579918      22.408185996261601
   811   4      12.559130858235115      12.203134931580125     -0.1049481247809549
   812   1      14.170621424285653      14.115872879228833      2.0241105662787806
   813   3      14.135365348033019      14.324494570879766    0.015557073256109435
   814   3      12.079638357434872      14.370921513975544      2.0961326006711696
   815   3      13.936120095154783      12.104442841941477      2.0517204627504326
   816   4        12.2100555130679      12.013461376036584      3.8329224886437778
   817   1      14.083767162718475      14.169508207377195      6.1309904931811943
   818   3      14.195615410040983      14.273738061869528      4.0624073740184468
   819   3      12.087490319973107      14.377125837683339      6.2140108342751326
   820   3      14.395252437068597      12.151247399633434      6.1182949249167216
   821   4      11.912860409502944      11.910417801442408      8.2074936154345846
   822   2      14.034895714246625      14.200786156780094      10.188403491733702
   823   3      14.423780041396773      14.237142480769608      8.1724630715779227
   824   3       12.15847399005483      14.229244898749654      10.079110778370469
   825   3      14.404356768306469        12.2166027952169      10.039939058885604
   826   4      12.400850578781002      15.858638416406517   -0.084908124004786617
   827   2       14.33597265434822      18.216644434446483      1.9884149526331454
   828   3      14.114875013504149      18.362986820003123    0.046526328942872758
   829   3      12.112593013705066      18.388056655828063      2.0810406836560635
   830   3       14.09398637988018      16.320791928584164      2.1121191889158157
   831   4      12.396014713753162      15.873235626513921      3.9065265407226555
   832   2      13.974498569838035      18.229901212061375      6.1016741866930415
   833   3      14.096585665100498      18.363173514223689      4.0630740288351097
   834   3      12.117014035258384      18.122411494584526      6.1478581464694804
   835   3      14.313835476508267      16.292906955721794      6.0398714428141131
   836   4      11.870842145842666      16.159960661684195      7.8571399070431598
   837   1      14.135768858494957      18.160966548796754      10.089226005749754
   838   3      14.317359085497955       18.24720812801035      8.0240040886758948
   839   3      12.106152769604265      18.187616644053737      10.100175527331608
   840   3      14.291385392684104      16.152015482272326      10.250011325327845
   841   4      11.993190524859424       20.08253062121597   -0.040218001687399002
   842   2      14.082966010735831      22.333688378408251      1.9637457057922381
   843   3      14.273178297682714      22.259682829163754    0.073882593935744631
   844   3      12.177905747839439      22.429091183189527      2.1825720541677556
   845   3      14.102735146646003      20.320404575511507      2.1392377852001787
   846   4      12.065042228489199      20.055262577618031      3.8566895413861761
   847   2      14.229796920437018       22.27023155481865       6.165485857967357
   848   3      14.248746359363103      22.253271908883885      4.0674673013952249
   849   3      12.144727513254413      22.403481052187757      6.1052076020051969
   850   3      14.101446276133045       20.25709845798146      6.0560776964152865
   851   4      12.288601142879536      20.263545715672301      8.6749988113446292
   852   1      14.188602443963585      22.265589864290327      10.150997875332493
   853   3      14.278066343283543      22.383755753457798       8.081703230556478
   854   3      12.151033461832943      22.324395645921026      10.031225873141903
   855   3      14.257061817890913       20.24171402601516      10.015249095863728
   856   4      16.445920127105804      11.780509341353703    -0.07923610623075393
   857   2      18.106593264980795      14.138392446003166       2.095625953253387
   858   3      18.225400932466364      14.399856724731306   -0.014707519825935319
   859   3      16.215974322148565      14.243621050961085      2.0315722549678217
   860   3      18.337579865117149      12.234643864246975      1.8956062314015045
   861   4      15.927738077352464      12.464500559106563       4.371019424035544
   862   1      18.246655128507051      14.158709870542362      6.0453374550760621
   863   3      18.348931974080742      14.214998683945231      3.9938402353872622
   864   3      16.229123355237231      14.312649988712263      5.9764133154044314
   865   3      18.217855865330218      12.116563589789266      6.0933874008311433
   866   4      15.851582563558312      12.247328703844689      8.0401478646629911
   867   2      18.171240125148923       14.12231628806542      10.036367394823701
   868   3      18.253978636899188      14.363474604587953      8.1461276924853809
   869   3      16.279943885241988      14.271343325398279      10.220816078379283
   870   3      18.346093509696463      12.220739965374705       10.10521644980189
   871   4      15.987685042032702      15.777130957701882   -0.065792834121780094
   872   1      18.178167117948597      18.209481562870081      1.9772589820705759
   873   3      18.464100446800025      18.192191641730577   -0.088294505465047371
   874   3      16.178007317630993      18.352396935993617      2.0461067277360598
   875   3      18.424142272593645      16.177820273821769      2.0399793604480054
   876   4      15.954799390859076       15.89165214645084      4.2322663028340264
   877   2      18.083199967976508       18.26107418853303      6.0447261836547135
   878   3      18.487890410878205      18.291194378145853      4.0865738524288684
   879   3      16.210782952198315      18.346016026715226      5.9624614233157311
   880   3      18.402503500876641      16.303165360764478      6.0318379323182425
   881   4      15.991470110441167      15.938643232500221      7.8552227084482045
   882   1      18.238347589779124      18.228059090185454      10.077271231534432
   883   3      18.352565524274851      18.269455458341014      8.0281927022268178
   884   3      16.230467432084623       18.33923047268636      10.216456275214972
   885   3      18.283916969145949      16.193805523621862      10.336242083857034
   886   4      16.024037660325018      20.427854456565672    -0.30186039250302554
   887   2      18.170442839629104      22.183878224455281       2.011978432630861
   888   3       18.25572821494066      22.393945279280807    0.046029104191451918
   889   3      16.237822015888312      22.162841360100479      2.1489566333313763
   890   3         18.443007542815      20.281683692806851      1.9443287212533931
   891   4      15.948443949524625      20.406440290172881       4.114361662406834
   892   1       18.16824131114738      22.231077520603929      6.0419244634826388
   893   3      18.442109313282341      22.166462915339011       3.994124510110252
   894   3      16.154468455018314      22.115012896647766      5.9529417381990237
   895   3      18.509690772440035      20.213023260402462      6.0673594385474043
   896   4      15.965825403822762      19.924386862235629      8.3960907016352948
   897   2      18.222773328008415      22.253152216142897      9.9579234446590785
   898   3      18.312958240763926      22.408781634363233      8.0846679241209998
   899   3      16.293702207254317      22.268984237504132      10.284119254812492
   900   3      18.399229881682757      20.326799346369661      10.119324529163372
   901   4      19.988058060672049      11.836477646135604    0.076757705114789201
   902   2      22.184389517767798      14.128706230532071      1.9652012287457581
   903   3      22.413879582020893      14.359087484305732    0.040901013133935356
   904   3      20.305335025732443      14.235126689154303      1.9403917296655036
   905   3      22.366237832805535      12.234843400608492      1.9148650255220487
   906   4      20.079109811816629      11.827139505829125      4.1415398632612943
   907   2      22.206117131123435      14.099155601022948       5.962446381333331
   908   3      22.283713482630919      14.199468242981204      4.0530169964580072
   909   3      20.331431113260379      14.240097743927029      6.2142973458598458
   910   3      22.358522405701567      12.241384824160471      6.1637207978943298
   911   4      20.111791894453265      11.838304132449604      7.8508750732503376
   912   2      22.253529189177666      14.057187458386512      10.026682971785588
   913   3      22.362376196662044      14.353116257418135       8.134363549227043
   914   3      20.297799584253031      14.348721881887508      10.165972350309159
   915   3      22.258977664745888      12.190672739190699      10.149640196456925
   916   4      19.894417915063819      16.191820392784937    0.092256351097100203
   917   2      22.241646334411836      18.262090714234507      1.8964628624909035
   918   3      22.433454322303799      18.178066961880642   -0.018055322689754294
   919   3      20.349626045532052      18.187775740243914      2.0263720702460213
   920   3      22.438117498134147      16.212463847804685      2.1475431657669195
   921   4       19.88035236629484      16.279255753399784      3.9183268579639465
   922   2      22.302582806883283      18.117372507866254      5.9644903988507236
   923   3      22.299719750913415      18.332984799118631      4.0748910495048314
   924   3      20.381324139804661      18.269217228104083      6.2245774880647851
   925   3      22.363104426643304      16.236118148285072      6.1029230015906251
   926   4      19.950527226321949      16.120691905600768      7.8830532422387547
   927   2      22.240571509613758      18.262573859947501      10.018006751987908
   928   3      22.440899504436306      18.230597148028412      8.1284648828677497
   929   3      20.308024517028773      18.244607424439781      10.241803493468989
   930   3      22.303128735987244      16.286580853094296      10.337743933941562
   931   4      19.975470305135214      20.138537223486352   -0.089615954031562625
   932   1      22.287636143397929      22.205250716956279      2.0686606949502826
   933   3      22.415664980407875      22.393160951291843    0.016136527001440526
   934   3       20.24448215893046      22.495158063062121      1.9991516532131202
   935   3      22.396346436579755      20.182723522633122      1.9410914769903587
   936   4      19.959363566620645      20.168091181354509      3.9645738084947215
   937   2      22.251650949316183      22.189444980597994      6.0388364026089478
   938   3      22.373797610409405      22.350365072688383      4.1073137931260835
   939   3      20.331691704481649      22.444207755367991      6.1061879136423132
   940   3      22.284715594192232      20.281896847545532      6.2522016672286318
   941   4      20.006049601783268      20.069967801066216      7.9094461128383289
   942   1      22.298230580419158      22.219080779382491      10.089742990108986
   943   3      22.283605307157071      22.560608278300013      8.0626354324061786
   944   3      20.235954258328587      22.512802561015565      10.152085413495215
   945   3      22.277047666448837      20.205557401030159      10.186795351811648
   946   4      12.062937578004895      11.773465754595392      12.090898773383211
   947   1      14.154388531356567      14.198325404563182      14.133597311724081
   948   3      14.237638736763397      14.042207194556115      12.108179734569958
   949   3      12.109289708118421      14.161561296279128      14.424664256761377
   950   3       14.35238359543402      12.178107663033709      14.267327410504201
   951   4      12.472397165365242      11.789300632987368      15.922733198108709
   952   2      14.229228416386992      14.026186815547032      18.244032148204578
   953   3      14.203293310168904      14.402848399099891      16.297822909606527
   954   3      12.165778852216139      14.312060978191184       18.26845801546413
   955   3      14.153484967794338      12.165559520496055      18.218562217270836
   956   4      12.061988579858594      11.834804736667959      19.896409470592474
   957   1      14.177730295857387      14.110908831266972      22.232577040995238
   958   3       14.17897226205571      14.353769646865182      20.209035050540642
   959   3      12.087949536527121      14.275563492783331       22.42187980973738
   960   3      14.178044313488305      12.091962722756477      22.488744731118192
   961   4      12.022948784119372       16.43388019509251      11.882091699688274
   962   2      14.138861964027312      18.181187267171538      14.081903612092281
   963   3      14.234487244448125      18.290317763867098      12.201637731536668
   964   3      12.230249930538452      18.405250063659686      14.257079968686009
   965   3      14.084782555737547      16.298811325371265      14.285539409207564
   966   4      12.271766164282312      15.903022141416741       16.01947974441843
   967   2       14.07250506842421      18.212103117893918      18.160283389885684
   968   3      14.244633827244037       18.34292931094188      16.251689671791706
   969   3      12.183166444084394      18.344182078613986      18.373016959039376
   970   3      14.162605142730483      16.300191942458447      18.312734229968573
   971   4      12.078726354770199      15.949421800680893      20.053408677368168
   972   2      14.066880449526096      18.216477376152064      22.208176347950435
   973   3      14.251083396862835      18.320291371398557       20.30146174801807
   974   3       12.14747933274035      18.397966576099687      22.366990226156972
   975   3      14.162480482532221      16.311793973445575      22.363009980966787
   976   4      11.633907810326658       20.33745225805605      12.172217755324297
   977   2      14.070729649053078      22.267796066195526      14.089223107791483
   978   3      14.246950293110592      22.275845260519791      12.209091488430493
   979   3      12.183241145095721      22.221093987691887      14.274760705348651
   980   3      14.389519147934235      20.289045572015418      14.295041328283467
   981   4       11.82092971730882      20.168914884411496      16.020084152812881
   982   1      14.086312985275409      22.276893133979545      18.192149606908046
   983   3      14.396608887633132      22.281719952305032      16.184188347257379
   984   3      12.034328639701135      22.315265790348008      18.477082051136666
   985   3      14.279020327489757      20.239465389738335       18.31043048708014
   986   4      11.964069435795428      20.207775471664561        19.9287275788075
   987   1      14.071189095546703      22.254747440627739      22.310344251930751
   988   3      14.253339631972844      22.361494897043414       20.26743698057734
   989   3      12.058623870103949      22.376477790052785      22.261842509992285
   990   3      14.349699400731687      20.227642456305585      22.340443766223842
   991   4      15.760700111920176      12.170577511548817      12.261525912339566
   992   2       18.13331560304934      14.110322353068433      14.143713149437998
   993   3      18.401497650409887      14.170727484437203      12.201045981842187
   994   3      16.256400977831841      14.349948598401765      14.209401931331621
   995   3      18.249967094171758      12.209956962079367      14.314542248765987
   996   4      15.961178248938305      11.778487742165686      15.857015133233864
   997   1      18.198052620128308      14.126500976185364      18.183119648498415
   998   3      18.252915121881717      14.420118794477435      16.143319819929548
   999   3      16.164509433954581      14.346610972044346      18.272987654359557
  1000   3      18.317793894107709      12.083603325454161      18.270805677337755
  1001   4      16.431112613546357      11.859240184431222      20.082319788505558
  1002   2      18.245682868693663      14.086253927360072       22.20437782469768
  1003   3      18.224196142667612      14.161011862244601      20.297081961403673
  1004   3      16.277598269286674      14.412464923349837      22.283199589095883
  1005   3      18.133412100065581      12.206645357539978      22.420072691436587
  1006   4      16.214246017489394       16.38369724753996      11.674187075545644
  1007   2      18.172659717160755       18.16174066673959      14.121016607573647
  1008   3      18.315842291848647      18.434597434213586      12.257544151014832
  1009   3      16.251801357059811      18.209294168889461      14.269780357293138
  1010   3      18.387621041396834       16.27907819624965      14.134930159217404
  1011   4      16.170234120351463       15.83527272787277      16.186607948293535
  1012   2      18.140607399193545      18.166040142762817      18.207818157891829
  1013   3      18.338989566244134      18.284867498680768      16.267424672376723
  1014   3      16.231040502687414       18.29136592056004      18.277784734072583
  1015   3      18.297841796991488      16.299094453562855       18.37331060618131
  1016   4      16.087233654540807      15.846013734010825      20.240002438880982
  1017   2       18.09248049570466      18.168398981769812      22.255437714350187
  1018   3      18.300672949093165      18.490851697808726      20.292866060629382
  1019   3      16.208150695062869      18.233485628996135      22.387838152675499
  1020   3      18.367184913092576      16.282486106287184      22.190487293186454
  1021   4      15.926853817315605      20.111637224200795      11.787891116775787
  1022   2       18.16374804261692      22.169307043933561      14.122172643672215
  1023   3       18.39254614339762      22.231246581612851      12.231244892650574
  1024   3      16.279412585203804      22.478830812879497      14.206162253093117
  1025   3      18.191048605119761      20.312444595838183      14.390815559110068
  1026   4      15.830177273709468      20.322511558375705      16.257702858439796
  1027   2      18.095906353373802      22.316363260151533      18.172154606832144
  1028   3      18.273101895979227      22.528161835993462      16.223793341916565
  1029   3      16.239092420597991      22.340271433974149      18.285510501217942
  1030   3      18.341548670629052      20.360516289218534      18.197144389824054
  1031   4       15.75065765417596      20.482677386634542       20.20974988215233
  1032   2      18.284704911385859      22.344478682844194      22.198593821707686
  1033   3      18.364282735089368       22.19224226157349      20.257857914159143
  1034   3      16.288876548251721      22.261695443021082      22.342191982953562
  1035   3      18.238166679136171      20.270446901457163      22.503272485017156
  1036   4      19.895736730435122      11.837028679107942      12.010845773193848
  1037   2      22.225505165973725      14.016933863966951      14.131732378234833
  1038   3      22.290466833524398      14.261437302555763      12.185079612774061
  1039   3      20.292896125549081      14.168016751987475      14.303186041801542
  1040   3      22.393571209421747      12.162230342881646      14.291181402320316
  1041   4      20.064783922306638      11.906901835471485      15.984332369504811
  1042   1      22.240068541387014      14.068218346115767      18.162032011225701
  1043   3      22.306467491918461      14.368817498427559       16.12992059563269
  1044   3      20.236239434513724      14.263159743560829      18.273961529647071
  1045   3       22.18248170100706       12.05310971332128      18.362526266693298
  1046   4      20.200839022069015      12.187588814768468      19.809560132213718
  1047   2      22.276528406463278      14.062461981587594      22.220602639174071
  1048   3      22.243016382198785      14.212040853685689        20.3216573118589
  1049   3      20.277825768506588       14.19116071084636      22.366798000359946
  1050   3      22.397631040807983      12.157662564851387      22.419293692420183
  1051   4      20.121461051192878       16.12863403282871      11.851440574734651
  1052   2      22.240870776202456      18.103343067045518      14.185859961249664
  1053   3      22.280524949541093      18.425716042827382      12.230474375009667
  1054   3      20.268711859992013      18.481492105624309      14.268039722158019
  1055   3      22.220776247036191       16.24238949029024      14.158406143665944
  1056   4      20.231281932507709      15.770505461200502      16.349217965065659
  1057   1      22.278453643474275      18.229890286034959      18.208522133304072
  1058   3      22.306004383539602      18.383675647321471      16.171603126548504
  1059   3      20.223883127545097      18.436277782610198      18.309656693502816
  1060   3      22.365093777221251      16.215912829864397      18.313568566276391
  1061   4      20.378117006245429      15.973405510676828      19.832340564142097
  1062   2      22.195816815820226      18.211618177212429      22.149154939461354
  1063   3      22.379571591247434      18.390928519340317      20.265520509900064
  1064   3      20.309603273767035      18.412311490101519      22.243818894170584
  1065   3      22.303855018159876      16.258239143741772      22.302198696150644
  1066   4      20.207097025683687      20.091667312630616      11.848405910203343
  1067   2      22.155838446742994      22.304101080260626      14.122893585354586
  1068   3      22.358596809619456      22.340619220983193      12.223262809811882
  1069   3      20.265081836104933      22.317857990959414       14.31763646797768
  1070   3      22.415077971119697      20.387388628080213      14.317125811251397
  1071   4      20.256956851704452       19.90007695822225      16.280056368356508
  1072   2       22.20531555431824      22.282302669222993      18.218265222380985
  1073   3      22.474714940490855      22.449580568622999      16.261318903275271
  1074   3      20.329775295553087      22.323925136352837      18.217884562680094
  1075   3         22.463184040957      20.369437870094295      18.231096779773448
  1076   4      20.105136448186258      20.074978646755948      20.053540285505637
  1077   1      22.247717603383276      22.248136067084793      22.229665014658426
  1078   3      22.523764652147509      22.302572759183267      20.198533647333331
  1079   3      20.231374053776577      22.247945031773455      22.476561743973882
  1080   3      22.510417484301286      20.196438897707779      22.358042298197507
