(written by ASE)

1080 atoms
4 atom types

0.0      24.299999999999997  xlo xhi
0.0      24.299999999999997  ylo yhi
0.0      24.299999999999997  zlo zhi

Atoms # atomic

     1   4     -0.2090666556695831    -0.15287000274031445   -0.074904389709304769
     2   2      2.0105688766909098      1.9729841189115316      2.0078367440635163
     3   3      2.1821235513403097      2.0856179411860456    0.053006820467981053
     4   3     0.12903780528621259      2.0520033864679483      2.0858347615711277
     5   3      2.1886675618098628    0.091005552940417525      2.1449038202894091
     6   4    -0.16894179074307253    -0.11025297221335266      3.9510633604679488
     7   2      2.0194291012945538      1.9756455883685096      5.9787589969112629
     8   3      2.1735365013886447      2.2310657586658791      4.0392966324907604
     9   3     0.10919189755629169      2.1762533954716949      6.0511725673775825
    10   3       2.046035872727197    0.074456499830700115      6.0570575862625669
    11   4    -0.18700071129469092    -0.21039625049012131      8.1244291716813528
    12   2      1.9955526665182235      1.9812581636546929      9.9770719140754878
    13   3      2.1217898832593614      2.0409545073853441      8.0778560177046312
    14   3     0.06668361438401231      2.2697646853050637      10.071660606916405
    15   3      1.9396971615754928    0.091102004095271832      10.226363656938842
    16   4    -0.29030271163008564       4.078407031863466    0.083882874325184598
    17   2      1.9249226127072776      5.9948783811211035      2.0674994108683658
    18   3      2.0286425535613439      6.3590348464142616    0.066721517871522237
    19   3    0.068409048093409294      6.1313091623368248       2.150163920755213
    20   3      2.0956362306348106      4.1184185659989767      1.9149333140439686
    21   4    -0.32745122619620065      4.1750595247488453      4.0297753264339695
    22   2      2.0445989067093291      6.0193909137130834       6.138733617836972
    23   3      2.2915824857205389      6.0443528007170695      4.0046997650110256
    24   3    0.085954221841381268      6.0888062170651027      5.8940683117583204
    25   3      2.1897990784195072      4.1064255730187158      6.1275185804240904
    26   4     -0.2339493497032008      4.0474489524522603      8.1233326949477931
    27   2      2.0623887346313667       5.983681768792696      10.242157610903622
    28   3      1.9720951924947339      6.3058463232563753      8.0621953185458626
    29   3    0.052891124067296402      6.0239116229970646      10.010619686310685
    30   3      2.1995818439367425      4.1054584663053761       10.05457086894484
    31   4    -0.29450894122227661      7.9498781385691908    0.020342817071428182
    32   2      2.0325162798736773      10.030118899873985      2.0211570110520571
    33   3      2.1902321303490289      10.048616177822321    0.047223408183880933
    34   3    0.050574347743017056      10.203503189412135      2.0365791090304017
    35   3      2.1446769728535284      8.1343152226941626      2.1660351263028765
    36   4   0.0020277042179630326      8.2185390545972545      4.4492210853082383
    37   1      2.0448805670675734      10.074261886785123      6.0732343859829268
    38   3      2.0274967360766465      10.389939255783199      3.9940073028307093
    39   3 -0.00011117543502607409      10.207054927946354      5.9615737302115868
    40   3      1.9880680051929938      8.0704860867126733      5.7827685872834804
    41   4     0.11720528431426218      7.9488249767727588      8.2513740739643033
    42   2      2.1294078128713179      10.160491395379621      10.034164791301173
    43   3      1.9177708798596766      10.071776097708412       8.145128570784955
    44   3   -0.075525592981228587      10.301603218586855       10.16250556666135
    45   3      1.7031639785279948      8.1482267592078674      10.183143959232911
    46   4      4.1426537843169946    -0.30089965580947869    0.080137226652170962
    47   2      6.0896914823125909      1.9619707461333584      2.0033265734682879
    48   3       6.229614715462187      2.0590587787559307    0.069530173702908954
    49   3      4.1266858388551073      2.2351178737523045      2.0125861742048183
    50   3      6.0204729000376842    0.075437600783033354      2.1637584795891991
    51   4      4.1782686138995757    -0.26556448225468532      3.8894990963574592
    52   2      6.1693209136883906       2.005729160459468      6.1007292414405416
    53   3      6.0019014714038388       2.253789822254598      4.0566974324587344
    54   3      4.0457971829027901      2.0374311149296109       6.045696282790229
    55   3      6.0247437825916634    0.053445595373154964      6.0606247123957191
    56   4      4.1421172626876945   -0.061106639079461449      7.8642224272781531
    57   1      6.0600949587634405      1.9810734481693171      10.065261655996474
    58   3      6.0069192657641084      2.0673556386517098      8.0398433757314791
    59   3       3.987321640233251      1.9959416147882412      10.256805376874093
    60   3      6.0971905261050434   -0.034652884166075648      10.360355474682706
    61   4      4.0333751928972061       3.813202007593723    -0.13422087692628198
    62   2      5.9833139180005359      6.0704698669301251      2.0302087782928901
    63   3      6.3376410073951588      6.2683535645463131    0.053821138127544563
    64   3      4.1051529851433033      6.1871101812276539      1.8656917483740172
    65   3      6.2459898756138932      4.1383979492578282      1.9625784180587826
    66   4      4.2093011745700295      3.9383088551312668      4.2793403075903127
    67   1      6.0961472644927479      6.0531747751712022      6.0553709975676426
    68   3      6.0451349018821325      6.1462096388648932      3.9864701102558886
    69   3      4.0290378085624043      6.3173639620022994       6.100677292798693
    70   3       5.855830934274409      4.0424189951005554       6.131154101698427
    71   4      4.5394226071289587      4.0794895316339455      8.1408655280529292
    72   1      6.0844299207587724      6.0929236182775162      10.138521526632553
    73   3      6.0438645099389658      6.3324326783333715      8.1146520405586493
    74   3      3.9629217877380434       6.369085703282332      10.073586173722681
    75   3      5.9574456879731077      4.0759774442010706      10.091309176553626
    76   4      3.8345482285795547      8.0031119039380378   -0.052992625519802584
    77   1      6.0347834944146328      10.123254658610975      2.0246057960882284
    78   3      6.3002765097281257      10.116612391924548   -0.013404767828839178
    79   3       4.012656405776343      10.311572962928636      2.1271610225782731
    80   3      6.3136980860414962      8.0994457131010602      2.0847102253326275
    81   4       3.922601950265014      7.9176750138747707       4.283928214537136
    82   2      6.0362544841130816      10.088060629461051      6.0283601415046348
    83   3      6.1905505567426493      10.360294271715784      4.1151680662256132
    84   3      4.0966508967007504      10.240937605146524      6.0074924626969706
    85   3      6.1472023261682676      8.1795674794996298      5.9576586737717152
    86   4      4.2677545699164785      7.8119683478006632      8.0885513047108581
    87   2      6.2469299818084698      10.152918406490695      10.092032890469484
    88   3       5.981602332224524      9.9217249424229426      8.1424946660221895
    89   3      3.9952999912944764      9.9967337049197962      10.262327089558074
    90   3      6.0932041393529088      8.1984796846469887      10.495784834886264
    91   4       7.865467554217731    -0.22393159802590393   -0.085534245602989278
    92   1      10.131767870032055      1.9638306441626434      2.0037389892963713
    93   3      10.165707562526068      2.1348890253840445   -0.031362432249911205
    94   3      8.0756820630079389      2.0669790530865861      2.2300636698456637
    95   3      10.204953875488336   -0.036121684678330539      2.3570388463956067
    96   4      8.3044125584725528    -0.11132555282150651      3.7949681196075566
    97   2      10.272663344082011      1.9062635392327347      6.0925329991091219
    98   3      10.114503341784447      2.3208207701389503      4.1485177654426435
    99   3      8.0620450498935678      2.1892026409435021      5.9728967510644253
   100   3      9.9717588815796745    0.030489358587249323      5.9501221150167574
   101   4      8.4294486973079348   -0.089895416795250413      8.2512965203753517
   102   1      10.144302861354344       2.025897305722224      10.086212791118891
   103   3       9.874593750188593      1.9596992578283985      8.0222379380893649
   104   3      8.0861208508885927       2.141176328967684      10.177790922173529
   105   3      9.9908747681621026  -0.0052331401696115833      10.202451428278634
   106   4      7.9757863793602652       3.820960715650553    -0.11383773409305624
   107   2      10.123672812605827      6.0041479517024756      1.9274646248035385
   108   3      10.158996465539486      6.2367599653409949    0.062056316923267366
   109   3      8.2159279958785376      6.1800457938007831      2.2126393374822597
   110   3       10.15514087056987      4.1205370731452611       2.089156140097709
   111   4      8.1800101275367911      3.7823356010004843      3.8998581340876637
   112   2      10.016121554965471       5.956492401104029       6.058904327005366
   113   3      10.294989450228304      6.0178097552890826      4.1347659370885577
   114   3      8.1409291483903239      6.2061646122048293      6.0549009239036931
   115   3      10.109426502819506      4.0827647878220619      6.2810991521564601
   116   4      8.2025795942959885      3.7173796447016905      8.3577797108003988
   117   2      10.090991920941457      6.0571845588360738      10.277042245102814
   118   3      10.060952018744036      6.3820977445191387      8.0466084847768968
   119   3      8.1536566984062588      6.2036847007117677      10.135351384574072
   120   3      10.121850078962916      4.1168641262584256      9.8238114428985384
   121   4      7.7757364424917963      8.1838849300285563      0.1188564814861555
   122   2      10.144300451777893      10.032576770123182      1.9895701802836248
   123   3      10.248734125243102      10.065858901736052    0.089206947504938738
   124   3      8.2077676582979304      10.233092417965699      2.1373560356525529
   125   3      10.202861199221658      8.1316544417829935      2.3106510711110722
   126   4      7.8383475171855963       7.931749686796457      3.9347637535880415
   127   2       10.10698156130967      10.009474101508895      6.0841895141318414
   128   3      10.069298485981669      10.431820036827078      4.1296385502402329
   129   3      8.1218369097703729      10.307803713666223      6.1975427677746833
   130   3      10.189945971584605      8.1411628569066536      5.9347733503416764
   131   4      7.9333083200109975      7.7074577538389537      8.1048768879019502
   132   1      10.105386683548732      10.144479674313972      10.086294717154933
   133   3       10.33515404967879      10.094551258859724      8.0441801727595461
   134   3      8.0950289837350748       10.17964376970655      10.133576958203982
   135   3      10.356272583289332      8.0754610321117966      10.218156280546157
   136   4    -0.11642348935239578    -0.20658076168486825      11.902897437884535
   137   2      1.9746769690154089       2.077531215869953      14.018820837273344
   138   3      2.0324526537488894      2.1281197095909228      12.144179177742622
   139   3    0.067153657646986567       1.988959377535817       14.28442313975135
   140   3      2.1045684088325549    0.053714585862510045      14.295049066047314
   141   4    -0.14659074838905076    0.016809793446304063      15.884135791869269
   142   2      1.9586271737469618      2.0030598695905302       18.17720556674805
   143   3      2.1020908730869983      1.9967116304719816      16.316572739789567
   144   3    0.066748596008437744       2.041484337338145      18.436099144843119
   145   3      2.1999239337225602    0.081727384029331884      18.458061594195403
   146   4    -0.26959100364023814    -0.17352624777695033      20.232601840490556
   147   2      2.0144019547282563      1.9519609025675351      22.268929919613758
   148   3      2.1613996881641842      2.2023289531236925      20.354079522739045
   149   3     0.10322742590050497      2.1344471454977763      22.370706806348217
   150   3      2.1498657233591172     0.06467424891374636      22.324619009658196
   151   4    -0.28724136731030236      4.1885072015833238      12.453376215254551
   152   1      2.0490001976752024        6.03561214862171      14.149135763407592
   153   3      1.9600495403942306      6.1578780049447639      12.115052230847169
   154   3  -0.0044652383568498403      6.0239043599098663      14.223490783223593
   155   3      2.0589979946917079      3.9965668658176456      14.365872370582355
   156   4     -0.2774986187617372      4.2823526861387036       15.87212281591926
   157   2      2.0607272732712669       6.025432945122061      18.151597823385956
   158   3      1.9472780312386979      6.1883695744389682      16.269066828029096
   159   3    0.087441089407180358       6.047865353097861      18.530179905664216
   160   3      2.1274661871160405      4.0483791462739447      18.326070726841522
   161   4    -0.22484213301850556      4.1140363998254301      20.076282687087215
   162   2       1.965439504908788      6.0498326751049651      22.249672662529321
   163   3      2.2542311977198586      6.0067474490893824      20.369332986028571
   164   3    0.078549371965554268      6.1830565273986906      22.228159685656262
   165   3      2.1234383954812803       4.160463436244898      22.524303120263198
   166   4     0.28974053285150231      8.0497468166030313      12.190341758630709
   167   2      2.1300053435653719      10.042884588671065      14.249599668402967
   168   3      1.7529006156080316      10.118287019922903      12.178657745937146
   169   3   -0.077769633625168436      10.207406506330852      14.314969297406671
   170   3      1.9234385700614656      8.1400062185350688      14.119022522919312
   171   4   -0.079090885357138693      7.7135835787950926      15.898898590926448
   172   1      2.0297190233192643      10.061716236250131      18.182436833514917
   173   3      1.9702374694207334       10.18116597299429      16.150228963137963
   174   3   -0.018428099759490765      10.050706157586735      18.245397603062727
   175   3      2.0064135129138756      8.0243422643669469      18.515886792321961
   176   4   -0.025864290149299512      8.0342949269669539      19.903308345030826
   177   2      1.9108048384907381      10.111977311360368      22.183534518213165
   178   3      2.1426552723051091      10.224010974366212      20.327547944406742
   179   3    0.039508441013631802      10.076490829508352      22.389761136245475
   180   3      2.2332517922023252      8.1386665605969384       22.31199767946228
   181   4      4.3243923858836224     0.18139298574460752      11.887283485787655
   182   1      6.0696601591676602      2.0210231695742342      14.161216459400997
   183   3       6.021297147558367      2.2218534086081263      12.172480947894167
   184   3      4.0090304750843702      2.0712479421618357       14.36079891873548
   185   3       6.009436517020295   -0.026160329162018599      14.219141999228013
   186   4      4.0963551694654248    0.094198021992170394      15.814611752225144
   187   2      6.0632366012371044      2.1445063769428656      18.152238324619884
   188   3      6.1373639266873257      1.8618745238259169      16.282690511022114
   189   3       4.092949941996852      2.0441487140294901      18.436858509203581
   190   3      6.0690781172044019    0.026013538253356089      18.550223175694821
   191   4      4.0562039310517477   -0.014864034362921649      20.055273343179895
   192   1      6.0800898467404698       1.996792027869561      22.300386025071951
   193   3      6.1523367246395368      2.2435386168117932      20.285457926634596
   194   3      4.0452665413093589      2.2814304789390687      22.343242457251282
   195   3      6.3125330566337343   -0.023955236007507409      22.230947989836508
   196   4       4.352457282797408      3.8133914966487312      11.852601791675157
   197   2      6.0843719999902648      6.0061554702997935      14.139177488727352
   198   3         6.0065253180611      5.9611763621002485      12.187215702323043
   199   3      4.0873173904916618      6.0871163976567431      14.392423872010266
   200   3      6.1120274700094877      4.0817317852717618      14.447869733114064
   201   4      3.9812717242865583      3.9760234359077145      15.829136273180705
   202   1      6.0877392764764444      6.0501546381383067      18.236906211869613
   203   3      6.1227055553740097      6.4426093394909838      16.168775345382763
   204   3      4.0287296235796362      6.2702191926545385       18.17140903747859
   205   3      6.1020552723687578      4.0247476888439913      18.144212654824017
   206   4      4.1444629344445083      3.7604943613190494      20.303877006236757
   207   2      6.0445478502033918      6.0566924750222926      22.224892719076511
   208   3      6.0320743104651822      6.0229203502290201      20.355855798523979
   209   3      4.1335300490312914      6.1734254409189067      22.547979326545008
   210   3      6.1728549324108908      4.1658967131484967      22.511397265957537
   211   4      4.2957584909779429      8.0102590629719082      12.094906648337238
   212   1       6.052998921856406      10.078288497511322      14.148537028235289
   213   3       6.042191265227701      10.486595356254693      12.076188118059926
   214   3      3.9905617507036752      10.213381097180658      14.027454719476816
   215   3      6.0521923013317638      8.0809275334809509      13.823997661260062
   216   4      4.1572610301336024      7.7696698760592975      16.135886457867805
   217   2       6.053361445161749      10.073974044249706      18.038333143547497
   218   3      6.0860965543652554      9.9412610445278204      16.179529921340578
   219   3      4.1170148234825117      10.124406729579704      18.401357601875365
   220   3      6.0869629309215858      8.1592773870793351      18.489834245642424
   221   4      3.9849648293361857      8.0406465923612878      19.902418851417494
   222   2       6.012739248858491      10.096320475059983      22.244743378360369
   223   3      6.1137430111103148      10.352590716884398       20.34905473646111
   224   3      4.1238464089078475      10.200771323203549      22.398634676826472
   225   3      6.2142417445191089      8.1612424495675207      22.317021274525978
   226   4      8.1344917691046152    0.017901847477851618      11.695311850165929
   227   2      10.142036058850668      2.0485308843988119      13.989474400892796
   228   3      10.169940362625203      2.1683177189504774      12.136490192802638
   229   3      8.1608487929227067      2.0568995834970347      14.314678258064955
   230   3      10.160083675276697     0.07621190381583294      14.268756605056083
   231   4      8.0655508667715043    0.051248198105839568      15.784109536738296
   232   2      10.141928598472438      1.9288501748825255      18.224023438158202
   233   3      10.053250255461094      1.9467156397917529      16.329313680064089
   234   3      8.1167492223898918      2.0240385710651325      18.422730900899506
   235   3      10.144446812256138    0.030409113282913472      18.418006133806177
   236   4      7.7977298993032074    0.003666928520346622      20.214882340312297
   237   2      10.119143813623747      1.8860129266700989      22.352128612537573
   238   3      10.148095128010416      2.2886567950299028      20.314716361852582
   239   3       8.191736197976434      2.2887912711815805      22.271841914571773
   240   3      10.067552040679681    0.013490664745153551      22.275026963530372
   241   4      7.8008276543463264      3.7018391320618345      11.851922072732808
   242   1      10.116625399634627       6.020461098386594      14.137563190063654
   243   3      10.310076433505271      5.9687994253254111      12.133474321139877
   244   3      8.0686188493274305      6.1763289326639006      14.228006622078103
   245   3       10.13901057507533      3.9965427355293031       14.45479970661953
   246   4      8.1661938839409043      3.9371392617947696      15.874276915999562
   247   2       10.13759060295518      5.9930325450556303      18.165493432032523
   248   3      10.069806206572173       6.282331039634844      16.237428054675785
   249   3      8.1552406557735448      6.2703834134071634      18.258725604999238
   250   3      10.092889614474249      4.0672242133391316      18.184039431272851
   251   4      7.9966078161699139      3.7565464163696221      20.289864760374041
   252   2      10.064696079217944      6.0595360069659776      22.187468921813753
   253   3      10.229057756774743      6.0470300337284586      20.295078653280072
   254   3       8.161571177243097      6.1329657662214832      22.295415272767436
   255   3      10.222861649085301      4.1808038394830094      22.438845197371606
   256   4      7.8796189897569784      7.9514576924039746       12.22060905845839
   257   2       10.01525263384031      10.016620089209386      14.196436412018508
   258   3      10.395747666865265      10.184900386698484      12.215375564848408
   259   3      8.1472926723008037      10.119121726403325      14.029817884890743
   260   3      10.271331559664974      8.1145968718092636      14.091819586356714
   261   4      8.0605758907018714      7.7702261270117488      16.173568976371413
   262   1      10.066563404985175      10.102842090149478      18.161675901500505
   263   3      10.232089114150686      10.131375017293861      16.131918302795242
   264   3      8.0545597049204893      10.103195481375398      18.424973146617607
   265   3      10.137735047600692      8.0885983296418296      18.441690280142645
   266   4      8.1101014121611854      8.0832272972062924      19.845982065909347
   267   2      10.093063096162744      10.047083345962752      22.202771333413079
   268   3      10.223723501717998      10.296358402677106      20.336483849039496
   269   3      8.1924722246634367      10.224178186692919      22.333130510073048
   270   3      10.183603558166018      8.1390416912963026      22.307325750338968
   271   4    -0.17597590409059741      12.239242458174811    -0.33875391889184758
   272   2      1.9000530440081191      14.134527330004349      1.9887271211831121
   273   3      2.0732359223776236      14.370610227123448    0.076983302625426034
   274   3    0.010837281515046393      14.314385755741975      2.1386586663117284
   275   3      2.0839548689131879      12.214628896017683      1.8945674278936135
   276   4   -0.049833093523791949      11.777064558224959      4.1839176106268283
   277   2      1.9821240771701643      14.101491416622416      6.0629367210281231
   278   3      2.2237938791283014      14.098567397890767      4.0473804411526633
   279   3    0.016376722926254063       14.30766434948954      6.0059504590024231
   280   3      1.9956626019271804      12.169435692671136      6.2005283110778242
   281   4    0.010159633863234175      11.808282189164695      7.7647384934909986
   282   1      1.9450261413698451      14.099111425894451      10.053050927888684
   283   3      1.9653161395763494      14.362950551804733      8.0357181403364972
   284   3   -0.092535812596573258      14.163963259257118      10.389914491469938
   285   3      1.9678198222431713      12.075129139029196      10.222260711209225
   286   4    -0.12888846872128792      15.895076223110047    -0.40095023567032889
   287   1      2.0177944343559449      18.182167699838388       1.939582878739657
   288   3       2.172300432910462      18.225819440923608   -0.086505135704786698
   289   3    0.003778192022351337      18.196713023302813      2.2109156421824911
   290   3       2.092626815297749      16.146657177285054        2.26223431531549
   291   4     0.10187872470332542      16.322566931645031      3.7808864914598299
   292   1      2.0516750505988637      18.191790419150255      6.0702513335957144
   293   3       2.181664630446674       18.31242144297255      4.0451794861631987
   294   3    0.016574759211067269      18.312819991297758      6.0610372303425288
   295   3      2.1721525536533699      16.163646201300402      5.9765556947012755
   296   4    -0.08979467516292243      16.247947199785617      7.6563731049601182
   297   2      2.0200957615965285      18.090336227367612      10.110824295378309
   298   3      1.9321831681005246      18.257849366265567      8.1670130256666109
   299   3   0.0046558419021198042      18.313355271177773      10.314100329594288
   300   3      1.9648435762264782      16.209938831507063      10.315533243118416
   301   4    -0.21607385189353934      20.102204757924863    -0.14995082544831378
   302   2      2.0501379432235507      22.146966911336932      1.9528241857860631
   303   3      2.1612205420254447      22.459027636704796    0.035738836263476528
   304   3     0.12165045907260523      22.471544020407023       2.090239919727868
   305   3      2.0776695116928767      20.287132486966883      2.0146796079515665
   306   4    0.068590127733014081       19.74633798318791      4.0434682355462188
   307   2       2.049212901310681      22.189533084808115      6.0022261183421666
   308   3      2.0944794802478959      22.330525367602732      4.0773905931362044
   309   3    0.086032663369172674      22.342795055600543      6.1646872747609391
   310   3       2.101738941881051      20.326431031733442      6.1828491737854838
   311   4  0.00078623466979755295         19.886534217803      7.7930322085976691
   312   2      2.0380719289502789      22.178919204690295       10.01309605082529
   313   3      2.1239677003978379      22.492237630538508      8.1063943994706271
   314   3     0.10186620924976493      22.430431008679893      10.110456984144804
   315   3      2.0502439436839106       20.31392747867314      10.075102596316015
   316   4      3.8323201173118551      12.025764239941767    -0.10127809973337962
   317   2      5.9798411754239265      14.140088375682181      2.1150994458922154
   318   3       6.307743710982975      14.268709770718109    0.063612722382077089
   319   3      4.0925932588153682      14.239519528594879      1.9351853112456072
   320   3      6.2601750287786153      12.223443330458219      1.9439181388995854
   321   4      3.9217148592541284      11.860485251053101      3.9601947852019355
   322   1      6.0565184881794103      14.138110218075807      6.0231044595807823
   323   3       6.131654972567417      14.101446696349381      4.0087402581324794
   324   3      4.0266358270663867      14.115433517222026      6.3131978874482808
   325   3      6.0799005725767268      12.114486455583098      6.4215356784618205
   326   4      4.1186654514891066      12.168379033613387      7.7823609340870998
   327   2      5.9232933269951991      14.202983180847273      10.057715130928701
   328   3      6.1803937825247397        14.3134720747908      8.1637255058978404
   329   3      4.0183894341448481      14.326917121119301      10.097951973731144
   330   3      5.9284588460823402      12.141236903214169      9.9115524714556873
   331   4      3.8597182984761829      15.993599003422277    -0.15068692982546375
   332   2      6.0538735062070863      18.276634243535337      1.9402338235149668
   333   3      6.2340073110215748      18.142883903002282     0.03007981318843253
   334   3      4.1240099510378077      18.241054468235774      2.0323395268928555
   335   3      6.2401816193782231      16.207780457092962      2.1392945545813031
   336   4      3.6746737512499332       16.30568018763277      3.9921524047294268
   337   2      6.0762772839714634      18.065802903425105      6.0473316075300056
   338   3      5.9941423099285069      18.350594978771753      4.0909207510833383
   339   3      4.1057751143796732      18.318205527126448      6.1782164832917541
   340   3       6.152325836166014      16.195704980014785      6.0708139085756612
   341   4      3.8233695055480186      15.918623371727531      7.8577843394547715
   342   1        6.03779645881579      18.151114586268349       10.09172624406477
   343   3      6.1343458791173751      18.319341560869113      8.0563198442383506
   344   3      3.9722555404323172      18.259337326112888      10.138113096155385
   345   3      6.1300116655658199      16.122948148480944      10.370298115619169
   346   4      3.9866012131121065      19.886080755472356    -0.17586775933207741
   347   1       6.103886986256831      22.190888516761124      2.0284452896682015
   348   3      6.0675504895456296      22.545080777693038   0.0076623135130532332
   349   3      4.0191768603238609      22.442597607297355       2.078848933428489
   350   3      6.1961410553903811      20.181039256896657      1.9498864886622378
   351   4      3.8946727622548543      19.871991451716358      3.9773028501515948
   352   2      6.1604213045251868      22.201194410774288      5.9605576551844068
   353   3       6.007470275166269      22.330641429354717      4.0967289406144367
   354   3      4.0384415205239161      22.486885392586863      6.1148662368356828
   355   3      5.9748294059089311      20.336946899197176       6.213004124016769
   356   4      4.1569482369556106      19.831380459801725      8.0525005734841617
   357   2      6.0487555157663166      22.209745042198747      9.9917521932456186
   358   3      5.9095689124520021      22.455187264257884      8.1003286853214416
   359   3      4.0109196811104235      22.499793822209327      10.221696592442497
   360   3      5.9956652130948322      20.305592643748227      10.107245493924628
   361   4      7.7796036871270351      12.015843316613928    0.026545911104702054
   362   2       10.14548693100523      14.063079738054709      1.8944057607408955
   363   3      10.131827478018419      14.362455214616595   0.0098797941297959456
   364   3      8.1906821541208306      14.308749089726899      2.1418467929292428
   365   3      10.151057514707308      12.189374340475046      2.0086987337654119
   366   4      7.9815265326928806      11.952910234775606      3.8534671426557736
   367   2      10.117583870564944       14.18046617021985       5.933236738959204
   368   3      10.164482938480276      14.177523200606245      4.0525413720886352
   369   3      8.1444874345498626      14.118391819250114      6.2544941936372966
   370   3        10.1434182780781       12.24215238258247      6.3325983813901674
   371   4      7.9981913886760339      12.229344107993708      7.7973770021774254
   372   2       9.964207535726306      14.091799933238137      10.108607660309898
   373   3       10.06395838271288      14.333634165478609      8.2167905576331073
   374   3      8.0879811162776267      14.085754794096728      10.281140870950917
   375   3      10.331164116969537      12.235331565088496      10.190568571212925
   376   4      7.8579195311605234      16.051092877260956    -0.15745286903194136
   377   2      10.223518188606535      18.128850210365936      2.0004490868902098
   378   3      9.9956779196894487      18.240698341847764    0.061375973960757918
   379   3       8.115070031338913      18.200065501706014       2.252063729159445
   380   3      10.115947787802924      16.239771374168598      2.2097565147407541
   381   4      8.0556877019463773      16.124758919508654      3.7795528065964583
   382   1       10.11909098057885      18.188957496947946      6.0159553430450998
   383   3      10.122998469918748      18.454543850193414      3.9893854379309133
   384   3      8.0244778432271122      18.419285218658658      6.0454676395535154
   385   3      10.002918735634916      16.145416350758069      6.2265286081008808
   386   4      8.0640155110507958      16.016785621918107      7.8001140104546938
   387   2      10.085417336839509      18.169441985904783      10.041385234829107
   388   3      9.8852835065135523      18.148712381817312      8.1467278248846036
   389   3      8.1266982627738003      18.334462596374671       10.31733663644367
   390   3       10.10236114916261      16.186404676862811      10.328151356276184
   391   4      7.9675576090729994      20.049582920623127    -0.17875577037136814
   392   2       10.09689759311703      22.269191995173099      1.9039745326854223
   393   3      10.231880736195999      22.448990518223649      0.0334759617223339
   394   3       8.142615701684587      22.502553961940389      2.0339503668450751
   395   3      9.9902819591920604      20.309974217841592       2.038035559003351
   396   4      8.2944904097438208      19.960418216075507      3.9452429030098544
   397   2      10.190800299967005      22.107079277890701      6.0894817280383675
   398   3      9.9930061197202633      22.235848252544706      4.1429901615724258
   399   3      8.0539111328484037      22.301605149503253      6.1828736407703078
   400   3      10.078035737819608      20.266497113815571      6.2337842329340187
   401   4      8.0991568004708441      19.878108285063249      7.9716041500157768
   402   1      10.022451359221229      22.177663820603609      10.112115757735712
   403   3      10.078881505063389      22.513616006242231      8.0447442690776327
   404   3      7.9817317223457485      22.324358356084687      10.123538267449376
   405   3      10.279518719983047      20.165733069560702      10.123917367971837
   406   4     0.21656080090752589      12.009338343102431       11.93051225737077
   407   2      1.9266571058932453       14.22201968371678      14.107658588906903
   408   3      2.1149045565725477      14.189573897825889       12.19902502244368
   409   3    -0.03362599205916867      14.298938135856119      14.164185734231959
   410   3      1.8525359237164063      12.173424430397075      14.211367785972591
   411   4     0.21952714985523572      11.893858097253096      16.059856288107394
   412   2      2.0324681554997452       14.01304949575694      18.183869562798094
   413   3      1.9129963475565384      14.175069583355372      16.217650774637363
   414   3    0.065063532751156006      14.311083308141448      18.315644408278896
   415   3      2.0177705244042592      12.131974565714122      18.240234816874491
   416   4     -0.3247280682814403      12.509750188995957      20.355012499365014
   417   1      2.0413678308660033      14.083555463126316      22.222164649493667
   418   3      2.2060322455293941      14.171159389418831       20.19566847891161
   419   3    0.023295439607503514      14.126417009872172      22.323444162668245
   420   3      2.1180999885056546      12.053645759557677      22.515882135555767
   421   4     -0.1440674827257962      15.996232133312667      11.914941482301479
   422   1      1.9591538942710427       18.20253989250438      14.170869535641705
   423   3      2.0487193318132793       18.45244905287349      12.120295979237119
   424   3   -0.063005251348819263      18.450055835649891      14.161597427406793
   425   3      2.1695533909983116      16.163749428147462      14.186196077236305
   426   4    -0.36572182542552484      16.024790746869762      16.467003542126992
   427   2      1.9440142121551343      18.162389859386419      18.187338221385406
   428   3      2.0472077123723009      18.319853626719325       16.28971704509047
   429   3    0.077110739435482259      18.283659615069404      18.315139334866267
   430   3      2.1709043168988664       16.26312767931341      18.329288988448504
   431   4    -0.37349672024214092      15.964634458076246      20.105173206550766
   432   2      2.0170389963912458      18.071585947271387      22.246544417583639
   433   3      2.2222300175938763      18.369811918647226      20.266585198165274
   434   3     0.10176757899697422      18.275996073909287      22.270686310042034
   435   3      2.2094609634125479      16.193663554691064      22.224293345078731
   436   4     0.02657255159274502      19.905715631614761      12.177838094424343
   437   2      2.0403821106854902      22.267269136971592      14.048160507020929
   438   3      1.9704997368316881      22.354743910672944      12.159145795261097
   439   3    0.066177412211737272      22.436953781387885      14.294898678365918
   440   3      2.0230120480166418      20.381837346491594      14.317351563750808
   441   4    -0.14883429711779644       20.02221513260881      16.045295191531288
   442   2      2.0069359279871937      22.223643398810175      18.137946161598265
   443   3      2.1080553604556433      22.432576147340228      16.279664326627589
   444   3     0.12309417212635285      22.457373256840025      18.329037722016363
   445   3      2.0830726053958877      20.337219509302823      18.289146726458227
   446   4    -0.36541285967108439      20.234573271953543      20.270648935682001
   447   2      1.9872345388969477      22.216741574590642      22.202606173242987
   448   3      2.1098830372436863      22.370186387574474      20.325617075115897
   449   3     0.12014187555369682      22.404198678182304      22.410377853496058
   450   3      2.1205884254504421       20.32843675697476      22.397884240247045
   451   4      4.2556182213384188      12.092612236404557      12.283161584734316
   452   1      6.0280397927867195      14.183765768699535      14.112445752107206
   453   3      6.0072264370408277      13.879996448592067      12.100498601039362
   454   3      3.9768729684660422      14.099845589373334       14.33833661255996
   455   3      6.1282022024178344      12.133763377620724      14.290435535017476
   456   4      4.3156617592703626      12.500690114718926      16.034822852239113
   457   1      6.0511348704101886       14.14697759830357      18.226431927580322
   458   3      6.2207187225023519      14.124265037753986      16.205132591430964
   459   3      4.0186613683610188      14.145221145700237      18.174079536064728
   460   3      6.1797609126483035       12.07904906077885      18.167794973566608
   461   4      3.8985970786166679      11.981569280123193      19.952860801408082
   462   2        6.03825444071511      14.167689289277535      22.177622256422179
   463   3      6.0271952551366752      14.053099160782443      20.297607074242588
   464   3      4.1368285581225743      14.163911633349477      22.487592802138192
   465   3      6.1832935821169785      12.160415828045405      22.506801859416051
   466   4      3.8237503588857482      15.976568610706616      11.977517292338913
   467   1      6.0303580509184194      18.231756944152625      14.172314244433307
   468   3      6.0943743275492279      18.372472030099697       12.16080852445595
   469   3      4.0210201196219568      18.323241193485497      14.307764476979852
   470   3      6.1234592906610406      16.197594710942141      14.188473688318005
   471   4      4.0254764250020436      16.302748648319497      15.680566252483867
   472   2      6.0574810303251869      18.083472398044318       18.21677748466379
   473   3      6.2450590124133045       18.25747484549316      16.275448605109244
   474   3      4.1098510626911713       18.40070823394462      18.240018177046057
   475   3      6.1187199076181784       16.20235610189599       18.35394840460609
   476   4      3.8749017997027422      15.850466101892449      20.088024594903509
   477   1      6.0909633696511873      18.151900973458055      22.234455044841642
   478   3      6.0420858408880633      18.457253567910438      20.218700317136975
   479   3       4.064535129299732       18.40436132044179      22.293743005534289
   480   3      6.1971815299256336      16.108541842599312      22.324885121201852
   481   4      4.1203677939375405      19.733417555973858      12.189798015158425
   482   2      6.1152755639852359      22.287575492054025      14.047429307807779
   483   3      6.0197079512791944      22.198257489349242       12.16573285637849
   484   3      4.0341809019004238      22.342294771422409       14.29766699246254
   485   3      6.0685686275863118      20.346140788101703      14.409639014864016
   486   4      3.9650085646993531       20.00707334087377      15.885722145667195
   487   2      6.0424839896418607      22.253468667505089       18.14569925802444
   488   3      6.0381726872557824       22.45401538695382      16.280001176997068
   489   3      4.1093370557365967      22.385262612645249        18.4344333327067
   490   3        6.22716890944674       20.33952520858799      18.192391632227892
   491   4      4.1190261150171166      19.887625469837655      20.292792625307069
   492   2       6.034036995177301      22.236546018188101      22.267538970785282
   493   3       6.227376589522196      22.237799703909573       20.32831159850744
   494   3      4.1004745653658512      22.383668902747718      22.370287243945576
   495   3      6.1358796510683566      20.320204230896511      22.504423742609269
   496   4      7.7501449876810442      12.167193070876628       12.39106094468468
   497   2      10.204865588053007      14.082863166127554       14.08089669221012
   498   3      10.317012686900236      14.236663725191535      12.172993169346798
   499   3      8.2040959182452973      14.165152979387024      14.197940266971745
   500   3      10.224607874662361      12.166201457685965      14.194921263292505
   501   4      7.7311173648274423      12.327759577391943      16.000141671018419
   502   2       10.07082318795012       14.19013334026304      18.090336779830022
   503   3      10.103962924344962      14.285962339231002      16.206393051097297
   504   3      8.1648346357650698      14.158156776679199      18.419798628123964
   505   3      10.268382964502937      12.225848427658704      18.261605934117817
   506   4      7.9549438549548395      12.031359380744512      19.888156134411016
   507   2      10.143431890707225       13.99890259728484      22.213144939714212
   508   3       10.26458453686597      14.119480734962382      20.307519859239779
   509   3      8.1825838031807212      14.172946112641895      22.293041182352233
   510   3      10.279492359992934      12.137455405705177      22.474996437349244
   511   4      7.6028080270738156      16.360563859539898      12.182778804191759
   512   2      10.012238320284842      18.175356724389285       14.25913232010479
   513   3      10.323113341106824      18.254250564173361      12.207439377496486
   514   3      8.1199868992649229      18.362315830399897      14.120418544936516
   515   3      10.175014623350023      16.243706438580293      14.173094797788787
   516   4      7.6939480856518596      15.953498240282416      15.905609268978603
   517   1       10.11443904260555      18.168726384640316       18.19533691538469
   518   3      10.098092192831416      18.365691415100457      16.169944368557623
   519   3      8.0635712747178339      18.234267629092169      18.461353811812245
   520   3      10.099488773528888      16.135720208054479      18.486051756223713
   521   4      8.1504417819480235      16.145061134929172      19.929021383149252
   522   2      10.091387182000576      18.115359483379564      22.240964120801483
   523   3      10.227208849230504      18.413444231632436      20.357918430143933
   524   3      8.1708810287660505      18.396557392458604      22.263074487844278
   525   3       10.09127800611771      16.235234568397601      22.236226454255917
   526   4      7.7985913302978274      19.984655957779296      11.987820928471317
   527   1      10.030095127739571      22.276251727615517      14.137220866210459
   528   3      10.277336190504395      22.226366250409619      12.148981445159661
   529   3      8.0133139455236684        22.3546578502167      14.312052231907588
   530   3      10.302473219709086       20.22060498127092      14.183346911315059
   531   4      7.8824933245197704      20.051293215760307      16.028084069266974
   532   2      10.057698416649433      22.247905826952817      18.112451768025153
   533   3      10.159741746151305      22.321221877706058      16.243846182770771
   534   3       8.085126421464679      22.453346778834835      18.285923877961856
   535   3      10.087004345598993      20.333868304278983      18.326236854379399
   536   4      8.0194802566545516      19.934467216797124      20.113719895751835
   537   2      10.117912017976719      22.173004878997872      22.185746463316399
   538   3      10.028889304389974      22.258766667734513      20.320750587044333
   539   3      8.1501819582513519      22.275010100218733      22.546821094948477
   540   3      10.171566465419865      20.295983008208001      22.473486784800425
   541   4      12.529304092260158    -0.26375362051796186    -0.25733655806544248
   542   2      14.064225582603779      1.9171354605802418      2.0639776934629506
   543   3      14.155669450304362      2.1695851154955301     0.10376431868253248
   544   3      12.169537389342132      2.2194792988737926      2.1316451660832803
   545   3      14.046800668779657    0.031566459004410657      2.1162779572238417
   546   4      12.140225485961583    -0.28150217178597747      3.8765656362598162
   547   1      14.122196488356911      2.0086373066251637      6.1042889174946904
   548   3      14.286847852822495      2.1349757739002726      4.0185486183185084
   549   3      12.122490859804293      2.0352765698279542      6.1126775385059275
   550   3      14.388216471486027   -0.016717643557333635      6.0439753901867679
   551   4       12.08660683587682    -0.36901581498006109      8.2811121776877368
   552   2      14.087165122086388      1.9491314496479903      10.138076785259488
   553   3      14.451863424976906      1.9668873151467308      8.1383218568739828
   554   3      12.168324190092013      2.0379112946982296      9.9803665134216182
   555   3      14.372935662311043     0.02322165036621026      10.188050438364039
   556   4      12.111606015508132      3.7359548813515704    -0.13311572523989398
   557   2      14.224809940575289      6.0277230889875373      1.9515410239444746
   558   3      14.218626979437177      6.1672790944153935      0.0716607612588957
   559   3      12.176430025812365      6.1294665082208377      2.1509328501328615
   560   3      14.237965681724726      4.1225736441652661      2.1281911803713851
   561   4      11.988993030912255      3.8393534181001225       3.904814596883686
   562   2       14.06140670824923      6.0318447051496822      6.1452732077088958
   563   3      14.134864965685827      6.1637591691859068       4.101738898749983
   564   3      12.139676841445951      6.1238523039170412      6.2428046379317133
   565   3      14.324833904365338      4.0951468242900537      6.0937017444511357
   566   4      12.115283919738365      4.0690403933060031      8.3987562241698051
   567   1      14.145975795413227      6.0882302477200758      10.146263914097402
   568   3      14.395937177086724      6.0984711416962512      8.0732200061731874
   569   3      12.101240704108385       5.997600648208171      9.8473190538402573
   570   3      14.100836312126129      4.0156721809413893      9.9235334439309462
   571   4      12.321506316981953      8.2108260157452513    -0.17503353641598279
   572   2      14.308049143178851      10.136338991885298      2.0997292445256499
   573   3      13.942619039612769      10.056951835553376    0.086789150083364394
   574   3      12.101771227331533      10.177105965265026      2.2722812210164163
   575   3      14.039737630355974      8.1124837069511848      2.1523276875609083
   576   4      12.211409559543968      7.9331374432164656      3.9150394961863411
   577   1      14.127836886643573      10.100039044308762      6.0775794080523129
   578   3      14.162223395440055      10.222195409471576      4.0392589254620681
   579   3      12.086689571272789      10.366298068498443      6.0036015914504253
   580   3      14.253495380106001       8.072970253309725      6.0983806247986445
   581   4      11.882748931264317      7.9520017673586123      8.3092616292588204
   582   2      14.190258303069028      10.017191638439161      10.008439047203181
   583   3       14.21971539634437      10.221164317397625      8.1283584898545698
   584   3      12.247347368157676      10.234153337892591      10.217560449750394
   585   3      14.189284715850858      8.1295708936054805      10.080744547534765
   586   4      16.092788049902722    0.042743657205841563    -0.52489981806926245
   587   2      18.081123952545234      2.0039398218187241      2.0498558256552375
   588   3      18.312402890130834      2.1416427149467991     0.12318783093030229
   589   3      16.195047887914168      2.0298442830121166      2.0647313170014865
   590   3      18.371902893577644    0.039065968460740834      2.0593558999129802
   591   4      15.949016330406327    -0.02266026550990605      4.3064671578712863
   592   2      18.138610722090739      2.0048519176334612      6.1627856255018454
   593   3      18.416949380048106       2.057155678495918      4.0292858800237052
   594   3      16.259082598755537      2.0801784910772771      5.9191131322917325
   595   3      18.256594110035831    0.063891798911122094      5.9264281260054883
   596   4      15.852539140841225   -0.015384743156450116      8.0348252863687257
   597   1       18.19332731167129      2.0237272393536854      10.094770938605722
   598   3      18.256211499954723       2.069245511277082      8.0560870165294336
   599   3      16.168648425480953      2.1638840131061268      10.308944890203071
   600   3      18.148928971192881   -0.024113396840633336      10.350541557074759
   601   4       16.05079213661848      3.7613121609072859    -0.27603381312707581
   602   2      18.250768211315687      6.1414773673214702      2.0271708039140828
   603   3      18.165063670089509      5.9705213778421511    0.055798153733937227
   604   3      16.177659783798759      6.1980894654782954      2.2129032829257409
   605   3      18.251250260398631      4.0217910171207034      2.1470015105481539
   606   4      15.934959673649894      3.9476466852427281      4.2751445622706949
   607   1      18.165081938780446      6.0511004655798759      6.0841676566657368
   608   3      18.402096052732524      6.1237146874726882      4.0430012517410159
   609   3      16.169987376458124      6.2356780868041914      5.9698922056510879
   610   3      18.400629771760901      4.0012212977837454      6.0322558138651168
   611   4      15.842166680685208      3.9389708530168575      8.2428609415015117
   612   2      18.045337213520177      6.0739275754677386      10.087582834731199
   613   3      18.259948802233971      6.1274576004691959      8.1555831628691386
   614   3      16.208156181261053      5.9828992965002668      10.229273152533374
   615   3       18.48599993778646      4.1229353282981736      10.112966330425738
   616   4      16.248870783129281      8.2328788708055853    -0.22669419328472143
   617   1      18.177227328882193      10.121426734388791      2.0749837781050173
   618   3      18.308264239565691      10.175192566318984    0.015452371045458772
   619   3      16.171400839917673       10.06958286826314      1.8865410501099664
   620   3      18.375811992875885      8.0719548787276434      2.0117502529443581
   621   4      16.004754052829551      7.8983270458529171      4.2920865310240259
   622   2      18.077582401009742      10.159327633882086      6.0709793696712042
   623   3      18.432017555656913      10.083724856408507      4.0794161910212052
   624   3      16.202002379609219      10.039114303794845      6.0586598399719787
   625   3      18.416158210274677      8.1400400948539868       6.059431367724244
   626   4      15.919856426091084      7.9391905250605381      7.8706195682886335
   627   1      18.180832450143999      10.150986417243697      10.037657431459751
   628   3      18.402420806178387      10.073469409116878      8.0382095530268014
   629   3      16.171850079084102      10.196755757879444      10.349504996083049
   630   3        18.3220174360521      8.0358821716040794       10.20905640245449
   631   4      19.993473615540186    -0.13745718485524694    -0.15603734168100092
   632   2      22.167526416065392      2.0467394258200775      2.0470045919369828
   633   3       22.49049988004289      2.0577030869066162    0.067163480758273483
   634   3      20.311666865033725      2.0912131438356938      2.0089170222422759
   635   3      22.466537475086323    0.071552876737799836      2.1221801438441092
   636   4      19.932592541500259    -0.13592854486174036      4.1815293425886848
   637   2      22.236129055176356      2.0220350490192041      6.0954582997204421
   638   3      22.442968142367771      2.1356353421175926      4.0594785752695248
   639   3      20.347407175454702      1.9937081699881989       6.080053449161527
   640   3      22.512796888358743    0.091804267537824238      5.9703305456319384
   641   4      20.234376812762818    -0.28793939812897651      8.1267818579780577
   642   2      22.230660528234523       2.015032097105482      10.185467391158443
   643   3      22.462632570087038      2.0073171739200242      8.0552601087996329
   644   3      20.335542853111875      1.9425591987301449      10.076189465593961
   645   3       22.53512569393645      0.1102111689694754      10.140486240624531
   646   4      19.902016023081138      4.0791496853922142      0.0209350445480244
   647   1      22.197304098970534      6.0707764550328998       2.055216821580788
   648   3       22.56887621140012      6.0642605022265172   -0.019120702499084527
   649   3      20.180267363927499      5.9255629188116643      1.9466482357058348
   650   3      22.520719130510525      3.9913930688616377       2.001876421139003
   651   4       19.91613425116773      4.2117348133430097      4.0853541518212966
   652   2      22.156729379560002      6.1599745512389967      6.0542269109832025
   653   3      22.252091286286742      5.8634793840596711      4.1247924048911964
   654   3      20.288905199349248      6.0612696748489903      6.2212586267995613
   655   3      22.435420890664169      4.0467780609210946      6.1678907451686014
   656   4      19.868869510835026      4.0829938318925354      8.1022126683116369
   657   2        22.2083078397837      6.0643738920429291      10.150973930373256
   658   3      22.558424011290107      6.1372009841909358      8.0464942993760094
   659   3      20.346115379801446      6.1878956249105759      9.9859485700310913
   660   3      22.295592041859692       4.093483237801836      9.8748231145034175
   661   4      19.869717942048759      8.2937867146942512   -0.015410177420954432
   662   2      22.254371555172671      9.9941059132187586      2.0258274337554534
   663   3      22.359929669951175      10.176520620836296   0.0072717037602730078
   664   3       20.33473872398179      10.281034223714524      1.9649392340768734
   665   3      22.320528622038005      8.1236547234112333      1.9739748593463089
   666   4      19.897389504218168      8.1090314679506648      4.1512328222814388
   667   1      22.258718577904272      10.096640669669092      6.0422659108272541
   668   3      22.309445865521514      10.286410438920424      3.9612449823852316
   669   3      20.272624351364879      10.313874319520384      6.0369221195574374
   670   3       22.36361491005302      8.0589183510850138      5.9540042073124706
   671   4      19.864658342460512      8.1211364494592377      8.0021876700011152
   672   2      22.267561609825531      10.065301855301669      9.9912976724061018
   673   3      22.275825803416083      10.214069880769896      8.1167245383526101
   674   3      20.326335451358634      10.064147018433031      10.235092686922929
   675   3      22.471727513506533      8.1101600856160445      10.108171855689204
   676   4      11.746561440751201     -0.3649818597367791      11.805906246205669
   677   1      14.133771280233464      1.9901765136661087       14.11292607348836
   678   3      14.083489229334059      2.3175867278541467      12.094634482771571
   679   3      12.087093818250695      2.0498643626452879      14.401148370022389
   680   3      14.187605391993493    -0.05053528652829857      14.254056567792095
   681   4      12.072833795580848    0.042922893958088564      15.819005654648443
   682   2      14.221073261613778      2.0713896378769197      18.171827794900278
   683   3      14.268914679284761      1.8618861053236493      16.230449373374224
   684   3      12.114876792767259      2.0680528277123362       18.32343621647448
   685   3      14.146120861361089    0.036727956251013598      18.371930531203962
   686   4      12.441886176750808    -0.32137987856094369      20.116611234796459
   687   1      14.135811283638873      2.0119300203362998      22.252361473094272
   688   3      14.100931528946543      2.2051810897659943      20.234170355775007
   689   3      12.095515718425812      2.2288265480669405      22.282877359439315
   690   3      14.184097701587451    0.013614957944385147      22.398698336122031
   691   4      12.347239691646079      4.0357272191332738      12.064292548401232
   692   2      14.136153078735351      6.1343876832698827      14.053990596154161
   693   3      13.973529358671662      5.8448382921024322      12.176170658681771
   694   3      12.212682727134014      6.0570927141379904      14.426897896796872
   695   3      14.101598556649346      4.0714730531137233      14.390065961891541
   696   4      12.178304676485086      4.0145901769487571      15.892940383037542
   697   1      14.144815766103934      6.0151071275928967      18.197371099387581
   698   3      14.457646331192906      6.1188287865487698      16.145750588413279
   699   3      12.099287138425458       6.240484870756589      18.151799593172306
   700   3      14.171885938708355      4.0043006131287751      18.019888165564122
   701   4      12.209401765432704      3.6896763891901445      20.282506160517798
   702   2      14.065621171606505      6.0537771895420303       22.14960919540712
   703   3       14.16731498975215      6.1295273182556675      20.291056310260768
   704   3      12.164394616985978      6.2020925252502828      22.430249367011058
   705   3       14.16055535368185      4.1589485676622822      22.430628493119737
   706   4      11.912625226624607      8.2846871086090079      12.057725713363771
   707   2      14.201111039259276      10.309869111414091      14.155102837765222
   708   3      14.157141655331474       10.09273326402923      12.170940956726275
   709   3      12.223033953916948      10.119373011282011      14.256135536582814
   710   3      14.287035068495207      8.0594695294343044      14.144513395070751
   711   4      11.956319809362894      7.8777859999863047      16.062865080824572
   712   1      14.202997798258535      10.114935517632189      18.192751525262636
   713   3      14.322334638117072      10.104241205605959      16.147384276993581
   714   3        12.1616636030016      10.184314767057653      18.276916911627083
   715   3      14.348525958314019      8.0920750214576795      18.254416426656068
   716   4      12.167868021311694      8.1703071291098883      19.676785227639879
   717   2      14.182191804957636      10.182173729015178      22.151213040184327
   718   3       14.27202438248022      10.133372117817755      20.284035863003197
   719   3      12.179340227122847      10.040715434975331      22.350620229700052
   720   3      14.233115317869348      8.1009477274101531       22.45656048882454
   721   4      16.218141932729939   -0.059027062864568922      11.795592646388124
   722   2      18.120044492149503      2.0113528294052547      14.244066572229736
   723   3      18.402260053969584      2.1295160449641877      12.183587381980729
   724   3      16.215204155515867      2.0652566742182734      14.009901996148081
   725   3      18.383618203745819   0.0064843325299920509      14.106054400521941
   726   4      15.827444548655379   -0.037262209700232168      16.081042356632121
   727   1      18.175368247818735      1.9725802026814787      18.159501967688747
   728   3      18.171876758704901      1.9143091939570076      16.146502885188823
   729   3      16.151858581211652      1.9853873943189291      18.430819715477028
   730   3       18.35281261758983   -0.050281814657092173      18.389674117642784
   731   4      15.890418732266381    -0.19306844751692431       20.07335567753136
   732   1      18.243848252875949      2.0216717197594876      22.346394123099895
   733   3      18.359025533634174      2.0965502997216512       20.31050741724389
   734   3      16.198353361368198      2.1355518499255051      22.376883256512173
   735   3      18.237391305030101   -0.026956512098572485      22.482003404459888
   736   4      16.103990075199047      3.7320886792420542      12.083151737383346
   737   2      18.176818160041034      6.1450457644039291      14.096059069238487
   738   3      18.452552489672371      5.9842448833191764      12.147086922567912
   739   3      16.232766985119397      5.8711390480072829      14.043194352555471
   740   3      18.385647055582719      4.0213666782484019      14.178046336048006
   741   4      15.808983857663296      4.1393645014628078      16.074869595464172
   742   2      18.182788501100113      5.9076047995646537      18.093147298320474
   743   3       18.11017357732166      6.0491352314155913      16.187619832520795
   744   3      16.297323551454308      6.1031114922426521      18.401572735174277
   745   3      18.335541691434194      4.0490320480915125      18.332174032949421
   746   4      16.288707848240605      3.4697789949968794       20.33777427467485
   747   2      18.094056977343154      6.0685470636872303      22.186258447117957
   748   3      18.379302372557682      6.1069791837047092      20.307511238503249
   749   3      16.180311790595898      6.0896113454800656      22.323266968685058
   750   3      18.327441356120616      4.1267586404960026      22.367004851719514
   751   4      16.325390539911183      8.5687397977038593       12.18594091209949
   752   1      18.240096677349559       10.07807862371053      14.210745614547456
   753   3      18.346330358441225      10.067762539600041      12.157913523254626
   754   3      16.201590613597389      10.140997227098218      14.093515789716534
   755   3      18.200548859782014      8.0242837230556123      14.070208014996462
   756   4      15.776044427161823      8.0663310853945269      16.335221193688916
   757   2      18.282332869420859      10.008804871269296      18.257491383662877
   758   3      18.261219500449833      10.286827048108663      16.268298147519776
   759   3      16.259199894189472      10.289865028586247      18.181530481488565
   760   3      18.179469744011815      8.0924569004506406      18.300409145175845
   761   4      15.961524759445313      7.9609783973460022      19.890753982397296
   762   1      18.210967337998444      10.065956378197985      22.209127914897362
   763   3      18.068224921839256      10.201523579486876      20.222725343036696
   764   3      16.119396922694246      10.097268434448498      22.567084203474039
   765   3      18.192877584983599      8.0143617798294624      22.537648024900435
   766   4      19.966436920145419    0.031152041852545165      11.898572779989713
   767   1      22.293416049685582      2.0018725574452918      14.106982057135729
   768   3      22.354996581727288      2.2156209110813783      12.069280401718439
   769   3      20.263690104369758      2.0343736329830384      14.326185362526926
   770   3      22.325373269097543   -0.022479643223725601      14.325183495216256
   771   4       20.24962791110114     0.19108808537907085      15.838046838794543
   772   2      22.221657086586273      2.0540172431414874       18.15461729014492
   773   3      22.345043855965333      1.9658892576532758      16.288982717133976
   774   3      20.327403796561129      1.9898591693030439       18.37910242383931
   775   3      22.404404570917805    0.052905916755401787      18.440396015825222
   776   4       19.85656671420762     0.21836163978659628      20.134049305096852
   777   2      22.218142459251183      1.9880027062038566      22.286478784166842
   778   3      22.366113701715644      2.0906394433539925      20.371772786180603
   779   3      20.345316203448977      2.0656205162044765      22.429737813366366
   780   3      22.450925865659404    0.084747963640787169      22.374579556969064
   781   4      19.958187701749686      3.8667676303816259      12.103210632288015
   782   1      22.217078272753756      6.0864614420676313      14.083262417804937
   783   3      22.368339474756198      5.9408870383848802       12.03594269076299
   784   3       20.18902213568483      6.0381165465194897      14.416239660249131
   785   3      22.350065642703974      4.0393099198417701      14.273679067789587
   786   4        20.4231553210684      4.0127946151341343      15.728266538770107
   787   1       22.27857713873788      6.0086487376916873      18.250608246098007
   788   3      22.376515944168442      6.1658905047550885      16.247150201227299
   789   3      20.186530642012304      6.2559950699195284       18.21295239974345
   790   3      22.392764723290892      3.9770343176340419      18.376242477327761
   791   4      19.937625153314507      3.7938296483889022      20.138484119191105
   792   2      22.128753912210616      6.0602875063621529      22.311551553782952
   793   3      22.222569711356691      6.0956438670365136      20.374671264398867
   794   3      20.247618066134983      6.1046574148038593      22.492271531895543
   795   3      22.418656914702392      4.0901889876178377      22.405443856832285
   796   4      19.912405637280969      8.3334209055573396      11.975798166645552
   797   2      22.254074925552729      10.023201564927573      14.057768756354045
   798   3      22.295170566229274      10.171598696310207      12.172607978583571
   799   3      20.325510419395972      10.271470687585099      14.257949723125659
   800   3      22.267216199438355      8.1341781536522895      14.244573014936043
   801   4      20.551776401719085      7.6713686418038503      16.158717596719047
   802   2      22.409132529263058      10.121770741644648      18.139791780809059
   803   3      22.196099644230184      10.165513222909549      16.250691270382951
   804   3      20.252085601982046      10.115724186314251      18.366153843680131
   805   3       22.25197497687267       8.134767964298554      18.413085089465422
   806   4      20.380658340247003      7.8865532561165237      19.925513462223549
   807   2      22.130114922249213      10.107254387003367      22.211569111148545
   808   3       22.32294502138096      10.040120814328077       20.32155906419711
   809   3      20.267585992217381      10.067414909765043      22.367894267558263
   810   3      22.369203284926275      8.0875277517388433       22.41608126889394
   811   4      12.571142287144555      12.165157817663971   0.0054755771974715397
   812   1      14.173845166718365      14.110757991343901       2.016717513956571
   813   3      14.115797830436721       14.31674028854175  -0.0022958888535380972
   814   3      12.076908737639153      14.329418241329348      2.0483080822592803
   815   3      14.084557845354801      12.086733181640373      1.9442079033763224
   816   4      12.283310444417536      11.862622334939482      4.1157756115825057
   817   1      14.073957166251731      14.181987705537145      6.1254799763609498
   818   3      14.156663558611612      14.258457897973582      4.0517706765979211
   819   3       12.06274011484288       14.30258034926959      6.2668861755935881
   820   3      14.280102348926519      12.162149744627301      6.1018678582990384
   821   4      12.045889504080876      11.910228814810429      7.8797122459747415
   822   2      14.033715653442789      14.188160827108895      10.222586225940494
   823   3      14.408271433528411      14.215735550544187      8.1784550704404744
   824   3      12.154982710928383      14.359117288828562      10.081566668134046
   825   3      14.295627334442077      12.209742351575814      10.194412874038036
   826   4      12.387289569873312      15.853526448018661    -0.11756931914538236
   827   2      14.310213928830656      18.189670833816926      1.9374031392113906
   828   3      14.223527072901348      18.290734074513018    0.039567327407323709
   829   3      12.128456756664271      18.390401625019663      2.0340473820353413
   830   3      14.048225004308412      16.303318451981291      2.1525524778617253
   831   4      12.390328143518653      15.847160084954766      3.8736669471565235
   832   2      13.977804696618442       18.20471635183608      6.0824000668346718
   833   3      14.048662400038674      18.363506072627342      4.1043121265773674
   834   3      12.131985314499797      18.083555470011589      6.2584823832286931
   835   3       14.31452422401745      16.263270111401123      6.0683520926668848
   836   4      11.902776388439621      16.138357161822128      7.8860998974996814
   837   1      14.123608963957103      18.152225260805817      10.103857281662433
   838   3      14.426425210550841      18.179534546199207      8.0262068667529274
   839   3        12.0938231889932      18.088295530901341      9.9920897579892785
   840   3      14.476639844945993      16.151263121221415      10.074510399110784
   841   4      12.414535668708712      20.432528460366001    -0.17527699457363979
   842   1      14.152173743098015      22.268111286020506      2.0600435522602583
   843   3      14.039295488958187      22.215258076316381    0.040249343245390597
   844   3       12.06222448809441      22.222905693026327      2.2789213802754871
   845   3      14.136790317000546      20.221296259407929      2.2014288934013311
   846   4      12.253684892980433      20.212246647446467      3.7525549315624027
   847   2      14.284623432964482      22.203079957807585      6.0984080401834273
   848   3      14.092154745209559      22.305000749354647      4.1347754341665626
   849   3      12.106660243608538      22.430809408794012      6.1188374864813895
   850   3      14.061535765869854      20.257413795663336      6.1606947021036778
   851   4       12.28931773344287      20.279616696875745      8.6399324529943087
   852   1      14.195077042410434      22.257798311168788      10.141370647432334
   853   3      14.180620151939261      22.478858346427835      8.0697932013966458
   854   3      12.144683405400945      22.390385668011572      10.001045069200689
   855   3      14.218544621902687       20.23072508719153      9.9897871098477964
   856   4      16.424545465094891      11.852098720049559   -0.064781002236671326
   857   2       18.09603822374126      14.146831141849638      2.1107097359661986
   858   3      18.179991728411817      14.374621762663001   -0.015645266466785174
   859   3      16.212758096805651      14.286798560070054      2.0467462148560158
   860   3      18.278817598504652      12.233908842812701      1.8762631391440261
   861   4      15.815094630197663      12.390037768803682      4.3734712830965066
   862   1      18.221464946307254      14.167578871175914       6.046244867753563
   863   3      18.391353137137454      14.230777292032883      3.9894566646724412
   864   3      16.207856864748841      14.163127485101574      5.9323643881443786
   865   3      18.263067337468243      12.112212754496097      6.0709425264579115
   866   4      15.857732269736998      12.368058775489711      7.8173674715437844
   867   2      18.227009758250961      14.180445984939309       9.959724290867527
   868   3      18.189028774043237      14.202082930419083      8.1138393021494224
   869   3      16.297836579799792      14.137462827631024      10.326374755024005
   870   3       18.31563336114964      12.226348228175882      10.284447764207403
   871   4      15.986316869699843      15.757748335319651    -0.12351719008623147
   872   1      18.158386157433132      18.206818152597176      1.9932402880607523
   873   3      18.359390756839829      18.259145355966965    -0.06253029868972429
   874   3      16.166491740624316      18.331362094090494       2.223661353351118
   875   3      18.470371225166364      16.181353435228047      2.0206052963039167
   876   4      15.958197344221407      15.837497255267245      4.2770552946859164
   877   2      18.080620393750124      18.243141211583595      6.0570541992194293
   878   3        18.4901430045872      18.265825815807876      4.0616280302735372
   879   3      16.191960800462503      18.375440796548869      5.8654852882167363
   880   3      18.362626872067072      16.274557893474025      5.9976340102842753
   881   4      15.862517416642794      16.096064000995437      8.0421951589768508
   882   1      18.239618120231345      18.205036798813602      10.085063107679138
   883   3      18.183968674534352      18.339559075557251      8.0319556904168827
   884   3      16.241335452819751      18.379257614587004      10.247343512583978
   885   3      18.198866244958673      16.155650865874186      10.327756728837729
   886   4      15.924840659192618       20.57584266231127    -0.20767132126129551
   887   2       18.06602224366647      22.260359728180632      2.0695972443121735
   888   3      18.324514816953769      22.329186892606305       0.107027611290232
   889   3      16.204248146590551      22.266511561793664      2.1224881966371396
   890   3        18.3638403091818      20.328361733676996      2.0599810623459143
   891   4      15.989867610162779      20.156440480442583      3.8731195933663818
   892   1      18.198432406423183      22.243207665493589      6.0470186607626388
   893   3       18.43259008501942      22.320746330552044      3.9970890206852348
   894   3      16.177389664678916      22.230035715048718      5.9841615223592726
   895   3      18.506542503161235      20.222559715849385      5.9970216697254859
   896   4      16.005950888969373      19.896164910596042      8.3978287887590177
   897   2      18.240367891057776      22.230032740226562      9.9604838118103611
   898   3      18.336608173006208      22.381044673237991      8.0823228312088879
   899   3       16.30209661190257      22.230905504142754      10.266909135001503
   900   3      18.457668023589346      20.319457791863901       10.16666758559972
   901   4       19.96177634833461      11.856304245726095    0.089811013292115702
   902   2      22.164321404749913      14.060879795158845      1.9292066140560755
   903   3       22.47382281518982       14.24839182725899    0.038877242303939623
   904   3      20.287801428401497      14.176487939378553      1.8558548456688408
   905   3      22.392681559100463      12.199929275492824      1.9537218072057674
   906   4      20.106109083648374      11.795061751754178      4.1196493321438528
   907   2      22.189767552964167      14.170658700143575      5.8944092181462997
   908   3      22.228778376586487        14.2372563142105      3.9989162981900725
   909   3      20.310626079850849       14.16303894937024      6.2274631305680392
   910   3      22.410250289464557      12.258226241816921      6.1473941825370524
   911   4       20.14299214527777      11.936924478691294      7.7565388394477122
   912   2      22.296528652483737      14.078885362175564       9.997890134347081
   913   3      22.417117894714966      14.236237922535903      8.1402625002263367
   914   3      20.282991131084692      14.338101453387537      10.169544788580279
   915   3      22.161856897780098      12.178031094261277      10.202988287941329
   916   4      19.856199221218926      16.182114408500816    0.077271757068837654
   917   2      22.236310959375185      18.116624401394159      2.0397559629637976
   918   3      22.479516885788485      18.315990715205448   0.0084511404377309671
   919   3      20.340964845718183      18.358579120099236      1.8912883092711943
   920   3      22.303436012011293      16.212697479877459      2.0447855191280735
   921   4      19.869000505175084      16.287695126020839      3.9813342195976262
   922   1      22.255831210701494      18.200198320540892       5.992901984414571
   923   3      22.263889903680123      18.373363615546037      3.9723296952581104
   924   3      20.261058644111525      18.207069971042745      6.2887248726233453
   925   3      22.281151929683539      16.150813847497336      6.2256548197528412
   926   4      20.212304710319298      16.273119129665425      7.6759412331669479
   927   2       22.22100701231658      18.280346189036475       10.02488349919485
   928   3      22.465119716367873      18.193459545334079      8.1445689120182916
   929   3      20.302772571861659      18.149424099021676      10.174822493473307
   930   3      22.384269746666199      16.224404776161148      10.293308866229363
   931   4      19.917218931686399      20.093460743118058    0.070230008297696905
   932   2      22.236394413875299      22.197674935533268      2.0026161669203586
   933   3      22.478100578655901      22.422035301658674     0.10321032836542646
   934   3      20.369991299201001      22.348167301577149      2.0458042255448912
   935   3      22.473381882617225      20.313161136367416      1.9584332829851558
   936   4      19.964349632522655      20.096535055592241      4.0211806015632732
   937   2      22.252797813295945      22.187793899414824      6.0597329407529523
   938   3      22.471729153749109      22.377789328226385      4.0638622415446326
   939   3      20.363043255045312       22.48412244549942      6.0664372132840212
   940   3      22.295727714213758      20.317427221035373      6.1825104422437818
   941   4      20.048811175553791      19.998771705280738      7.8228093033618089
   942   1      22.276373161611897      22.216674915227909      10.092493392290061
   943   3      22.315767220530123      22.568229251914822      8.0157937495805207
   944   3      20.246882127955455      22.585803030702152      10.111424046271615
   945   3      22.195473733238146      20.199682903956035      10.159224499878077
   946   4      12.008911748737651      11.890522981345303      11.964202033889398
   947   1      14.170885324204574      14.188661909533947       14.12580709534118
   948   3      14.149276751544793      14.289790650406481      12.106324198601623
   949   3      12.109889951519515      14.337707346156728      14.366272711375581
   950   3      14.216726537603638      12.167636414403802       14.19563713230413
   951   4      12.061881943822476      11.686460393297008      16.326768320165012
   952   2      14.214268053249453      14.047292728707559      18.211193863922144
   953   3      14.188472710109647      14.442690026680385      16.284167350280022
   954   3      12.162735492455319      14.310278761169339      18.262989650761149
   955   3      14.141522891339843      12.181841494809138      18.183793602390679
   956   4      12.030217699459261      11.870541861986341       19.90100052596804
   957   1      14.172629204485613      14.097095804547621      22.224342897204313
   958   3      14.145107726141152       14.35301040831895      20.200701930066753
   959   3      12.093143947264677      14.361332193664035      22.345049762253502
   960   3      14.121177431778376      12.077363721487773      22.456384315784558
   961   4      11.924887636320076      16.297814567978865      11.990219115730278
   962   2      14.124003998155665       18.19201045273071      14.065583126043546
   963   3        14.1834774298311      18.262731682526397      12.185399437051178
   964   3      12.215509614471518      18.290749844663946      14.341212562833041
   965   3      14.176201550918233      16.315985335244417       14.31529969370497
   966   4      12.302561225696607      15.955900657580957      16.017490808192679
   967   2      14.087314345205085      18.213793751339601      18.122483146198871
   968   3      14.344226571399798      18.316791284648318      16.235693839379238
   969   3      12.196488761586439      18.418207313677957      18.255172369336002
   970   3      14.145271417008647      16.314820959603036      18.323511220640498
   971   4      12.166610599218586      15.864787217805656      20.161696511887659
   972   2      14.075793027135893      18.215789523772113      22.165980892871332
   973   3      14.148860418740895      18.401195243421054      20.278601228561232
   974   3      12.151758997925034      18.326395136444088      22.432615015115509
   975   3      14.175049789839186      16.315942994979391      22.318445201620985
   976   4      11.674420239284613      20.372026024294748      12.170195908102084
   977   2      14.072848728551776       22.30759411278882      14.066741300561949
   978   3      14.183711886009979      22.231226780074397      12.186757811284556
   979   3      12.182990795284621      22.286036713166229        14.3223614227471
   980   3      14.294663444886663      20.277634597845385      14.320656150242042
   981   4      11.845338890539043        20.2358703361134      15.973291580062327
   982   1      14.082170340785995      22.274165168909796      18.150726612263956
   983   3      14.417767575384778      22.316226639105377      16.164040287168206
   984   3      12.037949707848156      22.294993231740865      18.434504697361884
   985   3      14.339427090050213      20.253385571255272      18.251189796782477
   986   4      11.989098954999015      20.190707154611694      19.907998297457727
   987   1      14.175570649508121      22.275641240819574      22.217295068072328
   988   3      14.270971208433071      22.338305326376965       20.23140556820826
   989   3      12.082746194782079      22.357516307804403      22.320651248571533
   990   3      14.215711669663705      20.232239351471858      22.454190856462361
   991   4      16.188129913436406      12.116225273786911      11.832626919425175
   992   2      18.128286317637965      14.109633718290448      14.159514310554465
   993   3      18.435569793960692       14.21644865234704      12.245123903112141
   994   3      16.252307358180246       14.33455306353795      14.235093085162447
   995   3      18.320152384155367      12.216310776946949      14.271912344980702
   996   4      16.286031628238462      11.751960032346743      16.219192722496963
   997   1      18.194579322503571      14.170446606515002      18.200658790691168
   998   3      18.251681663093962       14.37012927825657       16.17039484982104
   999   3      16.148452149800463      14.319509485403241      18.256526981792554
  1000   3      18.253152290807968      12.138857493563025      18.332950919626239
  1001   4      16.499519493889451      11.944664391826475      20.006269487571782
  1002   2      18.277696272522903      14.065349807226029      22.209654922235941
  1003   3      18.123738366980312       14.21894744118223      20.288146245271452
  1004   3      16.222672426475235      14.391376810091288      22.285565853194484
  1005   3      18.081109289922271      12.177971844271433      22.393531768811414
  1006   4      16.178395886447493       16.30797144359785      11.726733571131424
  1007   2      18.167522320236156      18.176670469320484      14.119189422225366
  1008   3      18.400442247513098      18.381061467128323      12.251029977850596
  1009   3      16.255675541929698      18.283516977857762       14.18381997591659
  1010   3       18.34845404433009      16.294987364277414      14.209490848849542
  1011   4      16.154080615684823      15.863158470824473       16.13425173580271
  1012   2      18.150587903286119      18.164802705487343      18.205939982107864
  1013   3      18.273592062407118      18.361231863000498      16.268563706742402
  1014   3      16.235138471059688      18.305132918164517      18.386103982007487
  1015   3      18.311993291864329      16.302532966189098      18.314562961122082
  1016   4      16.136925379475226      15.800956945070956       20.27590954466476
  1017   2      18.059478149731625       18.17644578380812      22.263670359696015
  1018   3      18.363370748578966      18.423269091964617      20.316313244855689
  1019   3      16.175628874362303      18.305862999194609      22.295027258062959
  1020   3      18.263735169288079      16.289389224706529      22.275316396332165
  1021   4      15.911315379203165      20.116756469008028       11.78050192720208
  1022   2      18.171638284722068      22.195625700119667      14.081141547985355
  1023   3      18.425035341270235      22.261638822765697      12.192406616317193
  1024   3      16.279444639479156      22.366595302621789      14.154478095163256
  1025   3      18.289525427318523      20.314788372109348      14.292539616510117
  1026   4      15.841527804808921      20.361837136208166      16.194260472957968
  1027   2       18.17206115138962      22.339282006490549      18.078527841644803
  1028   3      18.263467641915817      22.396492602187021      16.193564407264645
  1029   3      16.271743585143557      22.361781304151837      18.337375732196755
  1030   3      18.290048802349972      20.368638529489843      18.328787936907119
  1031   4      15.851259232679267      20.467398758373079      20.038750265601909
  1032   2      18.304821526062817      22.247157169476658      22.189207028143215
  1033   3      18.263642770271407      22.312202391806295      20.306918525428962
  1034   3      16.274267239670394       22.29403102440877      22.468970949490949
  1035   3      18.246724178513944      20.296770189510557      22.447514174104661
  1036   4      19.926103806186813      11.888567899394205      12.000296985316409
  1037   2      22.200786252039368       14.04178836507324      14.148878744913187
  1038   3      22.201146314705372      14.299434951783685       12.23309428137577
  1039   3      20.290909279210844      14.257116021092765      14.359088623682759
  1040   3      22.326920923481133      12.172934666014445      14.303516292552654
  1041   4       20.05426749498622      11.882224956221915      16.035709108735524
  1042   1      22.278531155621611      14.094134535245335      18.168161833874638
  1043   3      22.340326847293859      14.374678237108043      16.164456860874154
  1044   3      20.244754988559713      14.226075516694127      18.312752424056512
  1045   3      22.239465661481692      12.063922530082278      18.442952450406828
  1046   4      20.250763027714978      12.330305995311207      19.808032777110196
  1047   1      22.168855739190771      14.171244861840151      22.293906455639668
  1048   3      22.326576747170069      14.207971022057601      20.265310030154865
  1049   3      20.166525294678671      14.205161836400915      22.281124478527605
  1050   3      22.425614229793695      12.063891526825895      22.276079802847402
  1051   4      20.128419454414928      16.085913197514799      11.866029921813753
  1052   2      22.249586496364891      18.115046220419401      14.184424175262093
  1053   3      22.269364847962908      18.363735419176056      12.223228032937639
  1054   3      20.290202608276374      18.440933059051563      14.322743549413401
  1055   3      22.307994112002579      16.251637011967734      14.215703725963508
  1056   4      20.206256939613191      15.771623994490355      16.381613455689347
  1057   1      22.265372008832326      18.252969452299592      18.242227250852462
  1058   3      22.353632111456886      18.380640026319998      16.184166809510803
  1059   3      20.210024679576453      18.482850616250087      18.260950565223872
  1060   3      22.335158063837383      16.234348005456891      18.329003234990481
  1061   4      20.452685976738653      15.886575030643311      19.935202795861887
  1062   2       22.14505658976833      18.225882783859429      22.249072874728714
  1063   3      22.298559793046227      18.400912218898931      20.325792936234858
  1064   3      20.272650242245977      18.375667563412012      22.354164802122988
  1065   3      22.379850740107415      16.300676085523147      22.297476162388069
  1066   4      20.164689634763132      20.084248306342452      11.874469487076555
  1067   2      22.203921867503734      22.291858805164662      14.062215909336043
  1068   3      22.406429071455111      22.366684258959278      12.191037934807085
  1069   3      20.300328835026829      22.341379766706218      14.294260510005353
  1070   3      22.376493663683185      20.377096904052401      14.314262061726993
  1071   4      20.281379738605509      19.924719331970127      16.241391569635383
  1072   2       22.19753783051226       22.28140117639612      18.216798074083648
  1073   3      22.419859384544161      22.407569050530224      16.300052369705107
  1074   3      20.300915081253731      22.301648951908781       18.32332211543061
  1075   3      22.431469858333411       20.36520928366317      18.288648196803361
  1076   4      20.130902658513456      20.056351213108375      20.025172036025648
  1077   1      22.231851837928509      22.268927710925531      22.287005714135358
  1078   3      22.529656473500022       22.29977682253293      20.248735018043003
  1079   3       20.21993425922361      22.368799028731342      22.446747178176661
  1080   3      22.537565548888342      20.236294070764146      22.368882782928615
