(written by ASE)

1080 atoms
4 atom types

0.0      24.299999999999997  xlo xhi
0.0      24.299999999999997  ylo yhi
0.0      24.299999999999997  zlo zhi

Atoms # atomic

     1   4    -0.12316137582539018    -0.27222994507724152   -0.070552201820985927
     2   2       2.011166843563728      1.9558297882273665      2.0915682852140796
     3   3      2.0732347122056294      2.1117359737888459     0.03393944729407624
     4   3    0.077501082674711064      2.1747895127228909      1.9373231026042264
     5   3      2.0748877031024802    0.090886821785441663      2.1384948025234345
     6   4   -0.066054915907659204    -0.22699379617116788      4.0882662804695764
     7   2      2.0343853476509839      1.9628054493207965       6.186886736824218
     8   3      2.0102639798628417      2.2880588827515944      3.9909237574610885
     9   3    0.045981157957664963      2.2783390628492199      5.9830513005963395
    10   3      1.9089783700158032    0.081250316665344713      5.9580247976010545
    11   4    -0.19621745759782905    -0.15221936820628815      8.1749772702518708
    12   1      1.9991269647598628      2.0025141899920773      10.110648646208213
    13   3      2.0149263387751644      2.0046783183326564       8.047081768821112
    14   3   -0.047771083027177808      2.2876319451735774      10.068324521642607
    15   3      1.8892885481324508   -0.046461654599888706      10.386029228467615
    16   4   -0.026847000413694651      3.8017359027437849   -0.055265482966310536
    17   2      1.9063903753459319      6.0228857908710633      2.0391284280187554
    18   3      1.9847651160321367      6.3859774869006989    0.041392857025092274
    19   3    0.026606785278606378      6.2507280287314915      2.0642150207668837
    20   3      2.0455904385695907      4.1505281390642548       1.824784591670507
    21   4    -0.03291595466915407      3.9537821698975755        4.25628352369643
    22   2       1.979224003483067      6.0944619469450148      6.1808376125801878
    23   3        2.25450967160661      6.0890192620088213      3.9428285854553788
    24   3    0.035483848133806478      5.9978164146635775       5.769802506099257
    25   3      2.1306811317718539      4.1229203784798187      6.0007820050419962
    26   4     0.21334534073910441      4.0677181944342573      8.5300967809462769
    27   1      1.9597279099006515      6.1157086623090722      10.086609781841148
    28   3      1.9172519088268214      6.1738210176581187      8.0459793530170689
    29   3   -0.056940939380866459      5.7861608674795821      10.205956644729046
    30   3      2.2593839639349875      4.0397363981170864      9.9687286856245709
    31   4   -0.053966364172196031      7.8049957860748673    -0.11339718026324636
    32   2      2.0765477213884904        10.1066591528082       2.091680060708637
    33   3      2.1535671239732723      10.110878011693446   -0.084578870116320634
    34   3    0.032752753725523942      10.167458225774244       1.831170199246247
    35   3      2.1768361411922799      8.1575901711994998      2.0348348647340826
    36   4   -0.060151991991747207      8.1861210240008973      4.3758117641873193
    37   1      2.0266339660422719      10.124689397800763       6.088464431374673
    38   3      1.9436928249114256      10.287761179444166      3.9704999625607074
    39   3  -0.0088462989676243078      10.278112492417502      6.0100475647198772
    40   3      1.9042472165715825      8.0716314647395802      5.7956289466346327
    41   4    -0.30456636205389109      8.3394553491002537      8.0400513094210222
    42   2      2.0809696709405228      10.152900054170743      9.9478251738155343
    43   3      1.9639210700985184      10.130244877927852      8.1079858977900141
    44   3    0.062180504218838743      10.201302070983447      10.278629668507424
    45   3      1.9071738641804137      8.1756237689223674       10.34989263524607
    46   4      4.1556474758407269    -0.30837975796632416    0.018945253861465373
    47   2      6.0499385184803449      1.9701385128441928      2.0214312914730019
    48   3      6.2257470475198229      2.0613789624058723    0.081610216907821068
    49   3      4.0572357823816079      2.2276211522775484       1.987955543702411
    50   3      6.0103936772133784     0.08340678060787457      2.1854542372220354
    51   4      4.2210387622774235    -0.24628254267343405      3.9700707641041735
    52   2      6.1527146899813951      2.0572416767215653      6.1668223614394746
    53   3      5.9781591142390873      2.2616049020172695       4.034868563639451
    54   3      3.9864255532152186      2.0182059414680227      5.9449042247672654
    55   3       5.981125930701217    0.071667113672368984      5.9673927322913105
    56   4      4.1508623950914112    -0.06905201568245696      8.0246479093410077
    57   2      6.0183294645542276        2.01249372466545      10.284980576762155
    58   3      6.0558174766146555      1.9221051385286196      8.0742898665144764
    59   3      4.0885672687649022      1.7711639712663909      10.122182089848216
    60   3      6.2679813920896281     0.04246434085996776      10.249032233147608
    61   4      3.8536758126735791      3.8636476721268469    -0.15798086119611215
    62   2      5.9487939187176249      6.0895745491336042      2.0524891178419757
    63   3      6.3671650250457734      6.1961837934972896    0.010153476617984509
    64   3      4.0770330551772211      6.1528822456408667      1.7784111199945782
    65   3      6.2244762132336904      4.1494226217717669      1.9153346577535111
    66   4      4.1218881437622992      3.9405939774744736      4.3453544122588088
    67   1      6.0596198124577683      6.0087086963610448      6.0647744957786127
    68   3      6.0125758171073711       6.142984870268414      3.9770875980991698
    69   3       3.980138793247654      6.3186556902851896      6.0716278944427655
    70   3       5.838874275545118       3.997317213123555      6.1112938078211423
    71   4      4.0703033465238239      4.1496322348055301      8.3866582909809235
    72   1      6.0920039293370722      6.0138147117177212      10.105910471609938
    73   3       6.065875139603639      6.3149781982020983       8.068671255535417
    74   3      4.0264274033428356      6.2184682108038531      10.074739909702146
    75   3      5.8604126004569084      3.9828008198645897      9.9288152986534861
    76   4      3.7450523327751601      7.9772412011293445   0.0033803876199379091
    77   1      6.0084647816863992      10.124716008892296      2.0266661428008064
    78   3      6.2678946523516741      10.142895431902254    -0.06938281725581176
    79   3      4.0071937487685956       10.30485669088532      1.9422730734088085
    80   3      6.2422579458371175      8.0811755011631288      2.0084229051204816
    81   4      3.8719286806383675      7.9585954058043393      4.3215050242805715
    82   2      5.9091404374587535       10.10392231418097      5.9922742326558645
    83   3      6.2319761431731049      10.289293270669944      4.0804764786896692
    84   3      4.0350145619923756      10.080744829458114      5.9113478454583479
    85   3      6.2096933036256035      8.1770771420900825      5.9399283421536531
    86   4      4.2682464713958241      7.7250513256721067      8.1751245338591847
    87   2      6.1959277887087172      10.115075949655157      10.065655515798516
    88   3      5.9683592536205943      9.9936349131023245      8.1020823341827395
    89   3      4.0063761806657441      10.015254382509092      10.305138611270527
    90   3      6.0965687305958989      8.1176102080058321      10.306038905929743
    91   4       7.873416098484471    -0.22481117889894234     -0.1214486624618268
    92   1      10.139702257838508      1.9742462900703088      2.0353721696718772
    93   3      10.275017463854716       2.052740599176849   -0.015249741997347856
    94   3      8.0561358111304013      2.0689881880965135      2.2279850604304938
    95   3      10.186900664998955   -0.037911637030176942      2.3471779063129423
    96   4      8.2775818153819021   -0.066619535934836535      3.7922861475140297
    97   2      10.261093046969847      1.8991329296170936      6.0859609985813039
    98   3      10.106794302479697      2.3362803098706748      4.1266037678099741
    99   3      8.0436441631602413      2.1746723048464225      5.9350655011124074
   100   3      9.9720847795053338    0.030345232238356279      5.8968497476515553
   101   4      8.4337474459908535   -0.022282138686232286      8.3203142429917296
   102   1      10.111971945245587      2.0543104548322759      10.091031975021357
   103   3      9.9139622524979973      1.9457430718971611      8.0071022633598279
   104   3       8.041619835322992      2.3350979612542946      10.102531107626861
   105   3       9.946189738704982     0.03618014037970578      10.238983962084005
   106   4      7.8557756090605197      3.8589155256198922   -0.036274442876726022
   107   2      10.067830807001705      6.0033252832802626      1.9767551833327772
   108   3        10.1490507031069      6.2881702446977989    0.064251099977498491
   109   3      8.1856727132336822      6.1781774175187092       2.175827847077378
   110   3       10.16716621829422      4.1264237217745032      1.9628869736934038
   111   4      8.1405591823180252      3.7398471099191224      3.9391948428784609
   112   2      10.044386341534084      5.9576818044668931      6.0413900385970924
   113   3      10.372963565708114      6.0367341549158313      4.0466873184641061
   114   3      8.1627078305996701      6.1624259108730319      5.9423084961430446
   115   3      10.158460156108825       4.089583562643023      6.2347632909329951
   116   4      8.1912400147935234      3.9181334527132314       8.369785603525143
   117   2      10.101996701065877      6.0717098835925274      10.300560792221967
   118   3      10.090759503414604      6.3891089617206811      7.9599020656530532
   119   3      8.1615624695596765      5.9779720761812536      9.9823472836238079
   120   3      10.195264078035933      4.1115385842329033      9.7853350935294507
   121   4      7.7821012942834242      8.1757711610687274     0.10342810142478884
   122   2      10.051512293373293       10.02992046223253      2.0364402335353953
   123   3      10.172170525719663      9.9505305401244382    0.073920051356702515
   124   3      8.1699587187748914      10.194653257848781        2.06134656317878
   125   3      10.244589863058941      8.1517284532075074      2.2716429115199834
   126   4      7.7623947797788402       7.966131847926806      4.0609312722733577
   127   2      10.067438979004825      10.019423464760619       6.127338901409864
   128   3      10.190575869895678       10.45068157535926      4.0246471870876785
   129   3      8.1394148461500748      10.338320742523869      6.0933991154410796
   130   3      10.150105035466751      8.1549379006374902      5.7653915443785086
   131   4      7.8771455065417664       7.734716360670193      8.1180103211167296
   132   1      10.109215261237175      10.129040260638691      10.045490278368494
   133   3      10.222518159451823      9.9155318056187376       8.003598655620376
   134   3      8.0660039317652146      10.158386393858324      10.051252068327749
   135   3      10.230461912593684       8.028574642922333      10.229082369940496
   136   4    -0.08989465824718236    -0.12117130489557756      11.894777605798682
   137   2      2.0025558623537694      2.0186483297933058      14.049653795370293
   138   3      2.0645694206013254       2.103798602811668      12.189174863701377
   139   3    0.027347265489063605      2.0336933173209455      14.337979545906522
   140   3      2.0948318912687638    0.012820450072190062      14.207851427961909
   141   4    -0.30859237469952361    0.041917029339228216      16.153243406070839
   142   2      1.9245866164069705      1.9876274311400128      18.169831789923887
   143   3      2.0669131950663147      1.9263978446822694      16.306626543766285
   144   3    0.056476788441096298      2.1410050440214268      18.363292642092564
   145   3      2.0609449255179992    0.056062999746728875      18.509718284339638
   146   4    -0.29198693738667453    -0.12319271424537216      20.166357655013147
   147   2      2.0658461121375389      1.9473086383665623       22.29114728848452
   148   3      2.0768165621757477      2.1715484019163869      20.329666978326813
   149   3    0.066471035367438869      2.1306640264064143      22.397525411437083
   150   3      2.0885291980924112    0.023010603910167741      22.268099080550563
   151   4     0.11859422103884235       4.531224503323803      12.241923543119478
   152   1      2.0468119427138265       6.063442438334671      14.165834535245139
   153   3      2.0716740402577956      5.9086369932140483      12.154021389332094
   154   3     -0.0202216510480175      5.9487066927655556      14.266322438348812
   155   3      2.0593188932291859       3.976245806990601      14.412979835009079
   156   4  -0.0023105092169933492      4.2421680215291211      15.859305032047349
   157   2      2.0144890807245526      6.0472843262571576      18.217266373278939
   158   3      1.9075240786950167      6.1230759128702923      16.294232874360947
   159   3    0.031753544141175961      6.0065935591133766        18.5450240856104
   160   3      2.1837605753734546      4.0233223871032644      18.326597468888757
   161   4    -0.18280834172190108       3.840865335894418      20.167316292799601
   162   1      1.9777388055540877      6.0565140035835503      22.302379278785761
   163   3      2.2973555903159011      5.9955868451838352      20.290615799620024
   164   3   -0.045844848935037978      6.3189387537732831      22.224317559728693
   165   3      2.1633819553060514      4.0430814831545341       22.39643279443511
   166   4     0.04369320819697823      8.2322239517263647      11.812645612554897
   167   2       2.108654215731856       9.970019626059397      14.154132520822882
   168   3      1.9139350185416397      10.203763625719715      12.266796918913537
   169   3   -0.022398392384397937      10.219766197870156      14.349046899313317
   170   3      1.9458305981176223      8.1035942149921869      14.236568629979356
   171   4   -0.025445287148478976      7.7907134035622176      15.853676158401541
   172   1      1.9805201955517948      10.032377643009765      18.223082568590677
   173   3      2.0009911542805972      10.304032013019153      16.194803895689173
   174   3   -0.020994215176008298      10.351712531497645      18.251821784345235
   175   3      1.9559494703639584      8.0238140320245783      18.516002799860082
   176   4   -0.047512296022838088      7.8325922908658381      20.200315259948788
   177   2      1.9295846825347189      10.051486421256927      22.202394725755312
   178   3      2.1080351869003686      10.379078361296367      20.307478749941293
   179   3    0.047816163537372336      10.194834174631671       22.33775667044107
   180   3      2.1901390391008122      8.1779605969008244      22.157904362829143
   181   4       3.822087151072258   0.0099211100661767363      11.853529178081118
   182   1      6.0356777392261742      2.0348343941858369      14.147496921977975
   183   3      6.1789273180197846      2.2331882616977468      12.154620170297701
   184   3      3.9910259318823065      2.0355140705907138      14.383728008721747
   185   3      6.0469543235063403   0.0004064587890780136      14.316021093792079
   186   4      4.1032931596169986    0.068843937006552933      15.842973564481586
   187   2      5.9670894225151025      2.1279261760461536      18.223502896266115
   188   3       6.125637956406039      1.9053065785420364      16.333237545102975
   189   3        4.07114018345652      1.9517620981208508       18.41853621415693
   190   3      6.1837486820080061    0.026308725841882676       18.49821172018277
   191   4      3.9775121729350764   -0.023684572697968434      20.130385845043008
   192   1      6.0422660063190987      2.0125359876717637      22.307271256251873
   193   3      6.3226887018170688      2.0825696526075985      20.271921815968884
   194   3      4.0354497338633024      2.1104356737409828      22.376377292067186
   195   3      6.2645580610767615  -0.0076392782855454217      22.233028074790024
   196   4      3.6925615636942775      4.2857963547909721      11.813186511985068
   197   2      6.0568103479970041      6.0029761703414213      14.068446417300843
   198   3      6.1082710293228359      5.9506129618248256      12.165387152143071
   199   3      4.0879448333999022      6.0556989587241867      14.394121304687303
   200   3      6.0755632512195739      4.0673403858193513      14.451908592426516
   201   4      4.0307580916237473      3.9754712357651822      15.849936635821749
   202   1      6.0585781148532538      6.0516223994340175      18.242812653540984
   203   3      6.0902919335032353      6.3471834216434289      16.217525405516341
   204   3      4.0143678256645154      6.2601801722940431      18.168596086326723
   205   3        6.15025688327606      4.0161596639836619      18.311990879025153
   206   4        3.70513778518557      4.0701150771714829      20.393946656282765
   207   2      5.9848790983966209      6.0523134674883119      22.284413051102387
   208   3       6.077151408990634      6.0867164785467018       20.36661281472346
   209   3      4.1192947169186898      6.1381077044103831      22.503566190465428
   210   3      6.2375629967845621      4.1347515039410077      22.399891670400915
   211   4      3.8893738959610684      7.8563730030046095      11.772183025682217
   212   1      6.0174114677440498      10.090627298413247      14.159256008880918
   213   3      6.2525416034703163      10.167281556753961      12.122550724329017
   214   3      3.9967924749070431      10.212881420141319      14.290813600458709
   215   3      6.2338329885622983      8.0417970504560419      14.094783081372048
   216   4       4.146408982522412      7.6919178710645468      16.182113701904843
   217   2      5.9723664760534447      10.067204691164974      18.173830817090792
   218   3      6.1837791972196223      10.067428612573435      16.265216970301822
   219   3      4.0843476432730537      10.169964318808439      18.285467695471642
   220   3      6.1705077159491504      8.1576097073947391      18.429937633390477
   221   4       3.816693014000752      7.8517273816466462      20.087491616357546
   222   2      5.9629437583020906      10.111775529946517       22.26870694412634
   223   3      6.2069538026608431      10.249075505223175      20.296390560535706
   224   3      4.0936697314803716      10.269283290245413      22.262062500904616
   225   3       6.156900937316454      8.1542154506564444      22.284143184629595
   226   4      8.3677760252942655    -0.32069651588257037      11.933276300050743
   227   2      10.143431055419354      2.0356178806491911      14.047975241272313
   228   3      10.052178488080058      2.2835911357426006      12.163138387593994
   229   3      8.1565603828949609      2.1011308329572449       14.35109409596455
   230   3      10.184412287691512    0.091789106454494437      14.217546978253303
   231   4      7.9092189702350169     0.10185769115777209      15.853761880040354
   232   2        10.0689946975127       1.999542909907946      18.206930781065598
   233   3      10.262579539856427      1.9616038152725133      16.308250616477558
   234   3      8.1771215693229422      2.0479495298418513      18.293019165124768
   235   3      10.236926095945345    0.069703288742350586      18.420262184773762
   236   4      7.7513197331731059     0.13899874870237547      20.332220357455675
   237   2      10.065398091268232       1.958857421520577      22.358195349033249
   238   3      10.221107811865993         2.2317729981854       20.31469674049837
   239   3      8.1830023286122628      2.1399686925349957      22.341100087283273
   240   3      10.229011872394112    0.075806659416843197      22.185306986238089
   241   4      8.0390275796620774      3.8347268746338017      12.079106898910043
   242   1       10.10716176911586      6.0388110758488951      14.164417765249411
   243   3      10.196323020788668      5.8367613059723009      12.140632198826458
   244   3      8.0551581535031591      5.9865962269882909      14.351829006837381
   245   3      10.109549099771289       4.015986429298473      14.492887974895346
   246   4       8.057599997973993      4.0489573997261568       15.88033076568987
   247   2      10.043991529154955      6.0780163393514099      18.161129518143049
   248   3      10.174027969309885       6.194951104382115      16.306227421368739
   249   3       8.172257740231899      6.1432136313098287      18.405852629392399
   250   3      10.237853851832481      4.0818134724738417       18.28136067756024
   251   4        7.76511478049121      3.9528481510452598      20.260247723735954
   252   2      10.052665303829382       6.072078380891786      22.247419025493713
   253   3      10.339238367613531      6.0152109389158417      20.345381113359636
   254   3      8.1750999781044289       6.195924740692524      22.242647588485294
   255   3      10.201761235384794      4.1464718994169658      22.446316410938042
   256   4      7.6901892405638721       8.169230756771654      12.140149705324319
   257   2       10.06010592423692      9.9833499717114105      14.013845834071933
   258   3      10.250480279185455      10.096361341492679      12.143388493687322
   259   3      8.1696425433169004      10.159308906407281      14.162012611289803
   260   3      10.206646854456848      8.0847348329153501      14.182374451880751
   261   4      7.8444283815066624      7.8932338518687706      15.965087781797811
   262   2      10.102221866149709      10.188429697453147      18.092562750172455
   263   3      10.174035695911105      9.9893377897639244      16.228627077980807
   264   3      8.1871486412172505      10.046443008982694      18.387343592716828
   265   3      10.242704204941074      8.0697799655557461      18.470448096714531
   266   4      7.9059082903971616      8.0580638581833863      20.055894135964166
   267   2      10.052305207712779      10.192445526074893      22.218763331362265
   268   3      10.287416963489497      10.143225111771981      20.316781190893622
   269   3      8.1577863245052953       10.05236789850907       22.28303018381391
   270   3       10.36560040626587      8.0943107200636266      22.293025652354476
   271   4   0.0018996304422359185      11.913048724275191      0.1576422282767502
   272   1      1.9891325054835554      14.133518584551524      1.9778582079828713
   273   3      2.0039296270273237      14.486991925799943    -0.10232419434513909
   274   3   -0.047203715975538532      14.452075105637981      2.0285429074372798
   275   3      1.9824911622556494      12.137175237420523       1.731292900065853
   276   4     0.11039166486726694      11.933789197807407      4.3379397923361607
   277   2       2.054793809969782      14.216479008333673      6.2316056457368045
   278   3      2.1295667510130367      14.205942714789337      4.0304537651065298
   279   3   -0.035431202071325815      14.144744154534591      6.0088586260855452
   280   3      1.9797732991430348      12.217287838317189      5.9171377842288768
   281   4    -0.24327234917351084      11.835783706790309      7.8016507696300375
   282   1      1.9600809910702568      14.194457320883892      10.098689058815573
   283   3      1.9714836160065152      14.200796626403541      8.0973126422849102
   284   3   -0.066732433476085137      14.151547904112421      10.424034403984908
   285   3       2.065187975023874      12.102491882044264       10.31688284262286
   286   4   -0.013174976470040655      16.056692816784633      0.1815051769560373
   287   1      2.0166330382854953      18.229046105470108      1.9552718450219482
   288   3      2.2352862255411394      18.108902667471856   -0.088034121204470128
   289   3   -0.027029432611395787      18.158722487156993      2.0653412551207126
   290   3      2.1721096870989194      16.198309213755323      2.1022073711709131
   291   4     0.37035104503178534      16.032885965073902      3.8040000280627781
   292   1        2.07937449821388      18.163496650356361      6.0906552146792086
   293   3      2.1098007153902678      18.305801420512651      4.0533608078685086
   294   3    0.012332830695380331      18.348200097432319      6.1506712721993599
   295   3      1.9172952538166823      16.156351091815484      5.9793811579726439
   296   4   -0.071837659835621098      16.383767544860323      7.6870217479895331
   297   2      2.0143790337990048      18.135805023030795      10.030751127657153
   298   3      2.0066256839764534      18.285611993226702      8.1441916644148904
   299   3    0.071227957653169346      18.417625026993232      10.261460594582692
   300   3      1.9355721888102408      16.269700203444899      10.297570891202776
   301   4    -0.25217210548838948       20.13760679730467    -0.15029719806666833
   302   2      2.0568508403292629      22.134211780448506      1.9617519300676596
   303   3      2.0516018958247542      22.485059827920551    0.043463385783545541
   304   3     0.10359965693044013      22.463354869978016      2.1639667331839565
   305   3      2.0673651685517829      20.278358338514625      1.9936827079380837
   306   4     0.14427129684241879      19.671919387776043      4.1189240681484458
   307   2      2.0576858204864124      22.179235160055025      6.0080709753687138
   308   3      2.1138099430206143      22.324195062160676      4.0742709612872208
   309   3    0.065066415588637197      22.350467168270718      6.0348632442009276
   310   3      2.0738940231300949       20.32143910004212      6.1636288788751603
   311   4   -0.073693129843441896      19.949896971013768      7.8250419050249125
   312   2      1.9865334967313686      22.226952634658339      10.018514396964102
   313   3      2.0026362956751478      22.490723494233322      8.1075166462274453
   314   3    0.070241422254953542      22.232751529992594      10.246130364661921
   315   3      2.1971687501865231      20.326733324410615      10.130970122942587
   316   4      3.8503714911572469      12.020525137238419     0.23317636840065775
   317   2      5.9996783247640275      14.148279843742243       2.103585805388053
   318   3         6.3524573289349      14.233124925175657  -0.0075853575432778542
   319   3      4.1153959715168362      14.117248696795954      1.8413207260881064
   320   3      6.2994469705905418      12.214236422038102      1.8685820942445841
   321   4       3.748895213406481      12.377321305435403      4.2437192619717878
   322   1      6.0742156863469496      14.151981219203631      6.0221130274139956
   323   3      6.0595739910586124      13.971952934874507      4.0004332502676707
   324   3      4.0086500201572575      14.064150796799153      6.1064467364727522
   325   3      6.0705052614785888      12.088662386968304      6.3023852717240194
   326   4      4.3548728001645172      12.444910913565746      8.0814051208293893
   327   1      6.1369369958785951       14.10139409796882      10.146229393679382
   328   3      6.0031922147759023      14.164781335547783      8.1152952313235183
   329   3      4.0228076365161023      14.249893203980633      10.175698185818083
   330   3       5.884993524347192      12.076489505976731      10.119371269593856
   331   4      3.7277809709557266      16.161722543621281     0.22568159373313551
   332   2      6.0905433406311866      18.306936519837429       1.881435657501688
   333   3      6.0686269760569216       18.12304669290619   0.0093394952846643994
   334   3       4.140879565360879       18.18400579804354      2.1477417730571893
   335   3      6.1620003315458662      16.166746927595721      2.1766775851972433
   336   4      3.6809600514849179      16.255428130108449      3.8947075105540234
   337   2      6.0786143429625046      18.047025190416278      6.0453901683355307
   338   3      6.0942547624103627      18.376660153030766      4.1002230102612245
   339   3      4.1179053585673495      18.361727147923105       6.078334813988076
   340   3      6.1665386455258968      16.185460883971285      6.0603263645276826
   341   4      4.4609812066460872      15.875588476140649      8.3623447103046615
   342   1       6.079003606663405      18.199108149644076      10.108701419047177
   343   3      6.0610385090213361      18.316998204435027      8.0555122640969596
   344   3      3.9924750505681748      18.237501719843824      10.208371400959507
   345   3      6.0371447893301307      16.176036926010937      10.238210270648485
   346   4      4.0830442728351564      19.938930439575941       -0.24439535629601
   347   1      6.0745287942712451      22.198635452550651      2.0269938031613486
   348   3      6.0542613559469132      22.571037061612738    0.010668843420604552
   349   3      3.9888386847529671      22.470621919657916        2.02861593532577
   350   3      6.1212464160242632      20.187414250314148      1.9578079542475677
   351   4      3.9482516118146247      19.827915475103246      3.9845780384915845
   352   2      6.1744015465652753      22.239808714918411       5.978944316242556
   353   3      5.9167636899093701      22.307532491087368      4.1097360520056778
   354   3      3.9991250092171846      22.499589448277156      6.1868838427110138
   355   3      5.9703313161013307      20.374801101801808       6.236744404093205
   356   4       4.183810124241897      19.869322332048998       7.988369209254885
   357   2      6.0914155496191968      22.235887253203487      10.009076529029739
   358   3      5.9788468573500184      22.513234150635274       8.108008227482209
   359   3      4.0538001365776388      22.621921389781122      10.115667519107104
   360   3      5.8743151524558277      20.356691662996148       10.08678583851389
   361   4      7.8295422909751347      12.057489973605005  -0.0059068649055975791
   362   2      10.165091374752548      14.051915441249545      1.8695996714485639
   363   3      10.044326130193733      14.395535503481968    0.020538040261853418
   364   3      8.1820597422651318      14.308873123920206      2.1490233658545415
   365   3      10.144985686370056       12.17717367506086      1.8969938417406189
   366   4      7.8657520503360585      11.986434441983411      3.9140735711197601
   367   2      10.100352636136067      14.188480850454779      5.9253833134759075
   368   3      10.211099231681841      14.119519961931578      4.0508247575918022
   369   3      8.1474574101382906      14.058628594640499      6.2265354201306362
   370   3      10.184967992810236      12.213604819790897      6.3203593224319192
   371   4      7.9773535024907947       12.23200450836133      7.7938339592791346
   372   2       10.05335194532398      13.974527699478001       10.17549034113553
   373   3      10.018438714628052      14.424959387506913      8.2389027743413887
   374   3      8.1581778769917772      14.157926158705493      10.377505069791958
   375   3      10.241181093042707      12.162580672562976      10.010480307750482
   376   4      8.0902151929004908      15.956192070426663    -0.24439539996969911
   377   2      10.226773998579432      18.129316780975472      2.0161753914627107
   378   3      10.034693794013563      18.202571881405778    0.048472381644331645
   379   3      8.0937292824455707      18.165671527393147      2.1857060677771543
   380   3      10.095437751242001      16.233321124963151      2.2176828016883134
   381   4      8.0749517852077481      16.171120985543357      3.7489122912974033
   382   1      10.121148810792734      18.183545704829129      6.0336462251959757
   383   3      10.047370044932929      18.414201200666117      3.9862013150772833
   384   3      8.0240211553042524      18.442360352457435        6.06956202785911
   385   3      9.9747967120642738      16.129832802197214      6.1593835912272858
   386   4      8.1742737001459815      15.988218718152838      7.8796704599904697
   387   2      10.164784024895027      18.113562328955073      10.102771099130846
   388   3      9.8579083425734115      18.082484597331806      8.1720575311103456
   389   3      8.1151755347702554       18.39942207907383      10.257535172136002
   390   3      10.022610741174907      16.217088670925627      10.403401541166087
   391   4      8.1978552948344063      20.139860656073584    -0.35452846928207904
   392   2      10.050344568099343      22.243410837816644      1.9230883951201481
   393   3      10.217913235813098      22.478767549348426    0.049726069708112886
   394   3      8.1233156675998828      22.474156491492131      2.0666031210484523
   395   3      10.031681693942712      20.277787484854407      1.9714957617839706
   396   4      8.2420044959322372      19.924199229043385      4.0234649617106149
   397   2      10.187071132361027      22.115531072430787       6.081985291410045
   398   3      10.077694609874154      22.188989354740897      4.1204283120819838
   399   3      8.0673364989439307      22.315259703610703      6.0934521252110834
   400   3      10.086094145778359      20.274762740274298      6.2529894491520297
   401   4       8.177782614639943      19.816159521730636      8.0798008036280642
   402   1      10.062868004284374      22.184864673882085      10.067228130580157
   403   3      10.070127794923467      22.557919544305424      8.0307624218304792
   404   3       8.011964761043247      22.271959998155367      10.187385758118003
   405   3      10.301411630261791      20.192914324888939      10.053128917670096
   406   4    0.071625142376432915       12.06356666474808      11.793854766316144
   407   2      1.9108353046718418      14.152377075198483      14.108319393059228
   408   3      2.1515817409879969      14.186404813266126      12.256169126836232
   409   3    0.013504869716878328      14.269304690132598      14.147666047696889
   410   3      2.0377614019036381      12.249525504367837      14.365606414312227
   411   4    0.090368548199626003      11.776841076175094      16.202616215788055
   412   2       2.054344220139328      14.148167861778521      18.124272503830529
   413   3       1.989536682381148      14.365276379531688      16.246871586518417
   414   3     0.10577238760040637      14.205091139665818       18.44242800933506
   415   3      2.1629920551957964      12.238759370633554      18.229954410128318
   416   4     -0.1780804913119991      12.029914452643784      19.948553403305013
   417   2      1.9178822740884791      14.097603593034529      22.272009625014309
   418   3      2.2767794552696974      14.148032036672875      20.306226953808526
   419   3    0.042063377109317235      14.334215468686811      22.190178610618098
   420   3      2.0909493832485131       12.21119759721191      22.416511485846328
   421   4    -0.15760429264255865      16.051784234971493      11.907600758545948
   422   2      1.9737062488856019        18.1927029862719      14.083328988309601
   423   3      2.1003044904080053      18.408414176145509      12.214271904936382
   424   3    0.086398685278518392      18.355617555304182      14.273273443732924
   425   3      2.1355563158004318      16.257374820022395      14.266522156730039
   426   4    -0.42869219406706949      16.160869479348399      16.344505265698487
   427   2      1.9511584388232968      18.217025947540272      18.209264873217776
   428   3      2.1664296556244751      18.193361165616494      16.303491671772999
   429   3    0.086041996941580628      18.360256060509904      18.258545407521726
   430   3      2.0607068308311618      16.286009503809801      18.491827376215944
   431   4    -0.32094199828025349      16.092852192499361      19.990905601106565
   432   2      2.0143968574978057      18.097924175411023      22.231680679302666
   433   3      2.1164501934107074      18.489328963080339      20.271602593846861
   434   3    0.094480761410384917      18.250455640669625      22.332395283372286
   435   3      2.2277130407778589      16.220604687405718      22.078322947050498
   436   4    -0.28782660089569534      20.231487320112194      11.931728246233115
   437   2      2.0017778846922281      22.210836673674837      14.105014146894399
   438   3      2.1727306115645262      22.261797696849445      12.207790054483823
   439   3     0.10294504180665839      22.281732584963034      14.212018818803491
   440   3      2.1444181034926122      20.290853256672428      14.395104766309377
   441   4     -0.3422492173243829      20.161700058678537      16.180300017152192
   442   2      2.0007348365884048       22.20982321032653      18.131275645205772
   443   3      2.0694903776284788      22.455907213787707      16.269613336355171
   444   3     0.12171049304617458      22.288350482059357      18.334228679225788
   445   3      2.2133149814555138      20.315508240504382      18.207373873896334
   446   4    -0.36660517955488137      20.202562096583527      20.279987053958614
   447   2      2.0066898377030382      22.191195997862867       22.18755692286091
   448   3       2.182168513494223       22.29704477294003      20.303468612605968
   449   3      0.1227116775469539      22.374268177203213      22.341783946521289
   450   3      2.0896245126304103      20.305415612878839      22.466951828310361
   451   4      3.9995886538483871      12.307468978753981      11.764814614658068
   452   2       5.970443140063832      14.213003867120012      14.215913660017979
   453   3      6.0192937194879255      14.114820748921243      12.240313194702182
   454   3      4.0534288846651663      14.183680373529816      14.423500698292752
   455   3      6.2458803096921125      12.188567496264389      14.259089519876012
   456   4      3.8419563301399662      11.859924061772849      16.073262276539197
   457   1      6.0430921002390958      14.134497423801003      18.205007318725301
   458   3      6.4142063117965353      14.154176711108153      16.178140871045713
   459   3      4.0266917232822497      14.347825420663728      18.269510309239848
   460   3      6.2651043189581008      12.070125303116027      18.216029686234481
   461   4      3.8114841179357715      12.058586966219439      20.039196071421213
   462   2       5.991738421357435      14.200640765601008      22.276709873765526
   463   3      6.1406870044444206      14.067106606253962      20.293364685945086
   464   3      4.0946006271204674      14.173587755786208      22.387786078619065
   465   3      6.2913709644687801      12.148259522822524      22.355664220018735
   466   4      4.1990515960783945      16.019321904450397      11.764677420222219
   467   1      6.0533984571263844      18.178561439991174      14.153527756361887
   468   3      6.0736739317033122      18.439717960233722      12.162446671934593
   469   3      4.0115246322118123      18.291173063775179      14.370295168773884
   470   3      6.0568599774506726      16.148805586178941      14.270364273759142
   471   4      4.0308292374402725      16.329983129033561      15.918997391548881
   472   2      6.1305721824734674      18.102594131282718      18.233061534767081
   473   3      6.0954964397160927      18.343356368837405       16.27522992475896
   474   3      4.1208796054115888       18.24364673282675      18.375323906490589
   475   3      6.2421845103909739        16.2171554308736      18.270960942463045
   476   4      3.9854276176890662      15.957174791896421      20.082531211744907
   477   1      6.0810197561078159      18.159302008301371      22.256853551694817
   478   3      6.1477499713857187        18.4557358351536      20.220082901905442
   479   3      4.0458016768448886      18.452503652403948      22.213173001128386
   480   3      6.1804463311021243      16.140188738443452      22.151627027947654
   481   4      4.2456607099607657      19.878937278809264      12.011793097096771
   482   2       6.100250346705165       22.30731800095592      14.039291418695472
   483   3      5.9610029573893755       22.29471534072395      12.145052134736323
   484   3      4.0634184114323864      22.375697752931817      14.383439627052949
   485   3      6.0238334347616558      20.377008559715616      14.387656060082447
   486   4      4.1638260485441796      20.076200701278061      15.943643170529914
   487   2      5.9951807330563271      22.283589864494999      18.175813787170782
   488   3      6.1118356943573477      22.451423590576159       16.29346267420857
   489   3      4.0804327869112651      22.516428516685554      18.350459811531191
   490   3      6.0202356094836267       20.36753650703346      18.214349326419075
   491   4      4.1672539487016351      19.901930815151928      20.270812120231106
   492   2       6.116383581372026      22.224235820335554      22.264019307922577
   493   3      6.1072372326701236      22.274158284735279      20.312373473768396
   494   3      4.0758754823641556      22.370798052474655      22.446165198787163
   495   3      6.0667099746834978      20.302418037003807      22.483001077314061
   496   4      7.7225240955970751      12.035520091147058      12.316301872325177
   497   2      10.085095826727553      14.018371024180258      14.203645112118005
   498   3      10.413568725852109      14.142759824974291      12.165910492324722
   499   3      8.1667938464111884      14.194125628807299       13.98847015848321
   500   3      10.214608731033033      12.128434514925427      14.242490491677904
   501   4      7.7332174965344347      12.124557624897237      16.198234032743414
   502   2      10.156505957041635      14.244258945526278      18.360286731171506
   503   3      10.022272962817784      14.316184747802341      16.133048465924247
   504   3      8.1888547826280043      14.128881266630852      18.297694374215343
   505   3       10.17751320717257      12.110767569710815      18.193793845485608
   506   4      7.7999350646849264      12.246809752815299       20.10447431843065
   507   1      10.111590022126629      14.104194808699484      22.267500571955843
   508   3      10.291144970928249      14.168352155689069      20.232520669242888
   509   3      8.1105893011921619      14.311509432534784       22.19071357728706
   510   3      10.175558016518316      12.080877121883805      22.476026470034178
   511   4      7.7930910492643397      16.129786526100414      11.855065792597584
   512   2      9.9891236032133097      18.150737309000441       14.23234289326575
   513   3      10.145231910335067      18.452937490167027       12.18161134272008
   514   3      8.0966937844983562      18.421349023949258      14.182104629332974
   515   3      10.124698846407531      16.252553680316513      14.015832182624299
   516   4      8.0604402386704521      15.917027588167143       16.41241467619081
   517   1       10.11505755268967      18.174300297506445      18.192707933205192
   518   3      10.104273314649786      18.293448021844878      16.142647356417342
   519   3      8.0668922899774209      18.490913866654097      18.239149454000152
   520   3      10.030416895431394      16.146067006882003       18.19159839531401
   521   4      7.9970323402890537      15.905820196017594      20.423250153882346
   522   2      10.163049561576642      18.150321557254465      22.208146010573582
   523   3      10.119923489276484      18.491471859325422      20.283523994011055
   524   3      8.1545644729106748       18.39514759743582      22.258165248874512
   525   3      10.120545460627351      16.252797590275478      22.172303872792863
   526   4      7.9171237455245951      19.875323454645077      12.056378275016339
   527   1      10.042394641783979      22.277766106204108      14.199849132956174
   528   3       10.21562565620593      22.320328245558485      12.156343018146476
   529   3      8.0206268624872799      22.392590956441339      14.237934555551201
   530   3      10.307779076475731      20.250430828414014      14.234252456096636
   531   4      7.9203057516684376      20.000087322660573      16.092945466545341
   532   2       9.979520544507217      22.253523130014372      18.238218827382184
   533   3      10.261836220790268      22.442982951536511      16.305023568466982
   534   3       8.096085759055839      22.309495529753544       18.30892963997367
   535   3      10.307481229634465      20.363477649859917      18.185349047355437
   536   4      8.0554931936527048      19.911540257505781      20.219789548087491
   537   1      10.107745183217981       22.27479872423304      22.251999559333989
   538   3      10.335455158566527      22.260827858473544      20.205836872048188
   539   3      8.0823944558767149       22.24583294903751      22.487029777744777
   540   3       10.18092710857003      20.256387998635887      22.524583910555084
   541   4      12.196902483614831    -0.34572208302857371   -0.076715505780697163
   542   2      14.220479648554123      1.8855640777328986      2.0502545458564789
   543   3      14.103558527170801      2.1106774013788399    0.066515223595909917
   544   3      12.216928328283633      2.2205982887944362        2.11352125549445
   545   3      14.093996636072502    0.012737496140310139      2.1981901371343535
   546   4      12.140213023221028    -0.25987135338626466      3.8331126222302698
   547   1      14.129719456286848      1.9891017056467786      6.0940762732613063
   548   3        14.2256741965075      2.2180638109610564      4.0154954715090447
   549   3        12.1190404313679      2.0051381085043745      6.0521865541349156
   550   3      14.409411904576636   -0.031331489452091604      5.9674707105414058
   551   4      12.109775462365659    -0.36070143488395012      8.2236485796673868
   552   2      14.126770602145573      1.9383887768838444      10.122179371838643
   553   3      14.388654726990064      1.9144140982004862      8.1317530348975513
   554   3      12.180632351236286       2.053439084963939      10.121645037280851
   555   3      14.418467152470475    0.037275955122470228      10.220021580583914
   556   4      12.039444677604932       3.712039161612573    0.095878040468226372
   557   2      14.115582924725011       6.064856569399506      1.9441563367038184
   558   3       14.39045818667495      6.2303533947495993    0.053409971908233933
   559   3      12.199607451566013      6.1742389029622506      1.9786333803276457
   560   3      14.241053290194667      4.1643160632333114      2.0438644364519565
   561   4      12.129528093859859      3.7106862461137196      3.9665758360387215
   562   2      14.189940579952903      5.9844518487641647      6.1127157432279837
   563   3      14.084442113055154      6.1792346777484344      4.0272636934824577
   564   3      12.177077086704831      6.2825328822880504       6.109413801510243
   565   3      14.170732588048816      4.0784631897679837      6.0983122789873052
   566   4      12.142620128255054      4.0897046975251996      8.3997196621941974
   567   1      14.168013359020382      6.0667378427585072      10.087286755973182
   568   3      14.358572063290708      6.2104778945739518      8.0339876984662517
   569   3      12.104149663914546      6.0932980098252552      9.8503640800428887
   570   3      14.082417836043676      4.0276541637898164      9.8593949044473863
   571   4      12.034300255511836      8.2342883919826697    -0.27852503107479692
   572   2      14.067210696021188      10.134352580362373      2.0348676159412724
   573   3      14.373401610150594      10.061464516767423    0.060525419162405475
   574   3      12.165610445181315      10.253780535138777       2.015312341741704
   575   3      14.240755533419829      8.1619753836881301       2.134152624348685
   576   4      12.140422412290603      7.8485951915170213      4.1636240324437139
   577   1      14.142716292484019      10.117733861062815      6.0425955845961274
   578   3      14.142201393693368      10.324804170973973      3.9990949219004825
   579   3        12.0885922571648      10.319456314299181      6.0066836088001248
   580   3      14.371554716100491      8.1105405697485189      6.0078341702984428
   581   4      11.940176118707976      7.9492804013139953       8.236682214660906
   582   2      14.153012342404484      10.143359367173533      10.007734778707675
   583   3      14.329174611569735      10.061925786378131      8.0972907402175611
   584   3      12.223118557422943      9.9079287813534105      10.099928873125329
   585   3      14.402502177395469      8.1298315014397406       10.17017375843716
   586   4      16.313511895805796   -0.066881496490676082    -0.28352398695732944
   587   1      18.193536201126751      2.0097845642794203      2.0832131164088845
   588   3      18.344399336938903      2.0292923502321489    0.045077664432319801
   589   3      16.153629189776424      2.1310504150200091      2.0030144684906954
   590   3      18.407402755092441   -0.040740932243934401      2.0897738211952301
   591   4      16.023102118505768    -0.10325211698114944      4.2523456643411555
   592   2      18.111678624977937      2.0100697266246268      6.0946000201238828
   593   3      18.363315276046585      2.1720344460855432      4.0881404680867934
   594   3      16.229786883785096      2.1551039631675684      5.9889649061463199
   595   3      18.210180047653711    0.060361313277642936      5.8827185092985435
   596   4      15.874909032328583   -0.049122152110632179      8.0192666701006186
   597   1      18.218777077681601      2.0033668378881671      10.081108457692201
   598   3      18.378332282914005      2.0356773140691184      8.0309910036238747
   599   3      16.191947696117843      2.3295725496922368      10.160700021906088
   600   3      18.109066572569088    -0.00791310667939568      10.351478347846289
   601   4      16.289989491329884       3.655979798178524   -0.025174598389706451
   602   2      18.119193862912496      6.0234662369333689      2.0443349947568468
   603   3      18.258054962933418      6.2716798878138347    0.038522309642826408
   604   3      16.239951158299814      6.1925795066456173      2.2066779519321624
   605   3      18.299915181181305      4.1341034593125077      1.9232936956198483
   606   4      15.989479762355471      3.8560253601701726      4.1484399708999629
   607   1      18.179431150879211      6.0710174897520561      6.0356971164720497
   608   3       18.52135334953676      6.0446377048468118      3.9512312853376059
   609   3      16.150516649377355       6.047276410337445      5.7959769607358167
   610   3      18.506464625282192      4.0171695634146269       6.087884650441147
   611   4      15.904451496555851      3.8852630348156301      8.2739842148746963
   612   2      18.134919704114907      6.1016736521959585      9.9105515737721088
   613   3      18.186197598049255      6.1263433306722392      8.0628718266651234
   614   3      16.268840272808291      5.8757640882117341      10.222792295516893
   615   3      18.559186351175853       4.125942110851275        10.0576788213084
   616   4      16.004188466172799      8.3008200453873204     -0.3059975444479428
   617   2      18.113819639067906      10.060661207302021      2.0307324345764313
   618   3      18.382013500088391      10.101729670091501    0.086854373404382665
   619   3      16.261326773417064      10.113454817837319      2.1007238111529425
   620   3      18.429098151320709      8.1552824908236747      2.1284883518846778
   621   4      15.983509361008609      7.9770683943166887      4.2629309910007533
   622   2      18.126884014799536      10.096277054082798      6.1249840378985834
   623   3      18.463012551496639      10.291512828117639      3.9894519080853126
   624   3      16.240072428083312      10.295607640959126      5.9383900144981068
   625   3      18.163247194004381      8.1645694171545831      5.7553298615484163
   626   4      15.846800467688418      8.1257122978892955      7.9588637183074571
   627   1      18.170274322908821      10.163889452363652      10.021493715297316
   628   3      18.223855044212332      9.9621715770973687        8.02398286111716
   629   3      16.172722588928405       10.17801847328824      10.356898163755341
   630   3      18.094589725466356      8.0299666965587573       10.35721621562724
   631   4      19.829076024474681     0.11604708422331139    0.053036936829175818
   632   2       22.23056353953157      1.9530442341366794      2.0838079441865478
   633   3       22.40712019783939      2.1750152838680021    0.020836073254813525
   634   3       20.36272912770298      2.1075133526922767      1.9996161649611759
   635   3      22.415108182791823    0.056698698584396606      1.9918241092553606
   636   4      19.889573658537952   -0.081856242000308263      4.0999747716478936
   637   2      22.268724288106533      2.0128797484231757      6.1546837302772337
   638   3      22.452753783118141      2.0936574315727889      4.0063498555268433
   639   3         20.368254648276      1.9628231845386639      5.9967408231906321
   640   3      22.545967511084829     0.10623741066357649      6.0227894876481223
   641   4       20.10812035252502    -0.23583934201721912      8.1124613413561217
   642   2      22.300639374921911      2.0552659536129068      10.211497740517144
   643   3      22.310192243186773      2.0235885283466031      8.0736365391581941
   644   3        20.3265725589963      1.8841370569260598      10.237309044113568
   645   3      22.573228649418269    0.089418217930866614      10.132665378517471
   646   4      19.935753579376886      3.7676911132801929  -0.0029222890591115241
   647   2      22.173953543259664      5.9811251352574946       2.059663469028528
   648   3       22.52643055835032      6.1154760413904459   0.0073198102286140239
   649   3      20.312081652461362      6.1240860969025643      1.8359371557331972
   650   3      22.434986782185028      4.1004816857534303      1.9995628214002603
   651   4      19.923200764377711       3.982487736890211       4.165931501481233
   652   2      22.193626650101972      6.0605788068547692      6.1720883526611008
   653   3      22.242240898328742      6.1668839040274932      3.9708114370494361
   654   3      20.329936023974074      6.2339576924537816       6.046230374528351
   655   3      22.275804926368671      4.0844631896930892      5.9219334585885068
   656   4      19.944397735704097      3.9452181014912058      8.0870835126056306
   657   2       22.19610239998017      6.1022547963171894      10.244173355541625
   658   3      22.452865454881163      6.0847774377312227       8.055449353446015
   659   3      20.270064560746636      6.3060680344746682      10.059026269815785
   660   3      22.035702133477006      4.0620721521100638      9.9944033756779902
   661   4      19.984477776258423      8.0118225025548728    -0.12284707818672014
   662   2      22.254058249868997      9.9954375401752689      2.0578555273304291
   663   3      22.353614042333124      10.374380250706508   -0.035772454544387475
   664   3      20.362594935713865      10.311815456751017      1.9388384762845863
   665   3       22.30690245237987      8.1224500341708321      1.8804601612795928
   666   4      20.020693646006013      8.0147815606203157      4.2806776478117623
   667   1      22.238642294963512      10.118838522586236      5.9985949420961351
   668   3      22.370587772048506      10.157541657505494      3.9407239320569549
   669   3      20.243107933569654      10.030286053953651      6.1589169358575457
   670   3      22.541105627836505      8.0349303881019161      6.0318006224263572
   671   4      20.340645967351104      8.5928691918164848      8.1635523653083091
   672   1      22.273884437364156      10.153640223711074      10.124859127037951
   673   3      22.399176232352826       10.04852408567027      8.0983553104774764
   674   3      20.252014888310168       9.920754711146941      10.133818404371818
   675   3      22.574163261036951      8.0216945547294145      10.112722045014113
   676   4       11.84206631948787    -0.35173799892493762      11.788107173210847
   677   1      14.146505210685184      1.9919796180018887      14.115698702671244
   678   3       14.20004417481357      2.3251380046888568      12.084519789035777
   679   3      12.114870581520107      2.2244902857790945      14.155346329149577
   680   3      14.295374887022682   -0.033567083844318946      14.230382547316328
   681   4       11.95188145059555    -0.16789313829262928      15.933851083168554
   682   2      14.138283860995296      1.9950313446871044      18.097720791454382
   683   3      14.212713931966642      2.0039944786487864      16.242330330406027
   684   3      12.216656532185924      2.1181398025944809       18.41687877114979
   685   3      14.303313347571207    0.066310167627788241       18.40040150216868
   686   4      11.908835665610257    -0.24277333352136041      20.313197098402771
   687   2      14.166894225785022      1.9849971261874155      22.236766080295158
   688   3      14.300677978219774       2.187619254945008      20.352522376474177
   689   3      12.208059358331385      2.2296850026766166      22.303003468554902
   690   3      14.152131333590175    0.074767160315885622      22.331396542554998
   691   4       12.26807805527107      3.7996444177517774      12.097177786767251
   692   2      14.144132663854675      6.0551978942636406      13.981061055956376
   693   3      14.105806181562516      5.9400302939911374      12.131197449670193
   694   3      12.232937151773315      6.0507293697619016      14.382038373427042
   695   3      14.192616758402348      4.1117277149963378      14.389851365975131
   696   4       12.06894288522799      4.0439435242868296      15.861763279789423
   697   2      14.114739517224717      6.0995108826159949      18.164285398852563
   698   3       14.34353607850929      6.1104631218470713      16.295825379909981
   699   3      12.209670829561992       6.029153864107256      18.316729528604309
   700   3      14.319036367008895      4.0447419211531459      18.315176888749491
   701   4       11.96554056398511      3.9345600306373623      20.151639701585669
   702   2      14.095621773174994      5.9896617679069122      22.245782299261084
   703   3      14.199812229497679      5.9542323294183719      20.352876023664486
   704   3      12.221571230362175      6.0815019257569416      22.504673320751827
   705   3      14.352417775433464      4.0838933351821103      22.495097322564735
   706   4      12.038062249157539        8.32506460727733      11.865917322778605
   707   1      14.167042730794694      10.037603933074804      14.092980243974822
   708   3      14.103752931390934      10.240161394047268       12.09789488042512
   709   3      12.113718434561234      10.082867289424694      14.296392080015869
   710   3      14.247524565091274      8.0065960631183923       14.24519701122278
   711   4      12.122587707275807      8.0842691900874044      15.815870539705134
   712   1      14.166336933738549      10.030134969099286      18.199042863681857
   713   3      14.249568812424059      10.113297766109687      16.191467447110021
   714   3      12.106880489929168       10.07360706444504      18.383604742556617
   715   3      14.196797308519123      7.9957202726277439      18.440973855191366
   716   4      12.074744590485357       8.218337589789849      20.032671754796688
   717   1      14.135959886040501      10.076179340480746      22.315673726588734
   718   3      14.199517443748721      10.203011143411887      20.263025054842224
   719   3      12.136310467363669       10.16511382920533      22.471273421704701
   720   3      14.274292423137354       8.022540373776458      22.305601596965221
   721   4      16.278384143502318     -0.2322710518473132      11.874610131322052
   722   2      18.134644310584651      1.9271545414339946      14.144782958559535
   723   3      18.248040778447674      2.3109316811069553      12.211820270783562
   724   3      16.233828649070109      2.1846532730549471      14.247811229402693
   725   3      18.110970027726619    0.040038031829445306       14.05808918092541
   726   4      16.052239526010279    -0.14084077014056987      15.844028676527966
   727   1      18.182140611557223      2.0760172943846857      18.147573962167613
   728   3      18.441604518901745      1.9955144910449023      16.135538438075731
   729   3      16.164102781044392      2.0680849876152227      18.405341081590926
   730   3      18.221719779236071   -0.032618748754163401       18.40198090200871
   731   4      16.382475070476449     0.23212398330640857      20.003942366311541
   732   1      18.201963185443887      2.0232402653282064      22.300900148599329
   733   3      18.264048089410348       2.023439497306736      20.295884719884569
   734   3      16.150701984621925      1.9976866872145211      22.516253194976706
   735   3       18.18674326100567   -0.052828421538253761      22.437259479916911
   736   4      16.150091628455563      3.8218156577648732      11.962647428619611
   737   2      18.232613340577554      6.1002360983414636      14.030678627347159
   738   3      18.374258381106486      5.9200212060087489       12.16718604872047
   739   3      16.233754252052812      5.9674411948109256        14.2361875223728
   740   3      18.318285137488974      4.0792457895659524       14.39256314548976
   741   4      16.038568027489347      4.0132949781161011      15.893877425622527
   742   2      18.096243502509257      6.1152365250428398      18.188169230127617
   743   3      18.190247778192955      6.0822477606652194      16.303808339280465
   744   3      16.231633127952545      6.0320613880560048      18.472648741782951
   745   3       18.33089751535984       4.133795733423586      18.335348979053474
   746   4      16.204069619285743      3.8460981099067664      19.998565874551108
   747   2      18.148733579187368      6.0499645283416505      22.238582474187165
   748   3      18.471513423829876      6.0654239346026264      20.320220741229388
   749   3       16.26817609471329      6.1843303656214426       22.27846029616768
   750   3      18.271195949445083      4.1295699976968701      22.461892143003197
   751   4      16.145181186713735      8.2079770080958294      11.794144724789632
   752   1      18.248001605541699      10.095208916019764      14.177212615242192
   753   3      18.348660210088589      10.227774237691181      12.163141357281823
   754   3       16.22356097661493      10.183734970073994      14.211766351748649
   755   3      18.241163199764227      8.0248112877301203      14.266954214681615
   756   4      15.984619518644415      8.3774674301106717      15.864928058937254
   757   2      18.091773163634162      10.176872487695759      18.260960468534542
   758   3      18.391630772139312      10.050037671247555        16.2870718003307
   759   3      16.227679560271191      10.097764962404638      18.255034476981898
   760   3      18.364571676259889      8.0728250710400946      18.339812361243503
   761   4      15.867222892611647        8.36229593153341      20.395666082715625
   762   1      18.228837399347594      10.126726850485952       22.26835317029181
   763   3      18.346454658989241      10.086235266843754       20.20927466569163
   764   3      16.222917457957386      10.026705264792556      22.181744703173642
   765   3      18.473107131087492      8.0614362026057922      22.280720952955374
   766   4      19.999195190777986    -0.14429594871840606      11.847032743000593
   767   2      22.220158037820848        2.10438569082004      14.198561221562878
   768   3       22.38580440071048      2.0292514173606433      12.187708025552753
   769   3      20.291516219822704      1.9649621716691787      14.136152027543174
   770   3      22.443049455658048   -0.031895689266760049      14.214847122173063
   771   4      20.196055631148969     0.41455945273892153      16.431154149398171
   772   1        22.2869863176842      2.0382570841970082      18.239331172212314
   773   3      22.231925370359363      1.8236175519968025      16.178307244830542
   774   3      20.273667594751647      1.8870948003370143      18.360149352502795
   775   3      22.520587865008356   -0.048935586920694496      18.260502041049175
   776   4      19.957745090462172      0.3200037118655174      20.061879649338469
   777   2      22.222178697373472      1.8775258977016032      22.301349216653275
   778   3       22.45456933638572      1.9931544815650313       20.37593212964973
   779   3      20.333058516308416      2.0643640782870829       22.32424336402741
   780   3      22.432682409529747   0.0091831616344567428      22.411619720717507
   781   4      20.024889511323817      3.8985093550674148      11.906895709691902
   782   1       22.18898670707302      6.0657179102194752      14.161991534213453
   783   3      22.256948437253708      5.9732360577454049      12.123838999030582
   784   3      20.169882034803507      6.0652117462995312      14.485768408659666
   785   3      22.249355840221089      3.9861771285306067      14.354546065304177
   786   4      20.035049018548531      4.1479537162263949      16.041391453481385
   787   2      22.181773663383105      5.9864777219976952      18.222073998533421
   788   3      22.465220176526923      6.0418881488119602      16.347439751186769
   789   3      20.292032177346123      6.1036209153022725      18.210673826197286
   790   3      22.297419675944358      4.0992463874690248      18.486371260760077
   791   4      19.968793436072467       3.745754450365911      20.021891151616312
   792   2      22.244498357568474      5.9516633132570806      22.276032968862761
   793   3      22.246453492250676      6.2584453613256059      20.345718966840135
   794   3       20.33279366351216      6.0958031658800937      22.514692734974478
   795   3      22.416564233176327      4.0682458298173447      22.267790276526085
   796   4      19.950381928076485      8.4132510158787515      11.857122114413304
   797   2       22.27589300120259      10.002273114938685      14.074159940944064
   798   3      22.290925420638395      10.071385196325444      12.201035768753599
   799   3      20.345625190214864      10.108705939126878      14.349263708355476
   800   3      22.338715254091881      8.1185304786679726      14.361310787703729
   801   4      20.041527637212436      8.1227580908564008      15.943520847359054
   802   2      22.285234853904107      10.029071627304379      18.165911486428918
   803   3      22.315056106908813      10.242917495411223      16.264871540223584
   804   3      20.345831143677767      10.064617830436886      18.327075804789285
   805   3      22.472862156822039      8.0975795542511815      18.318892386145507
   806   4      19.932819236967418      8.2150809187494804      20.279145836513738
   807   2       22.17705268420675      10.074271502512705      22.272583881614405
   808   3      22.433992996790916      10.123804925556549      20.329905042326608
   809   3      20.314166079410388       10.26349297512701      22.312600353565557
   810   3      22.272638155897234      8.1825211645156894      22.432177814877473
   811   4      12.229876739217532      12.178090081819807    -0.48586422809449614
   812   1      14.160795726944546      14.114992970101257      1.9967605573511853
   813   3      14.290602077765094       14.32314633998643  -0.0011135389992407382
   814   3      12.089483479483661      14.360976039326728      1.9849723021224899
   815   3      14.352809792253538      12.100633715692071      1.8933717857186427
   816   4      12.189058618525859      11.870679639201382      4.1734667512626018
   817   1      14.090693754747274      14.200290825858758      6.0928627736514507
   818   3      14.125910984805525      14.254257933169992      4.0393688229789033
   819   3      12.057135225109327      14.249133800684568      6.3463082785049432
   820   3      14.149293055610618       12.18039943294001      6.1681327685158003
   821   4      12.196782729608008      12.065930770007713      7.7208725689096047
   822   2      14.069950711895784      14.167097331369794       10.16929259944923
   823   3      14.402794929449357      14.251588482094082      8.1660335227503822
   824   3      12.159781892652047      14.400851652726118       9.978553117377837
   825   3       14.08779528899367      12.161956812550317      10.058278461793929
   826   4      12.389096651580536      15.815623756630059    -0.21234955700660096
   827   2      14.293276971206325      18.204227772387355      1.8935064787824269
   828   3      14.241615157402348      18.240223993755922    0.018098957004175326
   829   3       12.13217603098235      18.336256165587557      2.0405645466556224
   830   3      14.103848420453394      16.303060986784409      2.1762218167919936
   831   4      12.398156627632481      15.867215966166086      3.8240092874268696
   832   2      13.960947428074006      18.204667367392947      6.0624324642670118
   833   3      14.084471892148153        18.3785199063622      4.1100584605527253
   834   3       12.12589925854012      18.078139472921439      6.2319227384494233
   835   3      14.335751829877786      16.258355236256435       6.048154055898106
   836   4      11.924388412466406      16.059115134899347      7.9580385901955744
   837   1      14.098303954739277      18.143553548568303      10.140638860146248
   838   3       14.41206982666286      18.132794560463743      8.0350527178359208
   839   3      12.097117695980872      18.131575768137548       9.957997481200076
   840   3      14.457202311214136       16.12464231470997      10.152014813170775
   841   4      12.097982572910006      20.170644131540609    -0.34800288551588693
   842   1      14.167172026832899      22.247125404044723      1.9801158882362577
   843   3      14.088436337119452      22.438211867272194   -0.030660336763793868
   844   3      12.077131740680608      22.274412599557341      2.1901938631573841
   845   3      14.132230634640846      20.214115501583272       2.180433444618278
   846   4      12.301057425832166      20.310690880292601      3.7129148955828963
   847   2      14.275807564936192       22.20342232332715        6.06579719075215
   848   3      14.030384579513839      22.206375666992702      4.1170417673709343
   849   3      12.113996197352877      22.437788598865954      6.1506514576901763
   850   3      14.074033775343151      20.252971232436707      6.2241098264232217
   851   4      12.248784222529272      20.240180096199509      8.6138763957613076
   852   1      14.179780384598056      22.256879907790545      10.094014407710008
   853   3      14.193869126961021      22.529616165023153      8.0482881782649436
   854   3      12.142627377169758      22.454391492635498      9.9986705479019644
   855   3      14.194932203224194      20.226445078950434      9.9678652153134752
   856   4      15.768597323349526      12.132893871780501   -0.065827084894247948
   857   2      18.111011762506894      14.161854712035842      2.0260708084667707
   858   3      18.242855669756796      14.373068385831438 -0.00020504659888718481
   859   3       16.25190113684846      14.256995543563598      2.1085228460199379
   860   3      18.365827163230531      12.183332065512086      1.9419541771292448
   861   4      15.746734858152992       12.27360349320454      4.2366461768290531
   862   1      18.216886304819543      14.169994875419723      6.0261566323506104
   863   3      18.519757500954352      14.143531901514269      3.9528911470301482
   864   3       16.21190166697431      14.077784485971266      5.9365826942245885
   865   3      18.499430042635183       12.11352777913139      6.0641081818813163
   866   4      15.937363838219342      12.410384780673519      7.6861517279201141
   867   2      18.121376226221876      14.127141702227885       9.992524865386148
   868   3      18.179277916175245      14.234625157834179      8.1304398776318063
   869   3      16.227332956365732      14.070385023353426      10.330769572403835
   870   3      18.421771849705017      12.215823826037909      10.150642711310194
   871   4       15.88361100974781      15.939469607532052    -0.23072369985729041
   872   1      18.186855059550567       18.19687202942433      2.0096869221113223
   873   3      18.338572020832046      18.268618476588653   -0.060776920012330253
   874   3      16.177676164445373      18.360054061737006      2.1504103163695238
   875   3      18.483402006543269      16.159440519563312      2.0670341770220095
   876   4      15.941264954384287      15.806982077018532      4.2512423621087656
   877   2      18.075900703801565      18.242715336212669       6.049076536908804
   878   3      18.461246037719746      18.281806487303925      4.0625180694695118
   879   3      16.189149795708214       18.36982374758524      5.9073969224002374
   880   3      18.328734385344298      16.256036373909282      5.9697081792328017
   881   4      15.859486781460932      16.165453221319815      8.0288740690254219
   882   1      18.239190502850757      18.196085509599914      10.085827404871646
   883   3      18.187936250208434      18.273930611652421      8.0345212048903054
   884   3      16.224769506426334      18.350145871672094      10.247112331196288
   885   3      18.154848475834196      16.127128262634297      10.367680288449547
   886   4      16.197096532989228      20.148289115526573    -0.24606104091708578
   887   2      18.069445013913619      22.284577537950113      2.0648077414475701
   888   3      18.211765735816673      22.395081924361214    0.076401090200437019
   889   3      16.201172270234753      22.249152345152108      2.1952871651200025
   890   3      18.369658376743207      20.317254351237462      1.9952562791723356
   891   4      16.005062417931214      20.137119073076608      3.8334340597236012
   892   1      18.203639975707979      22.238341862521764      6.0551259814001979
   893   3      18.482402290962803       22.24296864492802      4.0020504667397212
   894   3      16.175340894606215      22.235048943174444      5.9091445688523496
   895   3      18.499692252118439      20.217579494847683      6.0351322259136788
   896   4      15.966079827073841      19.878692601560129      8.3836325157698024
   897   2      18.189084231929016       22.20694508067216      9.9938812293364858
   898   3      18.282209432075298      22.445998020331992      8.0891748066361515
   899   3      16.254245447004475      22.229419718671696      10.217879674329918
   900   3      18.458276410231186      20.294690083195317      10.084654343628557
   901   4      20.016047684105374      11.906495438968927   0.0088359838419600906
   902   2      22.267510920338299      14.062759082318369      1.9719026319706632
   903   3      22.514051922826329      14.273881350427644   -0.027796177314104858
   904   3      20.349021482344028      14.164774546463216      1.7815898684436848
   905   3      22.466432205646353      12.200471230186794      1.9551051758102826
   906   4      19.971302539967148       12.09953084320027      4.1018349854597833
   907   2      22.254292519751846      14.248477128183287      5.9168997661269245
   908   3      22.183476404076416      14.281738533877913      3.9971722228750322
   909   3      20.326962534975856      14.233819698481414      6.2735804101668098
   910   3      22.226089762068359      12.241390942170948      6.1759725995623675
   911   4      20.229931258759716      12.158701185000647      7.7020857268722906
   912   2      22.277434310534574      14.105340060569056      10.018945503863133
   913   3      22.398437809696333      14.193990330546656      8.1483631943552002
   914   3      20.290447307950998      14.368607538957505      10.165477547593676
   915   3      22.229264053344757      12.217712220790778      10.255244723867081
   916   4      19.991276245866988       16.13000659755183     0.19777564985929433
   917   2      22.263893574711339      18.125446016910036      2.1232744388101668
   918   3      22.366721754930371      18.394692714874555   -0.019914562878314283
   919   3      20.335134290170547      18.373905874598581      1.8929293213721152
   920   3      22.201914924515634      16.230509999116311      1.8898053464723121
   921   4      19.873867913969367      16.272978798076302      4.0257579461065118
   922   1      22.240072191966007      18.207441192952839      6.0249630648421588
   923   3      22.262045981155886      18.287977172591795      4.0092506958096932
   924   3      20.247127470296608      18.176656103922163      6.2965966720750393
   925   3       22.33103374844697      16.165936946762614      6.2628506880219659
   926   4      20.115565150983919       16.26211168685278       7.729420504897738
   927   2      22.153723896540921      18.265337555524976      10.075706736481242
   928   3      22.473207106967383      18.261013811723409      8.1869673762395045
   929   3      20.288450527051523      18.100988726221725      10.115831481933544
   930   3      22.469420648470077      16.263372708648507      10.238768373654661
   931   4      20.005428793438945       20.06560524304771     0.15928775030804729
   932   2      22.247512680280199      22.162494399958916      2.0257339464906514
   933   3      22.582418690147911      22.280573016786747     0.11070075755233835
   934   3      20.375911116204044      22.287210538026908      1.9672164286616627
   935   3       22.43957440239631      20.279589529935009      2.0277610140495828
   936   4      19.929986349608455      20.140869504110562      4.0142602822317839
   937   2      22.229558573528198      22.194209948896003      6.0859895714954382
   938   3      22.379200370066027      22.443581826449439      4.0634716708642094
   939   3      20.351121308549192      22.508149193370812      6.1366235829845399
   940   3       22.26830047235282      20.319339996144731       6.161521559188424
   941   4      20.020368036451632      19.987546796403301      7.8517610660650821
   942   1      22.240305052129152      22.241012036777871      10.075457011404824
   943   3      22.414899147149772      22.502746715764623       8.023218088147166
   944   3      20.239929443994331      22.594618833981134      10.056697381873159
   945   3       22.26190617256464      20.208847105404367      10.268647685059328
   946   4      12.521509991842093      12.035431754787298      12.406030317073862
   947   1       14.17527683566324      14.202296435638857      14.149302173763274
   948   3      13.926204516548962      14.135851347663712      12.109781696395103
   949   3      12.077751727254553      14.405494843315145      14.267878700703712
   950   3      14.043590854974626      12.167676273947789      14.284662027317776
   951   4      12.459465581018678       11.78011299198846      15.994560147821932
   952   2       14.26034934646113      14.008350090745658       18.20406772691685
   953   3      14.177312787567123      14.396157327874848      16.247852051724884
   954   3      12.164736433772994      14.293498093379517      18.070217897721172
   955   3      14.072141550724277      12.141875068025646      18.215985687856552
   956   4      12.373862848545977      11.764439321855397      20.125781293919413
   957   1      14.187705971494452      14.127958651171991      22.243135684230648
   958   3      14.111421545097633       14.28188756547415      20.175135339806964
   959   3      12.153042780161748      14.247625416624597      22.382119106749798
   960   3      14.278104730909005      12.133418049345451      22.378308662207502
   961   4      12.044825663749656      15.927200480920771      12.299342527696901
   962   2      14.053088827259694      18.167793024807892      14.136730694171657
   963   3      14.242226835072771      18.327777704089353      12.235068533638398
   964   3      12.153565244182142      18.247260479988388      14.229693249305457
   965   3      14.211764595413731      16.295047270295278      14.202828196187541
   966   4      12.194451720000435         15.852366180811      16.173945042033122
   967   2       14.05081393956586       18.17457981837623      18.201597426747014
   968   3      14.278244087832132      18.306612666913747      16.237216595639367
   969   3      12.192333093287301      18.314874118241832       18.28432953335064
   970   3      14.274972350677682      16.279430410697749      18.266932609957195
   971   4      12.246101767690838      15.821635376124956      20.578680794360086
   972   1      14.148858842150583       18.22873850639828      22.217094196935872
   973   3      14.366723398769539       18.34663413427716      20.169307995996142
   974   3      12.111759780512832      18.349608475775703      22.342174945533234
   975   3      14.247390712548157      16.219845604513612      22.200244281047567
   976   4      11.634749125517494      20.380241190658353        12.2052819655219
   977   2      14.136162567096525       22.31447906974001      14.011635309860555
   978   3      14.155445419952905      22.246134108470251      12.146194710072105
   979   3      12.212802653138635       22.35768154540434      14.334337832827373
   980   3      14.191438725077047      20.302989191378305      14.359695604232973
   981   4      11.817165785259979      20.255110480086479      16.034423224300824
   982   2      14.106222097604416      22.269862443734059      18.224750872870697
   983   3      14.275514072551374      22.433565103873487      16.310863853617157
   984   3      12.216986500874816      22.452609761110072      18.281390512681583
   985   3      14.213203510491224       20.34862447054536       18.26804824650101
   986   4       11.85764554035989      20.131704161951617      20.113258130515241
   987   2      14.202627437042878      22.195002780782449      22.270241724394843
   988   3      14.230668877184248      22.333886802957498      20.303769669806293
   989   3      12.211941094387479      22.374511404004547      22.334703395396946
   990   3      14.208525336112499      20.293685316042115      22.402299408204538
   991   4      16.328748418053429      11.672927083751834      12.173642812372659
   992   2      18.111511071827593      14.103992977853766      14.158989392247175
   993   3      18.452127166594106      14.132052794182792      12.229489691535822
   994   3      16.231600329307998      14.215799034145862      14.211700557241469
   995   3      18.350263903919632      12.210759112889303      14.350379887062335
   996   4      15.891376089266185      11.832454346581574      15.831940201440965
   997   1      18.159541966987131      14.122584185353967      18.230499009532533
   998   3      18.250108976758693      14.403589202698047      16.157676516948342
   999   3      16.146572405137533      14.232064529679871      18.188650936909326
  1000   3      18.441570584280619      12.083979278651286      18.180264359306783
  1001   4      15.926400929408286      11.786142898582836      20.625402932607688
  1002   2      18.193878521173211      14.049154837163535      22.188637779935345
  1003   3      18.392239187736084      14.133114458213351       20.31433613235783
  1004   3      16.279454760738865      14.326010167161005      22.232104844552108
  1005   3      18.218196452618837      12.192439239131989      22.427622076824701
  1006   4      16.178823008244432      16.386801193258222       11.74835317338635
  1007   2       18.12406131435478      18.203069936372763      14.079931697305849
  1008   3      18.328672345322829      18.383974558681324      12.209220249548267
  1009   3      16.223964699851479      18.368811798360294      14.259838809626643
  1010   3      18.263113756764632      16.270128778816471      14.125557411977667
  1011   4      16.146139340524357       15.83558890054459      16.197452641417605
  1012   2      18.202578283248208      18.123307294610868      18.148789126608111
  1013   3      18.345781549188271      18.259127699475965      16.240969266640104
  1014   3      16.283371902468033      18.475650046217158      18.248411946957027
  1015   3      18.183876764632128      16.264929104637542        18.3515642127403
  1016   4      15.827995194717124      16.073564378796117      20.380008657765007
  1017   2      18.161802924725158      18.125123357058541      22.276901532570701
  1018   3      18.215688461742452      18.529340102172032      20.303354072974013
  1019   3       16.26066579999587      18.378909702214969      22.309934028929778
  1020   3      18.299117375505691      16.257348194180569      22.207941452205759
  1021   4      15.866754180443376      20.085235329689823      11.792259286432676
  1022   1      18.204743028193583       22.27041631412941      14.139728667272143
  1023   3      18.416047425191003      22.223598716272988      12.097729536202372
  1024   3      16.150240503525346      22.250839920889685      14.339405829348729
  1025   3      18.360973620036042      20.203979942310561      14.342335956478815
  1026   4      16.046671760642624      20.283682553055542      15.896351151139958
  1027   2      18.129153179345536      22.283635468617867      18.107913814474273
  1028   3       18.25716649086387      22.339811095915255      16.245845330468029
  1029   3      16.227928865250558      22.316175977271186      18.313161005799273
  1030   3      18.416318731257189      20.343539075370579      18.244359174311313
  1031   4      16.090568805919872      20.000164150601329       20.13992967073224
  1032   2      18.398485006063932       22.25773148841937      22.187976166966799
  1033   3        18.2219810482278      22.248305057325435      20.299494891543578
  1034   3      16.186214830712952      22.349082457817744      22.467795722961597
  1035   3      18.145630244016814      20.327247137936272      22.505977620620925
  1036   4      20.021934354279832      11.888548920784363      11.849485922292249
  1037   2      22.192934595909826      14.042530004444949       14.15699459303511
  1038   3      22.219356758242217      14.383930180942981      12.234558604040558
  1039   3       20.29643476741726      14.320295673181411      14.324503611942001
  1040   3      22.279842757219178       12.16852398939975      14.210868340840243
  1041   4      19.999689970747013      11.915328157247126      16.107981951967425
  1042   1      22.299154715975391      14.115878186653191      18.164512176553373
  1043   3       22.36821550772337       14.35181946179982      16.134329783128361
  1044   3      20.251919775988561      14.300713643120122      18.246469146836365
  1045   3      22.233967253156447      12.104167733339981      18.471244413405355
  1046   4       20.21767779005215      12.265630482086561      19.824949427474575
  1047   2      22.188932225417364      14.112644164391822      22.266956615352328
  1048   3      22.247059381283147      14.353368189021674      20.341690394300347
  1049   3      20.288746257284302        14.2413703924676      22.441573300095655
  1050   3      22.405688138192925      12.237259345468594      22.238549709095025
  1051   4      20.048152336487849      16.018254350137219      11.915767521020889
  1052   2      22.170298715554082      18.158480094632349      14.181835979331636
  1053   3      22.416099458225069      18.297164189527926      12.223370075165487
  1054   3      20.291248116741468      18.315500031730377      14.257890376504937
  1055   3      22.427932695848241      16.280623128936128      14.233632772376559
  1056   4      20.190650081013541      15.773010565302366      16.357726736728779
  1057   1      22.226579957227621      18.255542187724338      18.208290183304296
  1058   3      22.439106069390256      18.308710069796355      16.157305991473777
  1059   3      20.191877550769458      18.271267808914203      18.436018266809331
  1060   3      22.414594290144986      16.233774477291387      18.268322862904835
  1061   4      20.342241196553672      15.980227237946821      19.835101378693892
  1062   2       22.17749321836509      18.185390575232962      22.275002107679153
  1063   3      22.388227499092228       18.33765596256616      20.323763475382371
  1064   3       20.26540047530608      18.427180789322328      22.234111532442828
  1065   3      22.326155860481268      16.270399745146307      22.342086517569339
  1066   4      19.891020429175043      20.337021172782379      12.059075809933255
  1067   2       22.15994157069904      22.312278364479091      14.111624713186131
  1068   3      22.350117598855814      22.301530878553017      12.210377964586101
  1069   3      20.307580674473847      22.236321871846176      14.286678792695801
  1070   3      22.404988884623862      20.305486146401872      14.273884717811798
  1071   4      19.990379654343734      20.250994941427315      16.009530800267857
  1072   2      22.152983944738438      22.288336610845256      18.265062380021984
  1073   3      22.486550630737984      22.311234658399876      16.249773338787563
  1074   3      20.265778021878361      22.408425000321781      18.276861115451702
  1075   3      22.355293710116985      20.334471631186858      18.239257050680486
  1076   4      20.157285185396837      20.002140714145739      20.046653207126319
  1077   1      22.247908596998904      22.240235245266366      22.300184175796634
  1078   3      22.475081451479603      22.293368134371256      20.217833272185299
  1079   3      20.240665448890017      22.247924898234714      22.382470018120411
  1080   3      22.557656597253413      20.219747572637189      22.296772492810117
