(written by ASE)

1080 atoms
4 atom types

0.0      24.299999999999997  xlo xhi
0.0      24.299999999999997  ylo yhi
0.0      24.299999999999997  zlo zhi

Atoms # atomic

     1   4    -0.17234924087258646    -0.21753941808078245   -0.074057997765685848
     2   2      2.0174388814087454      1.9768025362536938      2.0404148745380488
     3   3      2.2032567693547787      2.0423841295597831    0.020902911273089169
     4   3    0.082122300218307423      2.1888205295466863      1.8892676682976826
     5   3      2.0611274971526585     0.10002043471770854       2.161874797268748
     6   4   -0.069051196845887036    -0.19724078158493955      4.0851121449343335
     7   2      2.0277036642804793      1.9610300071708833      6.1655860737592896
     8   3      1.9753930633946373      2.3144906926247515      3.9769139048465614
     9   3    0.035336422301066019      2.2975088019166119      6.0126433016322238
    10   3      1.8612350204271655    0.077590296237375428      5.9464791547356244
    11   4    -0.17102601962087927    -0.14191716146493361      8.1687377168425126
    12   1      1.9995067895256535      2.0037239086947971      10.097254719121182
    13   3      2.0420461763224784      1.9929063887273404      8.0314724160383903
    14   3   -0.048853865824405547      2.2846970030699283      10.029420561557455
    15   3      1.8790789108708472   -0.044798112757197861      10.368263356675843
    16   4    -0.19000624741151143      3.8990081803371015    0.027714778802801713
    17   2      1.9397248361014772      5.9825069189264886      2.0308808598180512
    18   3      2.0282324546930779      6.3900978958424393    0.010380199711650643
    19   3    0.064276565843738517      6.1592972500277714      2.0545858935276136
    20   3       2.079699674849846      4.1292213604470991      1.8050194562611588
    21   4   -0.028912280625039734      3.9518135121049109      4.2404046872479757
    22   2      1.9855290437697781      6.0860382701493538      6.1667951553910347
    23   3      2.2581657155474208      6.0427949087217288      3.9347973893359716
    24   3    0.045370709753720574      5.9797171498725712       5.786356427393768
    25   3      2.1606461823282515      4.1153160624168619      6.0137580387069285
    26   4     0.22826866875602025      4.0743989885236402      8.5107539704904713
    27   1      1.9659065974500465      6.1093568041630526      10.075699948232133
    28   3      1.9374614846015488       6.190844932408277      8.0361487799570348
    29   3   -0.051491568359967009      5.7784225635022191      10.193735692783408
    30   3      2.2606311505030008      4.0373815879217334      9.9518298185955487
    31   4    -0.26892608631600728      8.0745880293851258   -0.015895367312281652
    32   2      2.0239061709395614      10.011791193266875      1.9936330047502171
    33   3      2.2202171341010408      10.169076105136018   -0.031968218638029254
    34   3     0.07272671275767284      10.213932032083846      1.9196003597889535
    35   3      2.1324683460320002      8.1395384905091355      2.0911041143846663
    36   4   -0.067334484072425427      8.1594851244151183      4.3589958392600963
    37   1       2.039909127401895      10.100518377799876      6.0755054508867534
    38   3       1.999841953647465      10.397637092510989      3.9232357665573194
    39   3    0.013421651284381667      10.287350965027059      6.0013807228669975
    40   3      1.9163583761166572      8.0622554318929858      5.7500070061018036
    41   4    -0.30266011297649592      8.2951156141970444      8.0521860301138339
    42   2      2.0914819041108172      10.139219143294014      9.9408604472729962
    43   3      2.0229609840168106      10.090582329825798      8.1016027113458939
    44   3    0.076740424415452521      10.206857188585127      10.257059101088482
    45   3      1.9067393406225468      8.1674118409882173      10.360694185124656
    46   4      4.1776922060662356    -0.30423468502525353    0.027603244814234762
    47   2      6.0621925242692694      1.9771338091024919      2.0031872904349375
    48   3       6.119915300179616      2.0532261392199711    0.077405855211872418
    49   3      4.0779097064048155      2.1849970148327902      2.1076235586699692
    50   3      6.0283762682824813    0.080962014689083345      2.1953570555537061
    51   4      4.2052450479881864    -0.20394991769849855      3.9177970375549007
    52   2      6.1710743387475082      2.0681216186952573      6.1493794794252725
    53   3      6.0327777839835539      2.2358311663028472      4.0726902636976803
    54   3      3.9771123435907385      1.9813344041596754      5.9152819318778356
    55   3       5.990792233773516    0.054190736880107053      5.9983164682393149
    56   4      4.1896835897436668  -0.0027592983850753291      8.0186639980865326
    57   2      6.0328449640308435      2.0105040036970925      10.290185408516059
    58   3      5.9777227646656943      1.9025689801435106      8.0714257972020693
    59   3      4.0842711697409628      1.7654946258690036      10.141529624861123
    60   3      6.2567647549730179     0.03404547470128215       10.24631425208984
    61   4      4.1728368259273934      3.9186885839114782    -0.32400269778928448
    62   2      5.9652761930018023      6.0809801418716756      2.0690613850873931
    63   3      6.3545094145202299      6.1471149135672842    0.083023896696910099
    64   3       4.085771644036214      6.1738957156739804      1.8216047569127662
    65   3      6.2298401225289002       4.118260494218692      1.9738706524187275
    66   4      4.1044855961188986      3.8913417219446922      4.3045476945003411
    67   1      6.0615643212171451      5.9905347281763897      6.0743434730539008
    68   3       6.047696420651925      6.1329742014314235      4.0132082089102905
    69   3      3.9898848796059045      6.3248091508480924      6.0725280392580085
    70   3      5.8137113159931157      3.9849764659562892      6.1490644645858339
    71   4      4.0988980941290425      4.1040354894822988      8.3435593530525747
    72   1      6.0896033945259989      6.0041764078186928      10.101644719748762
    73   3      6.0582045865134928      6.2963953425949173      8.0729681971503151
    74   3      4.0325980893380677      6.2232797227204655      10.107456896034426
    75   3      5.8539168395250316      3.9743565224453765       9.932311535918279
    76   4      3.9749425053721223      7.8514908044110721    -0.13093004583604256
    77   1       6.038363261766424      10.097253261287173        2.04692446736499
    78   3       6.197218623441227      10.227513340029704   -0.032606793212041442
    79   3      4.0154855710882655      10.347914521014404      2.0453403513259265
    80   3      6.2763783372029449      8.0674222363248305      2.0299250809335483
    81   4      3.9066908585638425      7.9196888783376957      4.3047941445112592
    82   2       5.971179876337505      10.077498098098795      6.0063287890666359
    83   3      6.2242533444942598      10.308599463308356      4.0892843678838275
    84   3      4.0639685077962477      10.068033202947801      5.8410642367980214
    85   3      6.2260784830631835      8.1679579583167907      5.9662505147889204
    86   4      4.2591496986374775      7.7004765844339502      8.1698239384906195
    87   2      6.1967580016575337      10.096074956607538      10.067979950995216
    88   3      5.8904614512880586      10.027087680333871      8.1018549396129149
    89   3      4.0109256464174798      9.9927684630109894      10.341618377647988
    90   3      6.1358516654824822      8.1167902529634244      10.293196991536961
    91   4      7.9274690962134668    -0.27064844657010745   -0.062052619517431719
    92   1       10.14379015381782      1.9834163065298691      2.0143694310301714
    93   3      10.345054696866415      2.0072279916186933   -0.029115244403816062
    94   3      8.0655050994932544      2.0293169905363917      2.2273897110898684
    95   3      10.190814120850707   -0.022342872986560552      2.3467369750433305
    96   4      8.2789113303057729   -0.025743397241887379       3.761727121416182
    97   2      10.268820775843386      1.8924998808841909      6.0846142727177162
    98   3      10.092798907801496      2.3179612300618402      4.1383406419095765
    99   3      8.0583781328035382      2.1868452845705071      6.0134763207258874
   100   3      9.9535506945511365    0.023397425044473171      5.9085242567304705
   101   4      8.4446440671340461   -0.012950494233821074      8.3227123723396907
   102   1      10.113065317214547       2.045442290738924      10.101775422539452
   103   3      9.9669758176247711      1.9306917609479399      8.0202161195487491
   104   3      8.0394831469730477      2.3099059940304127      10.069674995801993
   105   3      9.9471186357374144    0.027962121551954957      10.246020751141453
   106   4      7.7661487679839247      4.0146787421405437    -0.16000991961868158
   107   2      10.093254701230514       5.981300001868382      1.9706989110470168
   108   3      10.140785508107847      6.2593648860545814    0.071283688936412251
   109   3      8.1997188033267161      6.1437772826686414      2.2161043428688902
   110   3      10.192005621785498      4.1084963229024396      1.9956359844057174
   111   4      8.1444189524452568      3.7490974114246995      3.8937881888797037
   112   2      10.066288054637372      5.9455277914518092      6.0496773635998533
   113   3      10.342792056341484      6.0446007951319451      4.0710772834090072
   114   3      8.1691698724420991      6.1482095969903945      5.9910449708416529
   115   3      10.184568852939735      4.0777772502783725      6.2437265608609138
   116   4      8.2277762758079369      3.9243613617153712      8.3652001628961052
   117   2      10.101586689522595      6.0990009396553324      10.295365938167812
   118   3      10.121860836313187      6.3646498340579996      7.9868850491762169
   119   3      8.1522215708333512      5.9474114327576322      9.9614355368080005
   120   3      10.201051074167182       4.103500282345145      9.7984125459073557
   121   4      7.7508920156305168      8.0501934492464411    0.056880805643283266
   122   2        10.0497461677591      10.015644471423819      2.0039807941874006
   123   3      10.169129592414681      10.080372074350263     0.07689758178793904
   124   3      8.1608993555153102       10.27964387624403      2.0748054287048121
   125   3      10.179270608229263      8.1531316805490004      2.2473784443281715
   126   4      7.8248675428032106      7.8929483005400032      4.0689901269409585
   127   2      10.109501284321489      10.018309503932059       6.163838542873755
   128   3      10.110783213696147      10.480825046747277      4.0262182802770878
   129   3      8.1143486409944821      10.370452868244707      6.1013892380307215
   130   3       10.09082936853285      8.1601729017795162      5.7897838456373165
   131   4      7.9080286581520882      7.6887214832613502      8.1167261182346131
   132   1      10.095456262697471      10.073715590438459      10.052625783709432
   133   3      10.180507579457048      9.9591478126525388      8.0270185878038269
   134   3      8.0563988674750124      10.213315087644487      10.002691300465649
   135   3      10.138448224638719      8.0306531525587168      10.312800457372141
   136   4   -0.076135648967282935    -0.13958250108244102      11.886289873597709
   137   2      2.0031276871321544      2.0237582253300266       14.04313263012042
   138   3      2.0320920404906757      2.1029262128291304      12.184262483651887
   139   3    0.033387844856075523      2.0231072962856911       14.37981365814535
   140   3      2.0992924709519687    0.022596774575428143      14.226065111703999
   141   4    -0.29743347422445066    0.069305722877242057      16.136387313284221
   142   2      1.9166804257981185      2.0193698784832228       18.19707623572296
   143   3      2.1325803512185533      1.9374711305907506      16.333755667519814
   144   3    0.051575200959515913      2.1450177386460507      18.318868251764481
   145   3      2.0869897948643032    0.072555655524444415      18.526305482663592
   146   4    -0.31595644053330468    -0.10018014247144905      20.187537656945867
   147   2      2.0389251466098317      1.9003001272132509      22.321315627480399
   148   3      2.0609976935226411      2.2335911335824079      20.366167343548142
   149   3    0.097309485475238419      2.1207011815508525      22.444513710388655
   150   3      2.1691478059916336    0.026970898621584659       22.24056633797165
   151   4     0.11991683644097777      4.5280294789855802       12.23679220188237
   152   1      2.0495497015697026      6.0542743718140306      14.164057466606826
   153   3      2.0631899090136412      5.9069287305079978      12.151150811251686
   154   3   -0.012425659252352681       5.954964902868495      14.286985116320222
   155   3      2.0546639447104051      3.9726130139407543      14.421703706942431
   156   4   -0.012739202783455748      4.2421061840739585      15.870431247243511
   157   2      2.0060741698926123      6.1059473438057577       18.19345843660447
   158   3      1.9798913713976114      6.0963574308427271      16.288547340769011
   159   3    0.053330350793086907      5.9487389138214972      18.490311430824288
   160   3      2.2247780929332213       4.023385002011258      18.344012584290656
   161   4     -0.2316110720292329       3.907241769955458       20.14021586068408
   162   2      1.9876417973428009      5.9949889837013925      22.298379354475717
   163   3       2.288072360693183      5.9810771355476398      20.362333941348627
   164   3    0.094569657484523617      6.2345284125446749      22.211508936515621
   165   3      2.0700442106106891      4.1177607105486285      22.501248167502634
   166   4    0.043711846627586086      8.2072073363020692      11.819494251401066
   167   2      2.1080360324732794      9.9609530587376121      14.163491737136567
   168   3      1.9006755716634633      10.208722816104878      12.275508948151447
   169   3   -0.021773972693384772      10.210255581244066      14.372592910302242
   170   3      1.9459200850871112      8.0947130155613038      14.235338438862708
   171   4   -0.039516832399584541      7.7930569412423889      15.842691555663015
   172   1      1.9970146188948645      10.013146984594984      18.251444513687325
   173   3      2.0165420488847405      10.295500830118058      16.208431288922402
   174   3    -0.02429789881003171      10.339558052733066      18.266805166400875
   175   3      1.9134315852208974      8.0042610364720304      18.452303850097429
   176   4    -0.15206901824513033      8.0108427064939978      20.136174528735605
   177   2      1.9637777526723497      10.041825872122182      22.216203520332247
   178   3      2.1593386288084422      10.340376920803637      20.330236405880683
   179   3     0.10079361749984797      10.057899340937272      22.286148570176458
   180   3      2.2741599001876565      8.1590412214677404       22.23888901077261
   181   4      3.8153537615526263    0.022632412591480543      11.836407492744895
   182   1      6.0404810745833988      2.0315375908543256      14.140831256065448
   183   3      6.1962918667171873      2.2262491130656894      12.153042677491825
   184   3      3.9902083503232664      2.0343434507317979      14.360367328470096
   185   3        6.05022783835566  -0.0025898079501238533      14.302900233596318
   186   4      4.0707994973551296    0.087601910874358993      15.854986718291196
   187   2       6.022791542667421      2.1138574011937123      18.200603439795124
   188   3      6.0624266583055366      1.8835288193299933      16.317009568759257
   189   3       4.100538976337968      1.9765916314365957      18.508222326140579
   190   3      6.1551296333333632    0.010855898860389282      18.535281109929119
   191   4      4.0072194583781711   -0.016881551595251853       20.11168871013167
   192   1      6.0467956591800851       2.009669588950119      22.291955611625781
   193   3      6.3210980242811203       2.100131161038826      20.267184018040442
   194   3      4.0212642619308987      2.2717498670208767      22.263460601390257
   195   3      6.1650638057782432   -0.018069278146884152      22.173554917447682
   196   4      3.6984926580643127      4.2855640159851651      11.778445105660522
   197   2      6.0454179519004345      5.9889719071658609      14.069032494273225
   198   3      6.1752851783350415      5.9482436025409067      12.161829112839795
   199   3      4.0923900637864898      6.0644581319634625      14.349985803590021
   200   3      6.0946568349194852        4.06105276523901      14.440218803327015
   201   4      4.0162976876470236      3.9564603181856417      15.857992254122459
   202   1      6.0743501739831087      6.0178026061487957      18.200117439288523
   203   3      6.0731999605820954      6.3381579435819573      16.196100449597797
   204   3      4.0255725774495152      6.2388403001177091      18.219195373830857
   205   3       6.116712181959441      4.0042298715034947      18.281157601045681
   206   4      3.9236848881980437      3.8917082121765838      20.226591488233019
   207   1      6.0654436420384643      6.0887061486279812       22.33047985237685
   208   3      6.1121764009568649      6.1432277531231492      20.292782471783049
   209   3      4.0503986966252077      6.1231586949800478      22.535947345098723
   210   3      6.2430969983659859      4.0716984129751017      22.413182345916908
   211   4      3.8642897012773272      7.8429370823730773      11.790811865070895
   212   1      6.0193661625177723      10.072938110027479      14.133141702766427
   213   3       6.280046060935577        10.1841687530861      12.106945614621063
   214   3      3.9976520939217948      10.193756803810917      14.280640096234185
   215   3      6.2607045075321093      8.0361785596055988      14.077349603125541
   216   4      4.1531495897937516      7.6945140689217357      16.192021764229118
   217   2      6.0085620520615732      10.059528350503596      18.154889296413302
   218   3      6.1657790246532294      10.082888371318873       16.24093959717688
   219   3      4.1052864072083883       10.20844622142465      18.266470277188105
   220   3      6.1222988806255056      8.1437829218389108      18.392341551912526
   221   4      4.2017561810197384      7.6484710301871646      20.156178971036265
   222   2      6.0302945865589663      10.108327125966532      22.242909040628476
   223   3      6.1311533484940233      10.231630664310146      20.293544589451937
   224   3      4.1303113482505793      10.338894529911762      22.307668980459873
   225   3      6.1189408057214605      8.1944390274054371      22.353972877440114
   226   4      8.3617254130767336    -0.33488524516080054      11.924650815574608
   227   2      10.131802563960287      2.0175865461963833      14.050380806472319
   228   3      10.035690025023994      2.2686978932281479      12.167583134318578
   229   3      8.1577891090085384      2.0692504814006862      14.383273240010988
   230   3      10.194034456017274    0.076666056360924426      14.223231951167898
   231   4      7.9354948984620393    0.067418532685844926       15.84126590895203
   232   2      10.059612247323892      1.9847507498260484      18.219973171604089
   233   3      10.296757952769651      1.9534005970769242      16.315867309891871
   234   3      8.1635600865862408      1.9764842901126598      18.238940827057657
   235   3      10.251708024037237    0.053447599740170153      18.421028674663912
   236   4      7.7650212153356755     0.18016597323210914      20.344790290515469
   237   2      10.060878516683918      1.9268679229565768      22.358228603494563
   238   3      10.223028167962415       2.199156464497392      20.305935297616617
   239   3      8.1836756305845633      2.0308774209265308      22.364219043905905
   240   3       10.28249987633621    0.052458935363217322      22.170725389226106
   241   4      8.0615222318543687      3.8872070821062619      12.056592777221589
   242   1      10.113478693591471      6.0312177498117787      14.146983252615366
   243   3      10.133931001941972      5.7859593726439229      12.136059051100503
   244   3      8.0654311280090614      5.9812392846732969      14.376010802678781
   245   3      10.093645150036139      4.0016462770733314      14.492021942166289
   246   4      8.0780110678848338      4.0501440313117456      15.873276118282451
   247   2      10.056873773853088      6.0480280209490074      18.140370160456161
   248   3      10.215516547555929      6.1785123411322109      16.288833606099853
   249   3      8.1770283799399923      6.1535260268493728      18.324275623627052
   250   3       10.24086899846783      4.0710273988603314      18.266004237673336
   251   4      7.5953275501995394      4.1110353454405146      20.424490940245505
   252   2      10.062285258667252      6.0104563229879391      22.237936646050432
   253   3       10.28316656222272      6.0459025042421199      20.343675647340163
   254   3      8.1962698198980544      6.2078375529278196      22.291198227151924
   255   3      10.170784521760407      4.1145709847497764      22.439789659873941
   256   4      7.7177049618518234      8.1094635381387263      12.129498726363289
   257   2      10.076311194882447      9.9843092066201802      14.003995475345976
   258   3      10.148209668265565      10.244838315944554      12.152275206469284
   259   3      8.1779891525815174      10.209676204279411      14.234219843727892
   260   3      10.165001085266599      8.0923168514165589      14.174131987614285
   261   4       7.871668483657702      7.8669662093403225      15.934460892917055
   262   2      10.080021524016884      10.107111813282241      18.106539416906362
   263   3      10.194684831734136      10.036709018437886      16.229800987468124
   264   3       8.147240400797374      10.046288703995938      18.377759178674484
   265   3      10.267827002444978      8.0630025035593373      18.441104995725325
   266   4      7.8045926165755377      7.8226485237683629      20.126001979794772
   267   2      10.063656570683747      10.032667707421052      22.217366125257612
   268   3      10.242023278197147      10.156992885911015      20.341989384400424
   269   3      8.1549000795189581      10.126681395443454      22.347469309930286
   270   3      10.319059361417393      8.1203021990884654      22.346882211739743
   271   4    -0.38272082908320992      12.209954871970925     0.05860847382752072
   272   2      1.9048831169646525      14.109183340189951      2.0284229505340932
   273   3      2.0404033304840312      14.428116171028041   -0.037081853078037914
   274   3    0.053467360652599084      14.227305042824245      2.0424825106868658
   275   3      2.1156214673591331      12.238407801216622       1.802882604821205
   276   4    0.045276330251006254      11.857941686943784      4.2971309316054613
   277   2       2.009447819507074      14.123450440063058      6.2463985564066435
   278   3      2.2889991907601757      14.144665369714049      3.9241717807906316
   279   3    0.029011915492072965      14.110324483353505      5.8828295779393436
   280   3      2.1355818032376743      12.222021172642918      5.9628058360347014
   281   4    -0.29578314150151891      11.778412252114144      7.8439846546821936
   282   1      1.9677178067015035       14.17427486368927      10.118596427201782
   283   3      1.9187652786607272      14.279723970226634      8.0955097685758552
   284   3   -0.043186484860047426      14.122460273488155      10.449858265293296
   285   3      2.0963058097644023      12.092611854989311      10.300537419549798
   286   4    -0.31152071774377454      15.906527219882824   -0.080635764760131734
   287   2      1.9794970411662069      18.108870724893222      1.9752892492628813
   288   3      2.2286379424752356      18.231841664875486    0.023180135119119573
   289   3    0.074643685138544177      18.308838774936046      1.9900156023407409
   290   3      2.1451781694307295      16.227516050524542       2.070408847058621
   291   4   -0.036353640202689746       16.28659742518192      4.4314116903450005
   292   1      2.0707395526373795       18.16238185559093      6.0536520747570135
   293   3      2.0765736650290765      18.437114669976609      3.9489198113688415
   294   3    0.036492435920593036      18.363059720931158       5.986320112759457
   295   3      1.9273740165721331      16.139157654646624      5.7805398715991636
   296   4    -0.25656515608103225      16.170922468851206       8.042660081318024
   297   2      2.0223665166702345       18.13269225464504      10.017189347595034
   298   3      2.0133888357578433      18.287607763992995      8.1242179108040951
   299   3    0.085113142200447814      18.493792321938638      10.211252454146701
   300   3       1.871761490677369      16.268512096894831      10.273919329500201
   301   4    -0.24911056522467281      20.186941986650723    -0.16961424732766464
   302   2      2.0489865896603279      22.165078609548932      1.9482209631337881
   303   3      2.0435890198267437      22.518396759343371    0.040933754497622203
   304   3    0.099670461148999467       22.44867586832892      2.1743412522031065
   305   3      2.1267495238353238      20.296685751359423      1.9557495205709403
   306   4   -0.022040731495849845      19.870478268709093      4.1872318484212654
   307   2      2.0718952377851858      22.188514812283088      5.9953385028878809
   308   3      2.1410091141707808      22.329257359443073      4.0628262288937274
   309   3    0.056944560669184706      22.324564302583163       5.979855084692745
   310   3      2.1095375880940535      20.323487669441576      6.1449468017688318
   311   4   -0.031396041178959923      19.870056798076977      7.8279577399079345
   312   2      1.9944489711445161      22.224279102600757      10.002215876898664
   313   3      1.9514639282729787      22.480493449927486      8.0963390791259275
   314   3    0.077362582670017055      22.218499338215196      10.266955614604903
   315   3      2.2227884613873639      20.327350902628069      10.103711414710597
   316   4      4.0374402959505522      11.860994384791642     0.15559692811828571
   317   2      6.0073891860494086      14.147403037063706      2.0782099978109478
   318   3      6.3884690454456825      14.246830177239408    0.033319075400846762
   319   3      4.1228027749004355      14.289909798546255      1.7757763453848094
   320   3       6.205735227843487      12.238742496459059        1.93581879238812
   321   4      3.8814608120321616      11.900710402049162      4.1086773021125564
   322   1      6.0666055355640989      14.127052961034574      6.0150512077557829
   323   3      5.9961298585496783      14.215622282941309      3.9929025477811328
   324   3      3.9995298775087376      14.364207464448274      6.1451946392014705
   325   3      6.0013922937958366      12.103805162281601      6.3170204135919406
   326   4      4.4135163827562547      12.350131151102337      8.0725350520318369
   327   1      6.1157961151462512       14.10182516601899      10.146433785033462
   328   3      6.0235762803012216      14.243331631249314      8.1117000896650815
   329   3      4.0135384303321828      14.290263339490966      10.149273383893748
   330   3      5.8266860491423342      12.073207965628381      10.086550333546235
   331   4      4.0103368314911521      16.038884246988363    -0.13298686619464245
   332   2      6.0746169182324437       18.31224160998433      1.9151382985255752
   333   3      6.0819610181945061      18.175095238900393    0.020305403747798999
   334   3      4.1026019968277376      18.261381954834455      2.1237251326079596
   335   3      6.2703231160979582      16.234788643876431      2.0747105777083461
   336   4       3.874211970312492      15.970412180491985      4.3070134151068462
   337   2       6.096026381735224      18.078241859490625      6.0663816866608746
   338   3      6.0994988668339918      18.383563316043826      4.0865909969701191
   339   3      4.1060085216687483      18.305579614075178      6.0097469978651459
   340   3      6.2172134889040525      16.210395365525891      6.0573549211404458
   341   4      4.3114678349435582       15.80350607966095      8.3035186515256285
   342   1      6.0641639685809521      18.205822437276787      10.099322672635138
   343   3      6.0528439654949491      18.328086205940306      8.0402870084021067
   344   3      3.9835351216821113      18.196840941592892      10.238504032554042
   345   3      6.0872138677314656      16.182466034401696      10.262264791360977
   346   4      4.1648105901937127      20.026861765265171    -0.25853685413937627
   347   1      6.0820892658269887      22.216197786190936      2.0301498133777294
   348   3       6.071455783567786      22.574917984827032    0.011749526333345476
   349   3      3.9884592809324113      22.516866512183348      2.0172665493928941
   350   3       6.081513162643156      20.210260819606024      1.9740131622295838
   351   4      4.0517218485124529      19.901116100161367       4.037019501145779
   352   2      6.1713790678698306      22.275611914991892      5.9700190092082552
   353   3      5.9039374806345046      22.302632505152321      4.1052920693759818
   354   3      3.9884023791276295      22.507022322031894      6.1976740876791681
   355   3      5.9028538538923634      20.384979536840625      6.2174606686730467
   356   4      4.1748853814224143      19.893004459151001      7.9743491054175797
   357   2      6.0798018893200743      22.224434687806589      10.001298095660422
   358   3        5.97764745685277      22.494697994997935      8.1064728301944768
   359   3      4.0471911521879402      22.622156784208975      10.118097378839225
   360   3      5.8656323293505039      20.347576650124562      10.063137457340579
   361   4       7.819278618387699      12.011595404541904    0.045473005637732482
   362   2      10.161928221591346      14.079617306001033      1.8676776522838454
   363   3      10.004059369372792      14.386927047606502  -0.0016826657940290015
   364   3      8.1763717786382273      14.274293264907138      2.2155454460058803
   365   3      10.175619151246581      12.209859908919615      1.9318017283616868
   366   4      8.0075991736997345      11.917903844107457      3.9398929576500374
   367   2      10.082598840670665      14.285877569382128      5.9403857094790453
   368   3      10.219853220133578        14.1057543822401      4.0574575484558029
   369   3      8.1218282243523579      14.044072748467737      6.2285203496684787
   370   3      10.172493548937412      12.209074036069284      6.3143431277271018
   371   4      8.0871321987215588      12.169308546344093      7.7482643896395942
   372   2      10.079372450738223      13.996861731829377      10.118354154363043
   373   3      10.019572398806744      14.368979796690819      8.2033739869185904
   374   3      8.1535097434499875      14.168954211053391      10.325674092636397
   375   3      10.308012352835611      12.157464046706043      10.082909950481914
   376   4      7.8760258917882418      16.096066946559596    -0.20000271807967601
   377   2      10.198845096690823      18.125218588691375      2.0335694429557565
   378   3      10.058729103417285      18.234380089385301    0.053081526457819439
   379   3      8.1053849401748934      18.276424402168406      2.1511106635881783
   380   3      10.062063082595337      16.242298399637416      2.2302848332225182
   381   4      8.0276011057945169      16.113036400001675      3.7897717686687997
   382   1      10.115815822018698      18.173911106307425      6.0390346749990114
   383   3      10.058313291913544      18.471242668581329      3.9794160653064687
   384   3      8.0166870455674637      18.530661693512929      6.0454293896468441
   385   3      9.9060956546315619      16.156520609522762      6.0238602892350404
   386   4      7.9291885108632707      15.821196407651769      7.9980257560348562
   387   2      10.096317679699984      18.135775969622937      10.015270337695023
   388   3       9.874844395544752      18.164563694461798      8.1388825811547463
   389   3      8.1056090057481942      18.387127676643626      10.267895611835298
   390   3      9.9947368661166056      16.229186326260418      10.424082816412728
   391   4      8.1784856083892912      20.126460033852283     -0.3253668683350841
   392   2      10.080592140526733      22.245528422539575       1.927416203176697
   393   3      10.203230591856071      22.510249098368146    0.044710787960839021
   394   3      8.1354302759826957      22.497101686144465      2.0359126859965779
   395   3      10.079102066165285      20.303342631581639      1.9512228230736086
   396   4      8.2373508375189886      19.960712241291581      4.0125235560206418
   397   2      10.198570394789867      22.136281522690545      6.0736930697375024
   398   3      10.086916077160367      22.198557610419751      4.1116747564011185
   399   3      8.0595718959294462      22.274293301819043      6.1027707399264903
   400   3      10.084385368056772      20.296506510361915      6.2583063914063333
   401   4      8.1796471742429926      19.900954729927552      7.9980315408728586
   402   1      10.057367246122343      22.184096689440008      10.072904206670227
   403   3      10.067155405424879       22.54938922139328      8.0344911555810707
   404   3      8.0056983126434496      22.264910444569175      10.185343708276852
   405   3      10.305417623179386      20.187074299112169      10.081423343761045
   406   4     0.11784572214439389       12.02907416646468      11.810796031644026
   407   2      1.9114694217913364       14.12295388333461      14.113950398407724
   408   3      2.1690533566205006      14.176929240621174      12.267287602880243
   409   3    0.015585419435344099      14.252422828939538      14.143285478549252
   410   3      2.0276057326064203      12.231880113710876      14.371039582081428
   411   4     0.11155760224982292      11.754263051510309      16.227194608969469
   412   2      2.0297269083551264      14.105260560110876      18.185005275212546
   413   3      2.0043312356719492      14.371443851061803      16.277939328781677
   414   3     0.10257754925950406      14.182098979441315      18.437321544297486
   415   3      2.1938863125263284      12.230549988799657      18.259429821870057
   416   4    -0.27279438870500922      12.048668662109543      20.047596645011037
   417   2      1.9615457496815711      14.068499953936124      22.255854060084548
   418   3      2.3154113508445806      14.208412201455117      20.313741555168704
   419   3     0.10440767794418709       14.31239554295896      22.184118431976533
   420   3      2.0992307024245043      12.196565448432285      22.373296828589378
   421   4    -0.13301855769254625      16.029592925604014      11.929292243718285
   422   2      2.0097693358648958      18.139960170223961      14.087910964417862
   423   3      2.0380008502916329      18.402318744254572      12.205542606049542
   424   3    0.094210908904155372      18.371122509557779      14.293521349831265
   425   3      2.1218435335563051       16.24023039625612      14.281301770946374
   426   4    -0.41488372640999915       16.14941217880574      16.372126981353762
   427   2      1.9466836275540276      18.212935989853307      18.182548261865062
   428   3      2.1851878444667254      18.237993487878001      16.285631187221853
   429   3    0.086785537466642221      18.397625226183848      18.241009554253445
   430   3      2.0617576044708303      16.301451956652674      18.426073236048289
   431   4    -0.42280382677752504      15.968353351424851      20.071097454237904
   432   2      2.0056055228220231      18.112648434243884       22.20441415181708
   433   3      2.0770449356210428      18.431379011897445      20.307367281791517
   434   3    0.090089808961822573      18.234523165051417      22.415376488668738
   435   3       2.255268907628019       16.23813920044639      22.246608506994157
   436   4    -0.23214471022481462       20.21418744323358      11.936387057109206
   437   2      1.9914635125654139      22.212328706061705      14.107916056217324
   438   3      2.1570567515460577      22.266573334130658      12.210773272950531
   439   3    0.088984773304967568      22.316356843130905      14.221158371902277
   440   3      2.0902843702391869      20.318177949734132      14.403808684920287
   441   4    -0.29560889511978133      20.141660408392926      16.127790377670078
   442   2      1.9991811836170832      22.224025290370562      18.142643791279216
   443   3      2.0671829499590828      22.467487768893736      16.280422971665104
   444   3     0.11708233131928043      22.294091455240466      18.352269440537469
   445   3      2.2026468616015329      20.328200814396595      18.243066712087451
   446   4     -0.3697663580698069      20.262719274476744      20.220991717176837
   447   2      2.0116108999457727      22.179068973137056      22.190751848208407
   448   3      2.1750854440153762      22.291185220096164      20.312168824112419
   449   3     0.12928077385228243      22.428713162085604      22.337899609092172
   450   3      2.0459396246196073      20.298833902084681      22.477257129632338
   451   4      4.0290773118979297      12.276602650054953      11.771657112057397
   452   2      5.9570462283162913      14.222731135721659      14.196198500333988
   453   3      5.9980828056407836      14.042107240625013      12.224031291130119
   454   3       4.038975871075527      14.176883969356203      14.460817732702848
   455   3      6.2373195624686328      12.175262703400181      14.254597896086917
   456   4      3.8846604447939397      11.811976796033155      16.101796461904751
   457   1      6.0620623767184849      14.122121797989461      18.186920110417056
   458   3      6.3392802459995963      14.193464921193383       16.16575193952567
   459   3      4.0335612856065177      14.449554054244111      18.167059569232919
   460   3      6.2613224482684107      12.077205388493372      18.217045620989847
   461   4      3.9061220242163688      11.910787992296132      20.070625112863798
   462   2      6.0435759850892961      14.166783583507211      22.168320143204472
   463   3      5.9778374501069091      14.163900044961409      20.281881928050492
   464   3      4.1310190465455037      14.196238308202062      22.496940408844893
   465   3      6.2883632725046397       12.20330336394403      22.373440777835405
   466   4      4.2406130910079369      16.035749188989268      11.754482449700916
   467   1      6.0303988095184513      18.134643446656568      14.164681856028453
   468   3      6.0797512338985964      18.455354469241151      12.168947817252922
   469   3      3.9912484048978043      18.412973957457854      14.242854041189442
   470   3      6.0667962057440619      16.125193820128818       14.13952469924064
   471   4      3.9824228745160193      16.014475974363027       16.16783598621068
   472   2      6.1341396134793662      18.146904291700722      18.177583836155019
   473   3      6.0584287135808434       18.34381577549372      16.261843535692591
   474   3      4.0997390862844583      18.271688252598093      18.411953866855697
   475   3       6.148200347695723      16.252096470125984      18.308946445223476
   476   4      4.0980775302934074      15.997682344238285      20.001410858642647
   477   1      6.0899360959063342      18.153677923631768      22.237624004209433
   478   3      6.1049729067467489      18.487174373664089      20.234513562755339
   479   3      4.0269329556134474      18.445230607709473      22.284063627202283
   480   3      6.1123453583290361      16.128470011309481       22.39859187834173
   481   4      4.2299039708323249      19.856411661129691      12.064051500643833
   482   2      6.0693808934576809      22.331003007991502      14.031883704376648
   483   3      5.9701702179751157      22.277778192506688      12.143545535998413
   484   3      4.0645454350938826      22.358123578824895      14.384186956980495
   485   3      6.0613535473706301      20.387258728640745      14.408518439572104
   486   4      4.1342259217860597      20.057572179034167      15.932547946255022
   487   2      5.9993766061068898      22.280106528465843      18.176152377530865
   488   3      6.1186940440960562      22.453801399812001      16.300876954104986
   489   3      4.0846129154533726      22.495106546171293      18.349511366993752
   490   3      6.0398481750051332      20.354423728406843      18.217535375911414
   491   4      4.1877944484883152      19.910902699118736      20.245187512144167
   492   2      6.1294276996274242      22.250163881692835      22.250092067881916
   493   3      6.1112836546922145      22.200698852146424      20.309050877134347
   494   3      4.0721797799713348      22.310895683727974      22.476901603954836
   495   3      6.0983891814647366      20.306536826753785      22.502705362557386
   496   4      7.7512934546758725      12.021748692167494       12.28793497724654
   497   2      10.070719327403447      14.044839917707124      14.124483825445337
   498   3      10.376272546698832       14.12057575389608      12.198066973717443
   499   3      8.1613394466773634      14.159665964875858      14.073937807691586
   500   3      10.229003215186145      12.164436814667818      14.304653446087544
   501   4      7.7547975846955408      12.042447055349465      16.052639282534237
   502   1      10.175058728387336      14.041531272269092       18.17307380561439
   503   3       10.07761312774058      14.398324427500924      16.136152349075338
   504   3      8.1359981023885837      14.252351541308071      18.367006821464578
   505   3      10.100428393534292       12.02538825346447      18.314496084630498
   506   4      8.0239691421152592      12.251357466789688      19.807495346299557
   507   2      10.119486405732822      14.047298117275989      22.187802643411349
   508   3      10.291013710205389      14.189470738262623       20.30110112437653
   509   3       8.165054186756878      14.303391596132387      22.195794485966474
   510   3      10.132049113035157        12.1562254958074      22.449737135179724
   511   4      7.8225322245616615      16.145714539746162       11.83748482591727
   512   2       9.984933945336552       18.10421982982588      14.205961649862587
   513   3      10.112613705263556      18.444190583941822      12.211717216017279
   514   3      8.0937437606229068      18.408611680275364      14.207381526676437
   515   3      10.141644156582476      16.215841587483439      14.087597205679035
   516   4      8.1529379294873223       15.77635186631861      16.420695235901643
   517   1      10.113857267052637      18.250358660851088       18.17816133817859
   518   3      10.173094414202016      18.250286069899765      16.140361212458924
   519   3      8.0685488419908307      18.388708704090746      18.325240269835898
   520   3      10.157426012161791      16.222174991803492       18.36970849353013
   521   4      8.2991062552012682      15.983779363166548      19.872119057683765
   522   2      10.163457178672029      18.131209347723519      22.236239977200167
   523   3      10.163459616143465      18.455370345681192      20.313111765262548
   524   3      8.1669326493790457      18.380900167409621      22.302054378524019
   525   3      10.208003557524265      16.216468542913635      22.224801425255901
   526   4      7.9074562212157566      19.879617452807867      12.060313560841459
   527   1      10.047945192212069      22.272419517156099      14.198039072395192
   528   3      10.206665102482024        22.3068852794087      12.160898582178627
   529   3      8.0162997694479934      22.377156861408537       14.28138258601923
   530   3      10.257472664715609      20.241236703798698      14.277220269526984
   531   4      7.9228705019947618      20.103011174657286      15.920129618120546
   532   2      9.9790904805461782      22.250113569916323      18.236652503442489
   533   3      10.245364850240898      22.439056061714098      16.308576162498557
   534   3      8.0998988653184707      22.328049112688362      18.329642632257173
   535   3      10.300611199051311      20.352926342867494      18.200679343693938
   536   4      8.0153926506579403      19.890545672706434      20.244064988105254
   537   1      10.117818213269901      22.272748958578948      22.260846031167365
   538   3      10.366289417608886      22.236900875328061      20.210036943824026
   539   3      8.0871767318838401      22.284860782991942      22.477879058353654
   540   3      10.204504911238384      20.245926182985418      22.488169271957045
   541   4      12.187781130085066    -0.33920041789490041     -0.1026165005672658
   542   2      14.201709109339573       1.886389466317592      2.0398557518250677
   543   3      14.084150098506459      2.0910279193039543    0.066140674489244544
   544   3      12.223352513354605      2.1847135715620891      2.1456402589713557
   545   3      14.139055321420749    0.016879712979497807      2.2035636179861009
   546   4      12.142470291751783    -0.24704755160497302      3.8242791579815414
   547   1      14.144276188970087      1.9908323037274036      6.0910244942164793
   548   3      14.258795433002929      2.2344261051895047      4.0184785375723662
   549   3      12.128218712993764      1.9858282308617312      6.0344962759544982
   550   3      14.423443825683099   -0.025376073096448896      5.9803710521199154
   551   4      12.113546661324692    -0.35625826718306902      8.2376844565512837
   552   2      14.139001690377635      1.9278383581433935      10.135176699412035
   553   3      14.373231410583589      1.8908423563765329      8.1421262989503216
   554   3      12.185612881033963      2.0581234584269574      10.140649589981834
   555   3      14.404423616250146    0.028764832599413922      10.244733678622186
   556   4      12.070810239742219      3.7018419938239631    0.051001273854279848
   557   2      14.115880514842607      6.0622164884165404       1.948526426829015
   558   3      14.276071867896638      6.2677388203044258    0.070018401630280114
   559   3      12.177404541403634      6.2154451929164543      2.0337659596431372
   560   3      14.178837676926964      4.1621699286092229      2.0244101842817606
   561   4      12.152240005413974       3.702440341250631      3.9700648753601677
   562   2      14.234934768066426      5.9429531454038393      6.0645124298426394
   563   3      14.048878307600589      6.1139140448698983      4.0662873025591741
   564   3      12.155015730444457      6.3383640073684511      6.1268848406089873
   565   3      14.102609672512711      4.0715480800878687      6.2318720052083094
   566   4      12.136802593590803      4.0137530313753382      8.3952338219519191
   567   1      14.179677986917969      6.0455741783051664      10.064106040167134
   568   3      14.232529531529158      6.3414933460518652      8.0248531920381101
   569   3      12.106705014664207      6.1459690849101642      9.9224515230447743
   570   3      14.087437127258591      4.0240397543207269      9.8286949196690916
   571   4      12.204863845568426      8.1420210750500654    -0.28447771400819921
   572   2      14.058606888275682      10.147431122678476      2.0618076176441518
   573   3      14.250429512807861      10.022723910090235    0.071751841749163645
   574   3      12.135782751356128       10.24736808625488      2.0875517435431767
   575   3      14.203059949277284      8.1553849454604475      2.2127307970519157
   576   4      12.169575612612936      7.8551288017534384      4.1776790411768543
   577   1      14.124026664294542      10.142144315764604      6.0354482983387419
   578   3      14.159343419693636       10.34264509567128      4.0108771513827284
   579   3      12.067759406145404      10.272034396994954      5.9644472930363621
   580   3       14.34869337760448      8.1284885832064173      5.9505676827733414
   581   4      12.116344314389718      7.8163274681422346      8.1219799751010697
   582   2      14.186141109185547      10.210375163716762      9.9646323989749632
   583   3      14.228143421979413      9.9597920592270839      8.0789633398099916
   584   3      12.202208050761589       9.991313362514445       10.27598948599741
   585   3      14.263644787530119      8.1209280611472003      10.296343667934048
   586   4       16.31960884698977   -0.080182366863782675    -0.28787971181031896
   587   1      18.207254600705451      2.0185917067213919      2.0830125060271176
   588   3      18.338944296328414      2.0628128213432104    0.051001565953140815
   589   3      16.154673504507524      2.2066060401445426      2.0231671033731424
   590   3      18.382185501790662   -0.026612358126378251      2.0930544945739133
   591   4      15.996284405457413    -0.15909954311021396      4.2247815541468494
   592   2      18.116834610428747      2.0163659763739612      6.1040135700247422
   593   3      18.239348816592173      2.2793478222266752      4.0834261695148637
   594   3      16.234334985343171      2.1830827234822698      6.0597369647194537
   595   3      18.225728383163272    0.077664089818502188      5.8681159704115835
   596   4      15.874480572229018   -0.057596482420037988      7.9996893696892108
   597   1      18.225580610868906      1.9983456051124275      10.083914111553892
   598   3      18.414598535988514      2.0260242876126182       8.035784650799803
   599   3      16.194770147173013       2.316900622533562       10.14909662250585
   600   3      18.119697532943245   -0.011649481427915361      10.359669579456481
   601   4      16.347358728693106      3.6769737109040985   -0.016204746939389034
   602   2        18.0955677698717      6.1118443929935138      2.0687043177527151
   603   3      18.272574544974308      6.2710047108123277    0.029149288885941635
   604   3       16.19758819711512      6.1756664373589558      2.1882404476784183
   605   3      18.300266806893166       4.179822934313723      1.8930599196731928
   606   4      16.128546650710749      3.7364614239349971      4.0041371934937855
   607   1      18.190182384895547      6.0883365184992817      6.0381609699282386
   608   3      18.453597779591842      5.9999590836613335       3.969794317545182
   609   3      16.145758504259703      6.0743167097393851      5.9296682985305438
   610   3      18.529392987645966      4.0273623569724499      6.1265307074243829
   611   4      15.909196220501556      3.8371669897420979      8.2409152628423534
   612   2        18.1243696121578       6.116083653357987      9.9119591311004953
   613   3      18.219242534904119      6.1455302222621242      8.0654852915732462
   614   3      16.251718828769143      5.9220814060049021      10.188277932593024
   615   3      18.538853092751836      4.1353515496135937       10.05570112190123
   616   4      16.019527584124692      8.3907846866496936    -0.30583195863245122
   617   2      18.085060621920935      10.174614486257436      1.9950705705145857
   618   3       18.24660574758915       9.930810614938931     0.07768002042979702
   619   3      16.220134590538663      10.104480358114444      2.1111752553240208
   620   3      18.385300094271681      8.1397487016889318      2.1636393423775808
   621   4        15.9747435822393      8.1035423051971627      4.2482739124450122
   622   2      18.119976378896784      10.128142414548911      6.1167638045651316
   623   3      18.451992019468555      10.261436518014941      4.0009322239451723
   624   3      16.224996530441718      10.280332672065855      5.9759260544757478
   625   3      18.101059465375112      8.1716178381265916      5.7724095078875957
   626   4      15.846790278209582      8.1005734646859242      7.8618704219364899
   627   1       18.16079379213501      10.161190212563973      10.037495485328463
   628   3      18.297692643650805      10.039870484645338      8.0285059542156763
   629   3      16.152891832100583      10.153847759562051      10.299493318860318
   630   3      18.096488254410875      8.0416279907603467      10.354040275598885
   631   4      19.829583278361685     0.13889206468587292     0.03269447755723251
   632   2       22.20983227216421      1.9896425886584856      2.0932392687879395
   633   3      22.358374128054695      2.1990557207558421    0.028302779165017621
   634   3      20.343048518145348      2.1191260766501281      2.0498733256152297
   635   3      22.421190035016483    0.088411750371440792      1.9732932524428608
   636   4      19.929575867801244    -0.13366099295586398      4.1286740852417134
   637   2      22.258830715906971      2.0259708959480687      6.1573163139143103
   638   3      22.485934337286675       2.103182233063368      4.0058272054702924
   639   3      20.361153393924543       1.952792832668379      5.9305906788539122
   640   3      22.553018718522587     0.11217187054828741      6.0371303149308462
   641   4      20.094115636527153    -0.21697334993408504      8.1216859255512954
   642   2      22.307808199889646       2.051587733328772       10.20849373103967
   643   3      22.258738808401844      2.0358043127585157      8.0726513356368095
   644   3      20.328296473189162      1.8929415211958731      10.278839923632813
   645   3      22.576826984477755    0.090522824394432988      10.116689976754417
   646   4      19.896721499319838      3.8402804952222258    0.052306870923114798
   647   2      22.173733208378767       6.065476027048347      2.0826007085362495
   648   3      22.539794181609825      6.1129233591713668   -0.019761478151681042
   649   3      20.315376044425516      6.1491646701677105      1.8792866161240118
   650   3      22.424500939443245      4.1304631924226154      1.9719176860433605
   651   4      19.902057712203899      4.0333834670671189      4.1587909908961969
   652   2      22.180610974604868      6.0664615883158666      6.1715843229371847
   653   3       22.28363787144491      6.1547256619055659      3.9832839463211078
   654   3      20.326760644979892      6.2438814635542226      6.0415050310467029
   655   3       22.25267714724928      4.0870568958389031      5.9271571325568448
   656   4       19.94016220022241      3.9828154876988502      8.0818830740891361
   657   2      22.197103598325729      6.0960301000644508      10.247560014648458
   658   3      22.440463833043193      6.0858578656171911      8.0608258689507259
   659   3      20.269240477964651      6.3098017950170826      10.098590389436779
   660   3      22.034986615804705      4.0647000157594206      10.012607622196787
   661   4      19.909355197224922      8.1648293670207828   -0.039618887065062169
   662   2      22.202972605094175      10.114625730938629      2.0899067174645718
   663   3      22.465172767897378      10.102632831830581   -0.065163352798713908
   664   3      20.318391413105036      10.083746222786989      1.9040194440428553
   665   3      22.439798011776993      8.1160170355195778      1.8752072192800382
   666   4      19.973270895162237      8.1588156098038755      4.2832699574379358
   667   1      22.214248659092522      10.103378272692234      6.0268944059482363
   668   3      22.368151871376551      10.131529493230605      3.9709894282071452
   669   3      20.226398680623873      9.9084218977006167      6.1023788500594742
   670   3       22.57169274384319      8.0248242122311755      6.0335345650858017
   671   4       20.31314918047039      8.5818635906586831      8.1530978463606711
   672   1      22.266366849260638      10.122316871964516      10.130405429121653
   673   3      22.413777487973988      10.019874427244554      8.1002331392003679
   674   3      20.252259310390208      9.8992334718628268      10.137713227163767
   675   3      22.596588743835166      8.0150483447065461      10.113635976676447
   676   4      11.848767853376106    -0.37668745632888501      11.801560689599793
   677   1      14.145688476321766      1.9842529845046271      14.111614708788119
   678   3      14.211457220790953      2.3364822597614676      12.087162989759205
   679   3      12.109983868976402      2.2321127198891406      14.134743317506427
   680   3      14.276438830231228   -0.043305880062339125      14.226263292451058
   681   4      11.967786400344432    -0.18328113475078331      15.943466593988905
   682   2      14.144579707375463      1.9916865980466003       18.08811264560546
   683   3      14.193504988676983      1.9962777369640872      16.232456191474281
   684   3       12.22035651390124      2.1186395401599389      18.425081669709709
   685   3      14.300760063026289     0.06828772343295951      18.396696216360134
   686   4      11.949029878623056    -0.25301388844351425      20.323736450866001
   687   2      14.180858491208543      1.9806312977993181      22.225813430865866
   688   3      14.301331051504368      2.2231116146013656      20.342748755133982
   689   3      12.213084661265317      2.2643736197189321      22.272647860752247
   690   3      14.128676661600688     0.08633621309215242      22.295537029642876
   691   4      12.237226099542108       3.778270052698832      12.090562298879195
   692   2      14.151178478236831      6.0329213582987293      13.976187464755931
   693   3      14.127103077953974      5.9193390641156212      12.122387358968394
   694   3      12.230047478427945      6.0397458989490493      14.343904316251225
   695   3      14.210234573358584       4.106519827568671      14.391921510072006
   696   4      12.061652337181377      4.0085833392621621      15.856036234608856
   697   2      14.121089771705408      6.0688034896498211      18.141516553785426
   698   3      14.292281645820498      6.1438159591660781      16.274122885531256
   699   3      12.201783414982911      6.0444163839278708      18.346299404532747
   700   3      14.281481556790951      4.0545906557379245      18.278858531695253
   701   4      11.994970349978216      3.8726247143271282      20.144369737352211
   702   2       14.10147719289715      5.9864677590124034       22.21876318229916
   703   3      14.170530142507802      5.9651365695958374      20.342164381083727
   704   3      12.194988702415596      6.1096823670680012      22.507404929176062
   705   3      14.301839112994747      4.1004347491073698      22.523088698001278
   706   4      12.262209245414622      8.1684398164264618      11.741314784535195
   707   1      14.131956409642125      10.072632044784383      14.093717906417757
   708   3      14.174236562148543      10.270948806100284      12.118822027864169
   709   3      12.097755931485596      10.122908433794585      14.281058054515592
   710   3      14.219613966813887      8.0112804672999758      14.215775610232578
   711   4      12.146777129751612      8.0481241563962715      15.780105080599126
   712   1      14.169780245092849      10.029378488576835      18.190254739450289
   713   3      14.212441615534413      10.135822015934961      16.180122147859979
   714   3      12.104110283337508       10.08697020912089      18.378971725635029
   715   3      14.155642699357374        7.99354204611112      18.446708667356358
   716   4      12.176041359279663      8.1574222564481484      19.954326239207425
   717   1      14.109044824540693      10.097914361050897       22.30291978731006
   718   3      14.196839132749902      10.205427747931118      20.254467748228318
   719   3      12.094691037715132      10.248853616592166      22.448763155944533
   720   3      14.163519843123412      8.0388700758267664      22.319889045648686
   721   4      16.291851467079862    -0.25801551496563091      11.880747071535001
   722   2      18.136750357993598      1.9166867704011548      14.135649962401846
   723   3      18.227543500901561       2.326559077435979      12.209963157735872
   724   3      16.235139755539688      2.1735347613680789      14.251889579022478
   725   3      18.129180236502457     0.03637180894317299       14.04705746789306
   726   4      16.038985405104995    -0.16455724918887349      15.843145791710572
   727   1      18.183655687853197       2.068802455525601      18.136830228437049
   728   3      18.458025852301525      2.0126017581791653      16.124391082497951
   729   3      16.160172356421448      2.0782590352191042      18.380083763787102
   730   3      18.227701878978404    -0.01335264093066175      18.386399147303926
   731   4      16.362519246526443     0.16337874781411846      19.980283661397653
   732   1      18.205204129480929      2.0445330318264983      22.300963198459119
   733   3      18.231870516077361      2.0708754908343376      20.289746296375991
   734   3       16.14490976899171      2.0257045686499735      22.513338104491829
   735   3      18.208914615280147   -0.019095241041276769       22.46239476294663
   736   4      16.163135098534077      3.8166276869401847      11.952872600688709
   737   2       18.23937338728906      6.1043912245205201      14.028196120875645
   738   3       18.32746114450708         5.9277402107196      12.163280486462716
   739   3      16.220859469357048      6.0025075257899587      14.267063439539047
   740   3      18.273053452485986      4.0897812652501955      14.401248204440025
   741   4      16.070844470605543      3.9963247373584561      15.883584007729128
   742   2      18.081030394266111       6.135139385001958      18.197250271915582
   743   3      18.216885558161657      6.0767807105706284      16.306368220497678
   744   3      16.208894295460492      6.0473587281864205      18.432736099969201
   745   3      18.323271022874337      4.1308955657408415       18.31363404969262
   746   4      16.297310621557816      3.7832481460432521      20.013892754726157
   747   2      18.101386886866834       6.073359355933051      22.253413081392058
   748   3      18.400797464168793       6.039108219109206      20.317992302772499
   749   3      16.209538284534705      6.2117473342504859      22.315727561728021
   750   3      18.221256747027795      4.1401850790052679       22.48259749474051
   751   4      16.096291451060811      8.1983960247116094      11.784105628198629
   752   1      18.224403414046961      10.107949623556966      14.168671709167858
   753   3      18.316479945259136      10.246824414042054      12.157116941444682
   754   3      16.205649970043467      10.212655542922802      14.245939171455609
   755   3      18.223660449208975      8.0358515952166201      14.284400041759808
   756   4       15.98055812970599      8.3444992984521065      15.824773166265217
   757   2      18.109116494296575      10.203673096895654      18.282883658238543
   758   3      18.407494170322789      10.075662837681092      16.282061125828346
   759   3      16.235077209919854      10.087920835354259      18.191116410859919
   760   3      18.352002480742687      8.0691325059031609       18.30453272760451
   761   4      15.867335241471906      8.4051076630085451       20.37720323383969
   762   1      18.213384698937976      10.128982096981128      22.293115020813076
   763   3       18.28324006975572      10.020181948082069      20.212520361547867
   764   3      16.187277932430771      9.9787515659576105      22.191574690218246
   765   3      18.436961781265243      8.0382626279764153      22.261431777587035
   766   4      20.016434469771838    -0.15339400486562868      11.846859149281407
   767   2      22.216122005761648      2.1125921162261627      14.190806685994575
   768   3      22.419647108766835      2.0306515630222233      12.185465317771614
   769   3      20.288347411423064      1.9919487890980796      14.105177870634574
   770   3      22.431011475561984   -0.021481371787395613      14.228313789415866
   771   4      20.208447201964198     0.41722997325668715      16.430821449354553
   772   1      22.282327581335135      2.0483673530447186      18.231947929019732
   773   3      22.209540673570704      1.8382271332288507      16.172206944640145
   774   3      20.269442447433462       1.899374450788391      18.361166641518377
   775   3       22.50796408251782   -0.032325183477175681      18.263715900304355
   776   4      19.950964265319289     0.33083639351751226      20.056757776654514
   777   2       22.20382336092122      1.9614233073830767      22.294148995953396
   778   3      22.471096810233462      2.0196589990778633       20.37179883861916
   779   3      20.321938819857806      2.0985148422970195      22.291757781908135
   780   3      22.429761927847313    0.074510585427180892      22.419494970390478
   781   4      20.025119821321816      3.8954226913523633      11.889402725380149
   782   1      22.186161038810802      6.0660443106218187      14.163708445667664
   783   3      22.291027179398533      5.9831661291048324      12.128794111958198
   784   3       20.16006578186742      6.0654936934268671      14.441774105383834
   785   3      22.274149283622226      3.9905837081739448      14.343179208965319
   786   4      19.995878652083508      4.1431283943299322      16.061618113379861
   787   2      22.174600154701071      5.9962747989666969      18.213308482426221
   788   3      22.438168260700852      6.0482938154935244      16.336557252776004
   789   3      20.289429353085144      6.1048774944562414      18.252886616041007
   790   3      22.285450465570651      4.0993467585642565      18.462903898668642
   791   4      19.964356305669796      3.7782936811346475      20.002983387297053
   792   2      22.163851482339997      6.0486041815072937      22.290086022278981
   793   3      22.354291344082078      6.1994839225051059      20.337249368548182
   794   3      20.304000050040525      6.0417581701948393       22.41225619843603
   795   3      22.485189750194852      4.1083879885469585      22.289841476369386
   796   4      19.935064037112753      8.4115943792944261      11.852161388485751
   797   2      22.274846728300211      10.001729848101858      14.064630512005428
   798   3      22.324568738020556      10.064973422720962      12.196104734046576
   799   3      20.342273850061495      10.120420856913245      14.325193901007887
   800   3      22.342945170696307      8.1201565051544033      14.360555155837858
   801   4      20.005436142944227      8.1417770954887878      15.954089314645886
   802   2      22.262178733739827      10.046159225961997      18.153092034810776
   803   3      22.297693495535594      10.237556992746953      16.259878155786424
   804   3      20.333443752225289      10.010531967180444      18.335186152061446
   805   3      22.499272079633457       8.083816394947748      18.326026467775698
   806   4      19.919898109066921      8.2510840491590329      20.299482659033306
   807   2      22.145588544084358      10.163432641380153      22.258402827904497
   808   3       22.47075765008713       10.01838366301541      20.306081252652572
   809   3      20.290608874577909      10.088766360805517      22.271922440808098
   810   3      22.387985211781427      8.0923664557777872      22.359338657578824
   811   4      12.314389110144838      12.082384141001041    -0.34720356111228701
   812   1       14.14743266301306      14.145895333244281      2.0014794675207557
   813   3      14.329530141417816      14.284493526407498   0.0022558044673795558
   814   3      12.073448989621708      14.389231912590853      1.9979271363201412
   815   3      14.282909121092915      12.106056060222503       1.867636648291972
   816   4      12.095284390652425      11.908559163134493      4.1495527828536165
   817   1      14.066956438347399      14.215983734289074      6.0727080786428411
   818   3      14.103743197978352      14.246660408985766      4.0409430474576293
   819   3      12.038882563481213       14.24844648515273      6.3336709354211669
   820   3      14.107099713023898      12.183990812855933      6.2052604604796935
   821   4      12.203822725747184      12.137578322347382      7.7185310848412261
   822   1      14.145036438164603      14.128112596132004      10.166341181086368
   823   3      14.273298527244544      14.339627214414232      8.1150006338097374
   824   3      12.074278864081853      14.472241578385795      10.079680895701966
   825   3      14.007500151472467      12.114919024711368      10.028670220171501
   826   4      12.488722060617757      15.965014530350677    -0.31820748527994719
   827   2       14.29262764139952       18.20665362839085       1.905856275528661
   828   3      14.246487475951914      18.265244744753101    0.024948711762784934
   829   3      12.129785029854892      18.331134656141757      2.0486725430109298
   830   3      14.114906471352677        16.3062549220273      2.1833343644506198
   831   4      12.378144708796516      15.878818376734619      3.8400781325213909
   832   2      13.942362807238135      18.198451622074121      6.0680881152226602
   833   3      14.108742881575079      18.416143175655456      4.1033328679473611
   834   3      12.119840231975454      18.136053984119133      6.1630082728407807
   835   3      14.312490759172983      16.275001789707471      5.9984386196238875
   836   4       12.23713764066137      15.861136836187873      8.1449683778209234
   837   1      14.089131164023579      18.193846834476204      10.147837689163465
   838   3      14.363073612596263      18.154640196641044      8.0405782708870817
   839   3      12.068119505466319       18.09748917082047      10.072656838035225
   840   3      14.330813536072153      16.198333786892569      10.210400869030062
   841   4      12.092529004192839      20.131187946912981    -0.31353296892452126
   842   1      14.171592287648837      22.244611673229524      1.9738123223726802
   843   3      14.135881491109382      22.465714862431696   -0.041859751245441924
   844   3      12.093666876927784      22.315722571221055      2.1682804745832289
   845   3      14.123496105491318      20.224081253629233      2.1752113865419966
   846   4      12.296513091343767      20.258779595267715      3.7164160182740922
   847   2      14.271120860027947       22.20013284224467      6.0709141245711544
   848   3      14.060546576842484      22.239496315799553      4.1183576468624059
   849   3      12.120737342260492      22.454453004344241      6.1551800102597358
   850   3      14.068829767369454      20.267920577211001      6.2256078476835857
   851   4      12.247847229955285      20.254968903705741      8.6162308288992193
   852   1       14.18482079362321      22.260037306058837      10.102886649555725
   853   3      14.189809149576469      22.531743712822543      8.0570934994105254
   854   3      12.139903605916437       22.43727048966527      10.000499531669373
   855   3      14.180681697461203      20.237154492481054      9.9723146970455705
   856   4      15.780989690159553      12.300494361896476   -0.045215987941664315
   857   2      18.141978886788351      14.296556546630853       2.019306427250362
   858   3      18.073223759922659      14.279961242872611   0.0083432195567921408
   859   3      16.250842721211427      14.163235855308105      2.1929028058444797
   860   3      18.409306476796885      12.117152810976062      1.9524019268992368
   861   4      15.738986623098368      12.323581945283847      4.2353474249067977
   862   1      18.189239982952145      14.180871043511084      6.0414339371046664
   863   3      18.544685462612978      14.105909885907165      3.9803032049200406
   864   3      16.193087680189226      14.064253963304507      5.9266807554208203
   865   3      18.509572420162542      12.124445294023195      6.0894801144382136
   866   4       15.83560778255845      12.535702875569051      7.7533553021746417
   867   2      18.084237634627787      14.155012230109307        10.0559566039139
   868   3      18.256676649081395      14.209386889391812      8.1543933664228216
   869   3      16.235723449080613      14.080225216774023      10.286918239906681
   870   3      18.506348248916591      12.220048386428925      10.086228321980345
   871   4      15.940504169748346      15.912297676827643    -0.28425594754599509
   872   1      18.203252530847628      18.192197264213881      2.0042951709570942
   873   3      18.238276863312375      18.414007625050345   -0.058852902911834641
   874   3      16.184661314527734      18.396203974162717      2.1346311651169971
   875   3      18.367127624075625      16.182697547793953      2.1526561979207504
   876   4      15.937867630564652      15.813114024565513      4.2512428840696481
   877   2      18.062858550251807      18.233504500758006      6.0456527890438965
   878   3      18.454325685034391      18.297169377527538      4.0810818277438985
   879   3      16.187443557127633      18.406478348645383      5.9366015419374003
   880   3      18.300591509654836      16.250166453911209      5.9670918294036994
   881   4      15.745741604087858      16.138065038743751      8.1866613431263939
   882   1      18.235031963667193      18.198249361325527      10.106587779831507
   883   3      18.250821899465421      18.235747141941058      8.0445576675196406
   884   3      16.223294011309807      18.376576441491743      10.229185631379357
   885   3      18.193734843033184      16.133221841122662      10.344102696292847
   886   4      16.279450533166543      20.022570584733419    -0.17865678370387211
   887   2      18.072081588261778       22.30479159648403      2.0658212450712963
   888   3      18.186789321136789      22.389338748351182    0.072923487553986227
   889   3      16.205052171814526      22.258190186212278       2.216384426592592
   890   3      18.393594801247666      20.338881329773873      2.0121421475481553
   891   4      15.988852062728903      20.141940389642048      3.8463943723213538
   892   1      18.202442783010991       22.24061555103718      6.0694159580566334
   893   3      18.492789795818609      22.245084080180138      4.0144519883494771
   894   3      16.178740851123557      22.237455652695417      5.9326203375215618
   895   3      18.505981767876467      20.214203058093151      6.0700771783234266
   896   4      15.956325627339364      19.883544156164689      8.3850769581953326
   897   2      18.202409200880432      22.196826282564928      9.9963136561638617
   898   3      18.288431633477934      22.457476893896537      8.0925451941098903
   899   3       16.26311076575038      22.218183886149887      10.219606670909615
   900   3      18.483530247119841      20.288557783933364      10.062189175924184
   901   4      20.268038679582219         12.316890896291     0.19652086017088691
   902   1      22.264263872502511        14.1516423430092      2.0513914916589315
   903   3      22.459778653028749      14.190448632594979   -0.034609681619718731
   904   3      20.229545273314514      14.130162597363912      1.6762807203713046
   905   3       22.27721864173914      12.069776576776805      1.8021235275096521
   906   4      19.951602911776668      12.192673660955739      4.1023246163556841
   907   2      22.189618274741363      14.148680355138346      5.9158222317439693
   908   3      22.107031361554533      14.183473237173819      4.0621411786460353
   909   3      20.317841171047636      14.290617364704163      6.2999829675367103
   910   3      22.261014491477674       12.21209843498986      6.2096349701179809
   911   4       19.98576435279718       12.20573943004573      7.9383882578802138
   912   2      22.274445397871968       14.05744005707518      10.071601723344623
   913   3      22.511906577411622      14.266849051120483      8.1741148519328188
   914   3      20.346866794743999      14.404057925111063      10.127974791610347
   915   3       22.23029262339081      12.185635667132615      10.203748650700854
   916   4      20.359304342531463      15.810764166934707   0.0038439955729907523
   917   2       22.19174870742691      18.116207223322196       2.053502335112896
   918   3      22.372979730196764       18.42935140317061    0.018287773073753379
   919   3       20.32096874591387      18.357832779268385      1.9419012933922295
   920   3      22.297737511373235      16.248468243965139      1.8791733697493593
   921   4      19.901559703297181      16.257239576100776      4.0853301035978742
   922   1      22.240816765368866      18.183032666548421      6.0466179278756869
   923   3      22.389217893381566      18.250828714058063      3.9716911801604073
   924   3      20.259829364377921      18.133550255813855      6.2582621898484438
   925   3      22.549543904993573      16.137423469588352       6.146642702702227
   926   4      19.975592199850926      16.273450921146754       7.829973806305051
   927   2      22.167948947565964      18.290895542111905      10.087074787305614
   928   3      22.510806424490656      18.225680985796654      8.1672568796952216
   929   3      20.312683072302988      18.062816983884805      10.099484501915777
   930   3      22.602355790676608      16.279702258987289      10.165718497280308
   931   4       19.98709786048104      20.105012775071884     0.13399160828165529
   932   2      22.234398347433711      22.189430911938977      2.0258653325998601
   933   3      22.571485854210213      22.303162614092958     0.10819368854540659
   934   3      20.363780642124642       22.33063918902382      1.9535712801219032
   935   3       22.41733761124673      20.306564643923863      2.0721533669028838
   936   4      19.909263693511452      20.166980508469749      4.0396599378492217
   937   2      22.243335237998952      22.198922288585347      6.1053925007265786
   938   3      22.344676824179388      22.483865099139084      4.0551340554096429
   939   3      20.358772349311394      22.523595867616503      6.1331500618764334
   940   3      22.282461676588394      20.313745863905659      6.0826912874505314
   941   4       20.02044720188449      19.957895615126532      7.8624842147007881
   942   1      22.249266896984683      22.238519596765492      10.074744587700415
   943   3      22.445638193338549      22.469868755740755      8.0206552051493709
   944   3      20.248152915850611      22.604838348029979      10.045487738150271
   945   3       22.25382258609396      20.212539301337774       10.24583747891135
   946   4      12.204878733687071       11.83806527795074      11.906431497666444
   947   2      14.059737031665984      14.149559886929666      14.103286149883509
   948   3      14.000464719247427      14.191060118706229      12.233198323513449
   949   3       12.16446597820717      14.305982450063121      14.386434400039199
   950   3      14.147096180193049      12.241810142744566      14.355059082777061
   951   4      12.329838470651982      11.717670362910653      16.039379703544039
   952   2      14.224897562536412      13.999994572756036      18.221344859171953
   953   3      14.301424483050416      14.356575898357949      16.215875762452896
   954   3      12.236613677306407      14.397848903068653      18.140844035681635
   955   3      14.078671841446667      12.137373210835182       18.18951133280698
   956   4      12.325896018623537      11.737094533023928      20.088157414886535
   957   1      14.120830747473748      14.146605051930484      22.201101095782239
   958   3      14.150600423466891      14.271048748869308      20.167515405316699
   959   3      12.086184277885266       14.15283509896542      22.509773582415047
   960   3      14.265201102956439      12.145226327737582      22.406764208804912
   961   4      12.168641329313932      16.078820562265662      11.792703279549768
   962   2      14.038081694643173      18.159154349923107      14.179374199232045
   963   3      14.276223683108887      18.326279294149977      12.269583693231242
   964   3      12.163840992126943      18.257361096369248      14.220224923653218
   965   3      14.290301778772312      16.258117797809252      14.209033590122853
   966   4      11.851779826643932      15.968065170507694      16.364207142218039
   967   2      14.093975068182955      18.209875293029146      18.226181596294822
   968   3      14.341408020439429      18.314469798613032      16.218645913638611
   969   3      12.223569912913778      18.274514718904481      18.262391578056857
   970   3      14.317608019531406      16.305213566425699      18.216187428623769
   971   4      11.951820899480376      15.983098352417604      19.924860918740343
   972   1      14.155042247997494      18.217462573285406      22.202371246269866
   973   3      14.373233559459203      18.355569514140154       20.16303021953733
   974   3      12.116323890795268      18.334741930692662      22.413626237758592
   975   3      14.257927738198564       16.21574334739288      22.313565537485829
   976   4      11.613148718318902      20.341015891093924      12.200704238591461
   977   2       14.13806976455453      22.299773772741041      14.019211960582423
   978   3      14.149555532364976      22.221762663344624      12.153562708104145
   979   3      12.212600009708627      22.325423477060827      14.347338844271244
   980   3      14.212648326531101      20.277232318867938      14.349294298218398
   981   4      11.786222203065455      20.239889031357844      16.041108030541221
   982   2      14.109433737650868      22.256199046773794      18.241195362544381
   983   3      14.302283580868824      22.430714738502981      16.310944548604752
   984   3      12.220726682748342       22.43586489530681      18.251067029673418
   985   3      14.242940190979899       20.34480069590829      18.217151727759731
   986   4      11.816748081392893      20.213938071237539      20.218330933179075
   987   2      14.229341720264593      22.168567529223299      22.295848003704762
   988   3      14.196431567844034       22.33121040773338      20.291945625795314
   989   3      12.227864923209193      22.361033094476596      22.337349553574217
   990   3      14.212462795309449       20.28533942868296      22.371864822329787
   991   4      16.197470252105873      11.649967363425278      12.213712070482787
   992   2      18.100619431883992      14.128589632123022      14.177371631619774
   993   3      18.497425394826607      14.111374266273499      12.203691079288506
   994   3      16.204943444774162      14.207084113967925      14.135094799551927
   995   3      18.360891745570402      12.232188265215855      14.319562563309933
   996   4      15.940625979338479      11.759257171651646      16.000773155290034
   997   1      18.150038392268446      14.126984741621818      18.241918750550351
   998   3      18.235520921639882      14.376565314219985      16.133792650630404
   999   3      16.149479262297479      14.284430552711113      18.212726479775775
  1000   3       18.43091829243237      12.092327442901658      18.203143620071973
  1001   4      15.924977151069873      11.838307499132647      20.681288869672464
  1002   2      18.250787101065448      13.993814673941682        22.1956886554863
  1003   3      18.420059251018543      14.181647531890347      20.305277043050822
  1004   3      16.265211992635141       14.33037015327467       22.19315189021804
  1005   3      18.118968260487534       12.14307972196776      22.334677094226468
  1006   4      16.024167918698097      16.363840843506967      11.725009936440147
  1007   2      18.128786142186485      18.191895841106991      14.075701170171632
  1008   3      18.362099712337614      18.382506930590871      12.201645932335701
  1009   3      16.250380946047848      18.369350366107327      14.246014887202234
  1010   3      18.298791237439808      16.253857578631703      14.097381662128226
  1011   4      16.117459909321706      15.914405875586255      16.366173685617461
  1012   2      18.239737092067237      18.119964402078878      18.157087644861662
  1013   3      18.357665899598558      18.302746898213194      16.229761862011632
  1014   3      16.310014371708121      18.484842679925531      18.239996868594815
  1015   3      18.192313525890743      16.264183107347787      18.272672280194595
  1016   4       15.83720050832366       15.97689333418103      20.414326913598924
  1017   2      18.191260738761994      18.098327428407298      22.291106914112682
  1018   3      18.242041976609002      18.502367188873613      20.303575709818677
  1019   3      16.274677358797405      18.387922591236951      22.279490937622874
  1020   3      18.285579296258724      16.249778995215951      22.256821310482497
  1021   4      15.878515338592544      20.081510504259001      11.818199391977274
  1022   1       18.20917779049508      22.264387973180543      14.141289628830442
  1023   3      18.417621052668736      22.214089274489218       12.09579509396109
  1024   3      16.153958553635626      22.253011038434689      14.318770243432036
  1025   3      18.413074142307551      20.199243545520265      14.291085709093082
  1026   4      16.035339063700086      20.258743315057227      15.928730895919307
  1027   2      18.139176423695883      22.291911553619975      18.093260982092907
  1028   3      18.244718923149133      22.333629071334595      16.234691836580105
  1029   3      16.235848348511528      22.358948725777061        18.3406220424867
  1030   3      18.407352834284744      20.366116150879755      18.278404248922655
  1031   4       16.15646776663597      19.971022305568493      20.200202334852708
  1032   2      18.398090249286259      22.274101779067124      22.180622743030135
  1033   3      18.258566421639262      22.319993540436425       20.29051910840926
  1034   3      16.195088636219932      22.427140043695488      22.380784066897583
  1035   3      18.144439046952467      20.358131919203036       22.43543789638937
  1036   4      19.952598084920808       11.89617567299528      11.918553231249168
  1037   2      22.193728436306476      14.039380601085396       14.16217174319436
  1038   3      22.229433480594157      14.397170063353913      12.211134278707071
  1039   3      20.300718780167372      14.306922600955215      14.312319373763902
  1040   3      22.284272134634143       12.16745219171869      14.198449470376113
  1041   4      19.984298227145302      11.924676746896095      16.093205668876667
  1042   1      22.300322404685375      14.103596641625604       18.16685732412115
  1043   3      22.379656976219938      14.334964212447856      16.128811653200788
  1044   3      20.242403837124058      14.278115690452823      18.222659288809314
  1045   3      22.219626015790535      12.073538904237269      18.480886813380287
  1046   4      20.299074811658787      12.425535774636884      19.895039288632521
  1047   1      22.240269897163198      14.116628073644605      22.248151513800973
  1048   3      22.176658005581157      14.303236334120214       20.26434744310022
  1049   3      20.191511496077968      14.174224058670312      22.565580089547758
  1050   3      22.443534105741829      12.069302256511174      22.238010749973242
  1051   4      20.024045725206481      16.037755289179259      11.946200970778472
  1052   2      22.205089781094628      18.148041316147218      14.179188419313514
  1053   3      22.447646824123677      18.271741692752222      12.196215384885621
  1054   3      20.323562287208986      18.303034588765204      14.237989987147683
  1055   3      22.432041541076998      16.270529800587347      14.233253084208442
  1056   4      20.210589949086391       15.78005765599932      16.404654028421913
  1057   1      22.240786194064462      18.257280417096418      18.204048177686388
  1058   3      22.427608530512909      18.330463326931039      16.150918677356781
  1059   3      20.203785499833572      18.319180222969074      18.401491511918483
  1060   3      22.406247723251759      16.232927596655745      18.235272744355793
  1061   4      20.429585080327826      15.878343719748987      19.930719627037824
  1062   2      22.181636078095231      18.233162872225424      22.246741185593407
  1063   3      22.384565433340065      18.316450713315362        20.3301171706966
  1064   3       20.25922819663344      18.444471367682514      22.294056186762063
  1065   3      22.292969217406014      16.313448090877745      22.408320375066438
  1066   4      19.884104607902479      20.333525423460333        12.1145844348042
  1067   2      22.166525725330136      22.317542346827896      14.100980995862884
  1068   3      22.340268609988023       22.32277797040642      12.203743171775661
  1069   3       20.31432877279477      22.245315452131578      14.288607111426771
  1070   3      22.412049978344943      20.312781574118958      14.253049686088312
  1071   4      20.020973654303912      20.219978227472808      15.989563712359661
  1072   2      22.156856203044693      22.307739033941381      18.244867401198849
  1073   3       22.47973417822875      22.302723851469725      16.259474937339558
  1074   3      20.265530939386334      22.423484126644745      18.274872273781451
  1075   3      22.342824417488757      20.346093124096956      18.307640682863074
  1076   4      20.154194375430507      20.034729933850809      20.021371840194483
  1077   1      22.245316706683816      22.286108975340223      22.295720705073752
  1078   3      22.472560818052692       22.32705982010614      20.225033895453972
  1079   3      20.241213991238219      22.274353417714369      22.415174206137273
  1080   3      22.553542359934855      20.245170903548427      22.294939609994806
