(written by ASE)

1080 atoms
4 atom types

0.0      24.299999999999997  xlo xhi
0.0      24.299999999999997  ylo yhi
0.0      24.299999999999997  zlo zhi

Atoms # atomic

     1   4     -0.1873513347163282     -0.1995967721098435   -0.094816845060685509
     2   2      1.9916682546324722      1.9742040375561232      2.0725007099822386
     3   3      2.2421494778852686      2.0723287719733876     0.02438914983934997
     4   3    0.091813941020626566      2.2057183308199693      1.8977953472649829
     5   3      2.0597053845673394     0.10065985694990726      2.1496284962147603
     6   4    -0.11121949337869921    -0.18375151754144955      4.0883740496127405
     7   2      2.0518154400332658      1.9672377947466315      6.1609444859025979
     8   3      1.9914657157803863      2.2938207729222793      3.9875281698843081
     9   3    0.060524332977395109      2.3162138844324205      6.0228553136320526
    10   3      1.9014006995940742    0.089701451432290233      5.9782713170644266
    11   4    -0.20230335634423618    -0.10069152344905032      8.2297272150815814
    12   1      2.0310744571737191      1.9921956731463002      10.094277711692323
    13   3      2.0253834029813205       2.079392070742037      8.0357356481576581
    14   3   -0.037070465354036394      2.2644857616304983      10.023385524949102
    15   3      1.9134003636895247    -0.04155435621777448      10.340656522338822
    16   4     -0.2092310599821004      3.9278597584222505  -0.0013364233407406093
    17   2      1.9446204002204723      5.9942985150833987      2.0293171507620271
    18   3      2.0747643840203591      6.3763875710015219    0.012842119913319084
    19   3     0.07596887373046976      6.1148739434700294      2.0785279422303731
    20   3      2.1488344084763149      4.1295349136885413      1.8014311176338138
    21   4    -0.05116767244533648      3.9597556594316052      4.2344360775152214
    22   2      1.9847121976720588      6.0904087333224206      6.1577268222616048
    23   3      2.2732619178302635      6.0480449190435897      3.9337646439154601
    24   3     0.05744786541693131       5.969843209792062       5.833300880443538
    25   3      2.1927971439455685       4.124640583691817       5.997053762957381
    26   4     0.32320750012853289      3.9488234474195876      8.4085853645285749
    27   1      1.9842474250302471      6.1202981102073162      10.041714928528156
    28   3      1.9892996378378125      6.2006305570779183       8.029382497536286
    29   3   -0.062094639055368293      5.8973735703077717      10.240194037785416
    30   3      2.0538124643848756      4.0535020594267568      10.131831276830432
    31   4    -0.28216609876500437      8.1323738939236954   -0.017779074162584198
    32   2      2.0172035185942039      10.022442326620064      2.0084429686675134
    33   3      2.2722570517067404       10.13280261102665   -0.017062382759602916
    34   3    0.078964033201070441      10.199041530666634      1.8992199076272178
    35   3      2.1304452467607504      8.1361034824120413      2.0881569820627872
    36   4   -0.077761030561394509      8.1919328693936269      4.3194878453369387
    37   1      2.0556411853313596      10.109184044780267      6.0742030170051278
    38   3      1.9798861626586881      10.377119718902318      3.9398344844780255
    39   3    0.017115790783341106      10.243364573100315      6.0608362915925333
    40   3      1.9260106950946287      8.0658727920659974      5.7460164504412932
    41   4    -0.24500311520405427      8.4004792534805173      7.9280353582804288
    42   2      2.0913263947869614      10.136168182925143       9.937076763067525
    43   3      2.0896202511833426      10.061676604995593      8.0939425933249307
    44   3    0.098702756301183178      10.229791617433847      10.170110073909729
    45   3      1.9387589523420528      8.1628757294552514      10.346764984120194
    46   4      4.1707569672686189    -0.31432718085840922    0.042406456901521186
    47   2      6.0670240680365843      1.9559236881868991      2.0367011369135652
    48   3      6.1156912565118624      2.1241181988433051    0.072046456344004223
    49   3       4.088539881080675      2.1853508923257996      2.0661637597169915
    50   3      6.0815986252126821    0.079403583067875136      2.1494046711223636
    51   4      4.1471115130321738    -0.26592786830344939      3.9414295321356865
    52   2      6.1656102377484299      2.0028716313794885      6.1486087737802331
    53   3      6.0760904251810404      2.2639880235707879      4.0558298185880606
    54   3      4.0025111919403411      1.9975251191846506      5.9045505902776165
    55   3      6.0590038696518347      0.0740147620482772      6.0176442701522275
    56   4      4.1149491883318001    -0.10590299219661878      8.0491285212450983
    57   2      6.0311509692765117      1.9952924446103306      10.286327339118401
    58   3      5.9460360719190044      2.0073864483511157       8.066650272392005
    59   3       4.085943668407892      1.8061866590949502       10.20271121415656
    60   3      6.2572054518498081    0.042398131901840511      10.207163716277508
    61   4      4.0419682281208322      3.7805531315312257   -0.075527980629295804
    62   2      5.9812557207434764      6.1123657039279591      2.0649167123831718
    63   3      6.3614732269223113      6.1367810697264442    0.038768651669550624
    64   3      4.1014811118669829      6.1946299847372979       1.817465075526572
    65   3       6.188624283444792      4.1427104380315738      1.9366286997350064
    66   4      4.1291878040863548      3.9466980197173496      4.3118051313966932
    67   1      6.0839731535805148      6.0227624699855413      6.0404235175373291
    68   3      6.0645846535088523      6.1259880706332677      4.0002479929539696
    69   3      4.0082295745225691      6.3338162303022987      6.0528601662638488
    70   3      5.7764733045008212      4.0120803866082246      6.1355914558808839
    71   4      4.4095801637375107      4.1733275924035107      8.1239380110493933
    72   1      6.0980947015924443      6.0118553611356234      10.110673552098071
    73   3      6.0023500441489714      6.2088571098159759      8.0620334526059345
    74   3      4.0453584717859137      6.2222570253855904      10.143988939716508
    75   3      5.8948557824018959      3.9891275313333003      9.9589191980291201
    76   4      3.9715528998152196      7.9353011969497809    -0.06770444566389279
    77   1      6.0519047254708633      10.077336199613615      2.0258930623451099
    78   3      6.0831135230206943      10.340508794985773   -0.022213426937793719
    79   3      4.0213335312347604      10.328378357672335      2.0921572568747457
    80   3      6.3046640809953614      8.0600325586514412      2.0225134861124747
    81   4      3.9011698531290731      7.9382787235242507      4.2931937646461877
    82   2      5.9796151454269362         10.075704835027      6.0026071270520758
    83   3      6.2843191305926025      10.245406280932979       4.085519370540287
    84   3      4.0759319958986451      10.059506661817203      5.8127094204730598
    85   3      6.2456414048053537      8.1587158459735676       5.991709763671289
    86   4        4.22510758192153      7.6919259319481972      8.1633504756675013
    87   2       6.153275286278383      10.072248525146213       10.07093215060279
    88   3      5.9074155089140588      10.036572041025154      8.0953982753894795
    89   3      4.0439318387826138       9.967584654444007      10.356686681331198
    90   3      6.2228850687902089      8.1033165536500249      10.218926217769017
    91   4      7.9667108685789847    -0.32253595702359228   0.0095489181709802872
    92   1      10.156899169685833      2.0011719573296198      2.0432828951538848
    93   3      10.245078302623913      2.0011448869935649   0.0013037079902328604
    94   3      8.0665979397581715      2.1701445962455095      2.1090344616224863
    95   3      10.152347914156143  -0.0088950137578455938      2.3522603176769823
    96   4      8.3151154521796151    -0.12569846740136451      3.8201205895382526
    97   2      10.258295970235546      1.9042293183190766      6.0785501446506656
    98   3      10.034828129585842       2.316019220382592      4.1423721340435451
    99   3      8.0478039458158221      2.2396084100514848      6.0383325852133884
   100   3      9.9244053265156378    0.032347414425172923      5.9092039088358366
   101   4      8.4547333792613308   -0.031477745490421725      8.3258621140546705
   102   1      10.123769197258516      2.0421332926944293      10.105407036493538
   103   3      9.9826290960122783      1.9430630368347792       8.018043495466161
   104   3      8.0483836545504595      2.2984268326532531       10.05643480932269
   105   3      9.9618683926790865    0.025398864842805031      10.242942249738823
   106   4      7.8727050208295717      3.8384692682789074    0.064198534013866437
   107   2      10.091332370783739      5.9733193171507981      2.0190900654060853
   108   3      10.126784254707987      6.3203890946165702     0.10896839698542174
   109   3      8.1921406544294104      6.0898457001071069      2.1838309705074828
   110   3      10.261697137642617      4.1077649243792109      1.9551902133474195
   111   4      8.1300637540290754      3.7617715661171522      3.9490817372674245
   112   2      10.073507214774523      5.9573479498085966      6.0702938738379935
   113   3      10.347412386369804      6.0459085637879415      4.0672693930921975
   114   3      8.1748065113587636      6.1363471059527397      5.9966738510037176
   115   3      10.201239807174591      4.0864318298551545      6.2386541848506685
   116   4      8.2678731821706233      3.9004545684323957      8.3564787632978526
   117   2      10.094441344183396      6.1028113709993255      10.297275844335028
   118   3      10.131734183862177      6.3682163272082626      7.9951912843801978
   119   3      8.1489002915996629      5.9450252897383642      9.9471662772677831
   120   3       10.21742151366737      4.1083569432887908      9.8042314054375463
   121   4      7.9619636861339194      7.8910803882877163   -0.085510716415747673
   122   2      10.042533533651705      10.027107089748519      2.0028344818072141
   123   3      10.259147135005087      10.065305345593874     0.07577185587250386
   124   3      8.1642653015942983       10.32320716184768      2.0074532665504163
   125   3      10.139897484412261      8.1622163860414432      2.2469071215201892
   126   4      7.8248982152100863      7.9325195614852078      4.0668760449888044
   127   2      10.104399325677443      10.022587229306829      6.1776432349973689
   128   3      10.073770215486986      10.493398592666374      4.0177419121050564
   129   3      8.1167130082360099      10.357517223495485      6.1302809842084143
   130   3      10.072870182032947      8.1639227462280921      5.7736892431832798
   131   4      7.8902194116159867      7.6738576156834899      8.1297346831394286
   132   1      10.105842911712175       10.06261857447516      10.053315630174939
   133   3      10.188148295581845      9.9420367431621219      8.0350939634092544
   134   3      8.0485920938997175      10.325334015219349      10.038828946791609
   135   3       10.07646108423198      8.0374913617040296      10.335835231845861
   136   4    -0.12121253731035526   -0.097279618997618916      11.898940698266165
   137   2      2.0234034798634744      2.0207800159477771      14.051211776409556
   138   3      2.0099622697427439      2.0826170757527183      12.191237866836435
   139   3    0.066146779477541925      2.0515893440796789      14.414218520733135
   140   3      2.1106377139293664      0.0352488336183149      14.256901165877499
   141   4    -0.26169078808227786    0.041638030073959387      16.144060836167569
   142   2      1.9504996825769099      1.9771447793284989      18.220522733140957
   143   3       2.175837904159418      1.9722980674036044      16.353174880132126
   144   3    0.084294101368916935      2.1816366654196262      18.302475708575457
   145   3       2.072699036644952    0.067661639290610684      18.513368568370243
   146   4    -0.30805574736040031    -0.10600529316716524      20.196908881723903
   147   2      2.0423010452256203      1.9144153603036433      22.317923102084915
   148   3      2.0493171503641898      2.2605591489974897      20.366860153915127
   149   3      0.1091740997571963      2.1358278549380154      22.467235530725237
   150   3      2.1588381949256599    0.040480418200666966      22.257506220809219
   151   4     0.33306728450014755      4.2546013557131737      11.878633911552072
   152   1      2.0295261800541957       6.026478625090304      14.143837353704258
   153   3      2.0872797540765222      5.9691686332059861      12.150166397560499
   154   3    -0.04249477567704265      6.0176436386059091      14.356698908582899
   155   3      2.0390465389063701      3.9823299905313596      14.443771228299648
   156   4    0.057891305391093002      4.1318762688481483      15.881831599778595
   157   2      2.0501907966973421      6.0316489783446077      18.192963282944511
   158   3      1.9592202462032673      6.1455791676519151      16.293887231805989
   159   3     0.07985012370493165      6.0125447961361225      18.489905668052877
   160   3      2.2421956060037407      4.0580722439949248      18.335891593802078
   161   4    -0.21936656023640344      3.9111975230381817      20.133071979956565
   162   2      1.9864368628923166      6.0257047579313614      22.296950832538403
   163   3      2.3182331038778732      6.0242715039586887      20.373965289036676
   164   3     0.11117218649383893      6.2095214232248583      22.242978364719033
   165   3      2.1019251410557978      4.1450392744047635      22.496050401549319
   166   4    0.072357065853331501      8.0229499904511385      11.786937957672894
   167   2      2.1178086868548118      9.9634802595051966      14.149148187578504
   168   3       1.902128688531038      10.196504718263839      12.254236440974429
   169   3    0.003413356058078151      10.195346830396501       14.37576175775952
   170   3      1.9453893589376734      8.0864886340037305      14.236576601883378
   171   4     0.10160183123856335      7.8761253740305657      15.929848009149282
   172   1      2.0285365894057432      10.068592569626494      18.218857204907934
   173   3      2.0274823871762044      10.242288505882538      16.185493991777612
   174   3   -0.010238066253463927      10.284050943399665      18.307053893009293
   175   3      1.9628924174933837       8.034562387147238      18.513065199595598
   176   4    -0.02353368553276523      8.1164564504997081      19.985238060677748
   177   2      1.9605679885205169      10.062580943740496      22.226277232440253
   178   3      2.1326487394052811      10.311466509036279      20.345059928206211
   179   3     0.09818638501840235      10.023703043903145      22.351494013242725
   180   3      2.3163536210086053      8.1606837078942025      22.253282257238322
   181   4      3.8166840335721388    0.010227496407632451       11.83961623015154
   182   1      6.0518643523776126       2.024328110391056      14.134770454118804
   183   3      6.2212802555498277      2.2121763702847921      12.149378520212842
   184   3      4.0057117183226296      2.0412290876918959      14.349401434018775
   185   3      6.0782321957787993   -0.011748584832504759      14.293581206139311
   186   4      4.0868886791876466    0.090802498025259193      15.869394228803197
   187   2      6.0448841355775942      2.1408581934484734      18.207861476188508
   188   3      6.0403375190590394      1.8644567573497033      16.326308375392276
   189   3      4.1089104045502296      1.9656967629603024      18.559837692444319
   190   3      6.1668684684471149  -0.0069249045070387495      18.555458142462566
   191   4      4.0798247667433856   -0.040552742858105936      20.142045527024301
   192   1      6.0380166850585928      1.9905932967622837      22.310528236282298
   193   3      6.3534036737090736      2.1118300653915751      20.277005547890134
   194   3      4.0318580967964834      2.2799092444889908      22.247161858012664
   195   3      6.1344590394273402    -0.02638608348917881      22.136451185391834
   196   4      3.7897452683903463      4.3111157233068393      11.686207245394524
   197   2      6.0404478762691438      5.9966669953767608      14.075971541903524
   198   3      6.1820963551092039      5.9574140494418506       12.16039261434095
   199   3      4.0863279429070163      6.0630299252030939      14.353360030171761
   200   3      6.0843120042805969      4.0554182849372511      14.428566594078164
   201   4      4.0604902738294362      3.9525159676445938      15.850444359856475
   202   1      6.0634177367683328      6.0399302881333163      18.228944129473405
   203   3      6.0762807779508998       6.321467403488402        16.2008727405751
   204   3      4.0270179266239037      6.3148574233197907      18.191780223684191
   205   3      6.0479039957498388       4.014857354618651      18.264300203523614
   206   4      3.9747952280233694       3.840968155405279      20.279034882277514
   207   2      6.1221515097360077      6.0005425797075835       22.21802540267165
   208   3      5.9889273817406403      6.1599271879570683      20.331189103571358
   209   3      4.1526139897475227      6.1235621277249033      22.566804204615984
   210   3      6.2475594553961891      4.1024167921540808      22.343472026726303
   211   4       3.803908549209186      7.8100163164173004      11.845891678238791
   212   1      6.0504383141803277      10.062426176691531      14.103538665351399
   213   3      6.3273168452853641       10.17028415353605      12.094187667054696
   214   3      4.0152806191833497       10.21737101414058      14.219175528830801
   215   3      6.2475647898062192      8.0272266308078279       14.07326219519012
   216   4      4.1819536934561867      7.7262276412453419       16.15111751444887
   217   2      6.0318373138010264      10.077120538007698      18.128589529808213
   218   3      6.0938000699659005      10.091959264320973      16.232167302051174
   219   3      4.1177012739694909      10.113876606666533      18.395255466761942
   220   3      6.1651119331695421      8.1559354264451596      18.413916985235275
   221   4      3.9907966528703653       7.945920869094536      19.969930696825255
   222   2      6.0375674875924279      10.099418405008487      22.241736945373564
   223   3       6.222208672180054      10.199806084512227      20.327818766130044
   224   3      4.1365138802528154      10.354848139670777      22.270910479156189
   225   3      6.0534329804063365      8.1849515345234032      22.433709291898527
   226   4      8.3819254233680436     -0.3276055461270212      11.918600072719432
   227   2      10.137188800132716      2.0192359392054722      14.040711717237734
   228   3        10.0206688119852      2.2583013277749773      12.163682626494102
   229   3      8.1511079089372664      2.0658568139397957      14.390658270215765
   230   3      10.155784952092331    0.065609387701998506      14.204683561327698
   231   4      7.9683090593257715     0.07073967367029417      15.830389766239506
   232   2      10.089086673061447      1.9176336612567562      18.204721779832575
   233   3      10.261350073088479      1.9044117937266758       16.29556001769928
   234   3      8.1532002603718379      2.0607477816635615        18.2417905851445
   235   3      10.132394561237778    0.021754665540788407      18.447857057188831
   236   4      7.7780453336208781     0.10685823743563826      20.365649502227541
   237   2      10.050837229508687      1.9653447478365609      22.412025018429574
   238   3      10.097501678895986        2.26297949997516      20.260262363732036
   239   3      8.1514940783691454      2.1163464272404853      22.323133308765264
   240   3      10.212707074848119    0.071001121003750528      22.117868106895507
   241   4      8.0457944599784774      3.8752660842126097      12.034130959153076
   242   1      10.089613167437836      6.0143524863326361      14.150601003171566
   243   3      10.116251994418898      5.7847946661709422      12.137756627244089
   244   3       8.056657432443723      5.9665520896799711      14.369774173479115
   245   3      10.095385450728111      3.9936774448249954      14.509245718764239
   246   4      8.0757862211787454      4.0193869403419198      15.867026918615979
   247   2      10.046405293104618      5.9658230451154148      18.222484996160848
   248   3      10.140123565704496      6.3082036279467157      16.299881427445289
   249   3      8.1464639356690896      6.1463136945619512      18.361931944914001
   250   3      10.251804724523296      4.0497065613195353      18.157833428483109
   251   4      7.9708879712475369       3.809112453082995      20.412766557393702
   252   1       10.07939052508886      6.0659168502742977      22.270109015956596
   253   3      10.356586564335107      5.9967529286191699      20.220726420689182
   254   3      8.0655490561181971       6.317220046302312      22.245822299891177
   255   3      10.292441042901638      4.0287715417930867      22.361605451294761
   256   4      7.7395756933154338      8.0490408315094975      12.133760217775162
   257   2      10.096670208309991       9.945833618253582      14.038048518818137
   258   3      9.9964220137102053      10.318979049377658      12.169195111899084
   259   3       8.171896825541042      10.285683019139006      14.294005302532046
   260   3      10.084258826478184      8.0831863161915081      14.103606653907239
   261   4      7.9316053152242203      7.7788541228393786      15.987229695838153
   262   2      10.116537174495416      10.135605175139808      18.112846311355003
   263   3      10.210687413213018      10.015157041586702      16.215581074313928
   264   3       8.119674135979853      10.111996201375268      18.317393450200147
   265   3      10.103803973776854      8.1214885729799562      18.496687590297977
   266   4       8.001951883154689      7.9360930818669075      20.012694627507063
   267   2       10.07513404012313      10.030621549102772      22.208328049568085
   268   3      10.080908638736622      10.242697404556633      20.329466013102031
   269   3      8.1421323738879785      10.110219707859267      22.500054198952608
   270   3      10.291688710523845      8.1545332422766474      22.300560378851706
   271   4     -0.3930764958851598      12.206908050542042    0.043025654241845762
   272   2      1.8896166467538678       14.09730903826407       2.020871700492914
   273   3      2.0361676823570312      14.426935751914913 -0.00075196290358850166
   274   3     0.04095287321999657      14.206169130020815      2.0667796515592798
   275   3      2.1231993281567005      12.222693672952273      1.8395962967501454
   276   4    0.027147173107331026      11.870720556348031      4.3381347173304201
   277   2      2.0096256887253712      14.121349656675177      6.2374668370335584
   278   3      2.2792674419313137      14.141363446711502      3.9313658122544455
   279   3    0.028232942160764281      14.119290437067903      5.8742233388870098
   280   3      2.1166920334979871      12.214000307150149      5.9592060801249245
   281   4    -0.31983807775015677      11.816287735820779      7.8828128639818171
   282   1      1.9763870974505502      14.160623030003283      10.117898034845053
   283   3      1.9180525959698873      14.272830816896038      8.0891613541875067
   284   3   -0.039961403108639083      14.115145983474514      10.439213209587889
   285   3      2.1504367976973748      12.084634646248139      10.282594935669241
   286   4    -0.30763155401869607      15.897062860355334   -0.094742512754034877
   287   2      1.9571437360864499      18.106436333246673      1.9822623181161019
   288   3       2.230060125281681      18.237622228089844    0.043405399016992446
   289   3    0.062403941237253409      18.339871773754648      1.9935194590248915
   290   3      2.1037909760161391      16.230444718605114      2.1041119425953676
   291   4   -0.038097216882547746      16.271430310687943      4.4316767798353558
   292   1       2.064743448041563      18.154133629765656      6.0590940244152449
   293   3      2.0732763175353512      18.441821468203877      3.9569369657017326
   294   3     0.03678531645809506      18.375115004839842      5.9992541981088685
   295   3      1.9241600631140021       16.13661919491647      5.7821114978094341
   296   4     -0.2621150486320506      16.157879615132085      8.0612869905664279
   297   2      2.0184697851815914      18.122713314603892      10.032226007009806
   298   3       2.031363028703534      18.305956537933255       8.130252024211126
   299   3    0.086552161367861327      18.502328643419997      10.198341051477465
   300   3      1.8726836642288047      16.262684513346077      10.249407956246765
   301   4    -0.25692845869889719      20.188396040004637    -0.17665020918987942
   302   2      2.0402115684784605       22.16341838617091      1.9524098114430055
   303   3      2.0542966116954653      22.507926279171453    0.050120641669103017
   304   3     0.10928844624375306      22.420261140161745      2.1926245199084624
   305   3      2.1644461188566124      20.297219375042399      1.9787618725460387
   306   4   -0.059149201151094156      19.873336726188043      4.1985793169214878
   307   2      2.0495512242078724      22.183821378371015      6.0110796276121876
   308   3      2.1940996027643109      22.350736086767679      4.0723067713425767
   309   3    0.087450808871448696      22.305804497643077      5.9760824109130839
   310   3      2.1722866310558819      20.325453182630703      6.1317849205603006
   311   4   -0.055901667677168088      19.865943116332115         7.8496712049905
   312   2      1.9747294190204494      22.225109486274867      10.024069553893986
   313   3      2.0438993161133161      22.480942149058592      8.0970063088103696
   314   3     0.07644745774862749       22.21983957484732      10.221599686273549
   315   3      2.2341265477185868      20.334998108436022      10.101552625802622
   316   4      4.0854858739830657      11.831052361321044     0.14381022692971931
   317   2      5.9986272173833726      14.134123602701161      2.0599757833696297
   318   3      6.3725185525730064       14.22935432927064    0.060257822741224848
   319   3      4.1192354160619544      14.329294864394392      1.8358233197095057
   320   3      6.1684711663899741      12.238999937849297       2.029362241799781
   321   4      3.8689024368273861      11.903197201343552      4.0852770134888372
   322   1      6.0610204475796889      14.124644926179288      6.0134250557040589
   323   3      6.0538474880315603      14.306804323885109       3.997414970143391
   324   3      4.0002902912551805      14.350970733876876      6.1355249839405266
   325   3      6.0070323915377264      12.097106861993767      6.2857889196094172
   326   4      4.4040775413222066      12.353798657459622      8.0730014489037014
   327   1      6.1106663137362762      14.090203816235569      10.140545495155131
   328   3      6.0273162430333755      14.237501480742649      8.1040355000206716
   329   3      4.0198460965479681      14.305036801732056      10.124422804907409
   330   3      5.7946855779219808      12.069100628123246      10.069417267288777
   331   4      3.9939804741631759      16.045322909177585    -0.14923958052775108
   332   2      6.0538260891602729      18.312805634813131      1.9372879130472984
   333   3      6.0935660752190008      18.207830721752433    0.032265500992347193
   334   3      4.1049482673981696      18.230437573873552      2.1392170725143322
   335   3      6.3297321859429196      16.247850911993506      2.0471235118490068
   336   4      3.8611483601467063      15.955010175998625      4.2865415314025457
   337   2      6.0908117008296614      18.072733729075477      6.0771096351727438
   338   3      6.1524978683627625      18.335611663243032      4.0808626009505566
   339   3      4.1101148483965453       18.27887645717799      5.9948096932391657
   340   3      6.2399548926973569      16.206007617132116       6.077934834668798
   341   4      4.2890667711279056       15.79868324322624      8.3142479902149162
   342   1      6.0663774495848752      18.204660285460413      10.099465953053963
   343   3      6.0533945287579378      18.327522591918569      8.0410587584525341
   344   3      3.9877805039034802        18.2145713442554      10.218616742470992
   345   3      6.1046514089698007      16.182470382647821      10.241898964280944
   346   4      4.1396658546510077      20.024010079829296    -0.24924666524995256
   347   1      6.0807281510675093       22.21153494638552      2.0392759509501923
   348   3      6.0688700567104803      22.562273345973445    0.013644252716590194
   349   3      3.9983221813344421      22.539230325488411      2.0247261146793503
   350   3      6.0649038928606149      20.211476424904767      1.9997172835428292
   351   4      4.0020459246635793      19.893091221360059      4.0534381288984402
   352   2      6.1577884336233382      22.233098862833259      5.9806943368944596
   353   3      5.9394686374023467      22.347191714393848      4.1077410816987658
   354   3      4.0163213516054075      22.567148524632778      6.1713801213395758
   355   3      5.8943990983163204       20.36150769288577      6.1851537662794795
   356   4      4.1300845339741823      19.854522498848276       8.022595187974817
   357   2      6.0873838786770325      22.211163052673378      9.9964508457333956
   358   3      5.9600921835078786      22.488944618937538      8.0967630054383726
   359   3      4.0721481539564408      22.621798116619399      10.117056963229487
   360   3      5.9026126100369609      20.339610621995643      10.060609694709155
   361   4       7.838787137321134      11.971527052195176   0.0067219810791978359
   362   2      10.158395582666735      14.078606297500082      1.8682911527378221
   363   3       10.01169884272247        14.4107938212293    0.006885570150900606
   364   3      8.1903654239873109       14.23446328126257      2.2319773802457741
   365   3      10.230915541249244      12.205253546785055      1.9157527344607792
   366   4      7.9901740601435991       11.93387130142739      3.9296108469462374
   367   2      10.081266531376302      14.288515221327126      5.9456332071873268
   368   3       10.25279132454216      14.076395276898017      4.0619648027465489
   369   3      8.1279837524723142      14.039967711259637       6.208944575821711
   370   3       10.18901031056809      12.192086104164913      6.3108426079076159
   371   4      8.0735323528025322      12.165404446113516      7.7538721063410101
   372   2      10.096943482108381      14.006775548289749      10.098795172590263
   373   3      10.035581556360041      14.369524412154076      8.1871901069040778
   374   3      8.1481489085244174      14.188363917868418       10.28719079542719
   375   3      10.252100399777021       12.16043265964079      10.078444128851036
   376   4      7.8485322522251417      16.107319521252769    -0.17069644512910592
   377   2      10.166837372728807      18.105247013565002      2.0535081625541571
   378   3      10.097904698627039      18.261199761899373    0.047981179074318245
   379   3      8.1341622076513929      18.344727661849028      2.0949966937813156
   380   3       10.06059551564042      16.235007548669355      2.2334322128956372
   381   4       7.937432972371262      16.041676836705605      3.8469778174228417
   382   1      10.116097963169796      18.171332527163333       6.036180416168742
   383   3      10.069237419496091      18.493833041291985      3.9804957626257065
   384   3      8.0198385421059264      18.538717902800521      6.0555342204195863
   385   3      9.9416998937336327      16.153410179870018      6.0027641863470134
   386   4        7.88428930654878      15.809194853246277      8.0386225844885804
   387   2      10.112458665313605      18.147120478054024       10.00470780739494
   388   3      9.8955228330099736      18.169353445761043      8.1341550620490306
   389   3      8.1131268448495195      18.358080374482142      10.274531342050986
   390   3      9.9937235057791529      16.233508974989146      10.427432056762669
   391   4      8.1493277669959205      20.082070635186735    -0.27887385818278304
   392   2       10.11740973957026      22.243472143637579       1.925022207375898
   393   3      10.213833737664471      22.533066651921889    0.040968320766407114
   394   3      8.1456198242583255      22.477117489610762      2.0016869558959098
   395   3      10.156943293191164       20.31849883736335      1.9491105962364916
   396   4      8.2188366188260584      19.955938259967219      4.0258692649827896
   397   2      10.213583277237081      22.137573592825849      6.0706947744081532
   398   3      9.9973496642390334      22.226766588492282      4.1092499812289232
   399   3      8.0478790273916161       22.26038213946666      6.1262094710464776
   400   3      10.092188099020852      20.297293723028552      6.2442635191510796
   401   4      8.1928496051608803       19.90488279225276      7.9865905454688333
   402   1      10.064675308602292      22.183644604774354      10.068080703959218
   403   3      10.078032673553862      22.542662722972828      8.0268763745618887
   404   3       8.015859754895919      22.286776255139646      10.154179562771551
   405   3      10.305597568205863      20.184181951150048       10.07690128275194
   406   4     0.12412697637881817      11.982682397976028       11.82158651009521
   407   2       1.957062879537171      14.126269453668838      14.089727042299884
   408   3      2.1796036807600534      14.170901297441183      12.243165547047838
   409   3    0.033264342692516748      14.250889268516417      14.117305041313758
   410   3      2.0160011352565483      12.213041447394463      14.344517602593056
   411   4     0.18629559488274597      11.760517963575239      16.163647172365977
   412   2      2.0558369190422834      14.098313817424541      18.131677463565381
   413   3      1.9399013843058015      14.305234303257988      16.260996697618218
   414   3     0.10889193432300967      14.143048731794771      18.470011418763526
   415   3      2.1896322512667621      12.216340848586386      18.293241892068156
   416   4    -0.25913030095015493       12.11697546565826      20.011916998384539
   417   2      1.9694048827872277       14.05752415071402      22.247885967101588
   418   3      2.2825829365724029       14.18457351528822      20.345587325385672
   419   3     0.10314727309048276      14.309856244518185      22.225825786454465
   420   3      2.0711839177037805      12.179064079798234      22.414432243980638
   421   4    -0.13255798054793802      15.998885993592761      11.939431241982598
   422   2       2.013416564371282      18.118141675816421      14.092835543697033
   423   3      2.0310384041241676       18.41328971018439      12.196662756526043
   424   3    0.089836177054200828      18.394412552157245      14.278993644571504
   425   3      2.0934735438734347      16.234671469832147       14.24631972455272
   426   4    -0.38346905160764799      16.107176193359166      16.358299878417508
   427   2      1.9736024755363417      18.170923263528206      18.155310271941268
   428   3      2.1497711154814003      18.274299400352728      16.263394130229148
   429   3     0.10213995939450912      18.439332358805984      18.231971258399327
   430   3      1.9963478103197758      16.273836449532446      18.437130251089908
   431   4    -0.38248704817340329      15.943768030055203      20.052346982999079
   432   2      1.9972953234080915      18.111497611329895      22.199166407064457
   433   3      2.0339017397410069      18.419993704648238      20.317218810109015
   434   3    0.080855699486528917      18.233589452626216      22.448291552899015
   435   3      2.2398712951897077      16.234575710967533       22.28574708714655
   436   4    -0.22754579218313148      20.176138660706389      11.960871711464959
   437   2      1.9867873136786662      22.215718339353117      14.109842955170503
   438   3      2.1618936860218367      22.291398783060888      12.202154878430701
   439   3    0.093594023282932842      22.355659990714454      14.229744350144053
   440   3      2.0848705576553206      20.335943528839508      14.375926808435132
   441   4    -0.26961545700164458      20.104074027789924      16.158306263680466
   442   2      2.0121144836136633      22.201157483019671      18.142650857720916
   443   3      2.0894940308270287       22.46060300211013      16.277622778936049
   444   3     0.12406287480983799      22.280620571749612      18.333238995771811
   445   3      2.2112855138254304      20.321882566567261       18.25337715093853
   446   4    -0.35028569041977858      20.235271726631215      20.185759307876136
   447   2      2.0087083924376787      22.182020556916548       22.19042672148894
   448   3      2.1520957422522971      22.295811247604973      20.314281452694917
   449   3     0.12687856238669118      22.439964273074239      22.355096645977017
   450   3      2.0343535330055209      20.300624479674727      22.485880419092453
   451   4      4.0614906627538794      12.230482776763633       11.77487027085248
   452   2      6.0575459872657662      14.174993480907451      14.124099578958061
   453   3      5.9483052910803353      14.063751702588959      12.207171435019745
   454   3      4.0325878529769028      14.135039253779151      14.451287719893299
   455   3      6.0945417485042706      12.188120598228608      14.397743963551665
   456   4      4.0559445875852624      11.921528893196234      15.917413118665984
   457   1      6.0545810966274267      14.121053700520346      18.200126177863812
   458   3      6.1712821135124001      14.358011865366391      16.200482040870405
   459   3      4.0173973613820886      14.421908098566185      18.226561780569135
   460   3      6.1471732329617907        12.0821658586087      18.293589558995492
   461   4      3.9377668048628713      11.939837873441256       20.01523647920893
   462   2      6.0391626680358623      14.165764754608938      22.170824602630542
   463   3      5.9710061833338868      14.205798169846407      20.294159446507898
   464   3      4.1220266384874291      14.181284147550356      22.523600529248984
   465   3      6.2954626179831656      12.216622817070007      22.344394707735788
   466   4      4.2757914374808204       16.02373034158974      11.772167858461795
   467   1      6.0334779197423556      18.139804167100412      14.155483020909125
   468   3      6.0721691505630471       18.45655932076086      12.162539738795575
   469   3      3.9780417676230231      18.431809394423396      14.213796659551621
   470   3      5.9372194156411986      16.128691400846815      14.141832145002642
   471   4      4.3123736468330343      15.975296678474473        16.0770783142131
   472   2      6.1492675831914658       18.17754139869454      18.172389069426039
   473   3      5.9578361684146213      18.261346147514026      16.264069249508342
   474   3      4.0561482754244329      18.257772513846522      18.452910785998725
   475   3      6.1034083242484076      16.276612605405063      18.371754794796061
   476   4      4.1191878096672561      16.028038494768914      19.985916130263629
   477   1      6.0732555955421343      18.155008932310498      22.249565693049224
   478   3      6.0974399815437712      18.498894527580912      20.246675733395691
   479   3      4.0110845513355287       18.43922517215605      22.296114613978233
   480   3      6.0759890505897749      16.135900202845402      22.447069135254257
   481   4      4.2157765101814659      19.849958580571386      12.074006337867733
   482   2      6.0550536640867119      22.333233333660644      14.025571208642202
   483   3      5.9998053048418107      22.285272990614235      12.135446195114429
   484   3      4.0728577194182849      22.368744552093606      14.360546936076272
   485   3      6.0559784246743469      20.380969972919335      14.413260182298011
   486   4      4.1500473430654692      20.050586905491347      15.931926691700232
   487   2      6.0016287176332401      22.273498318055918       18.17425015487775
   488   3      6.0938164969942257      22.445917340256937      16.302253960299474
   489   3      4.0826526941075088      22.506180721729251      18.367023748353606
   490   3      5.9740042079488731       20.33469901929055      18.206981967281592
   491   4       4.182129209906865      19.913864774300286      20.236735567108166
   492   2      6.1280377644380497      22.239616728272363      22.270528611490587
   493   3       6.107607534069631      22.180809689721098      20.315773116254455
   494   3      4.0622539703378715      22.313330553698563       22.47490848519768
   495   3      6.0901541870840417      20.299933129194947      22.508113643078044
   496   4      8.0425358898771435        11.8308395562408      12.023549098794458
   497   2      10.098103048201036      14.060069545033089      14.125082081514659
   498   3      10.253828105255382      14.090308097150807      12.200598677271358
   499   3      8.1056354256599494      14.186699090868133      14.195131386950651
   500   3      10.141893051205914      12.195657606650263       14.36325122101665
   501   4       7.875450979079246      11.960519950049248      15.956016859451315
   502   1       10.16413432950101      14.059621463899065       18.17005945126893
   503   3      10.083025353226313       14.44257683295803       16.14407996300929
   504   3      8.1108161356824429       14.26199268315222      18.342464903120383
   505   3      10.072019414267354      12.054575765556203      18.249121705687649
   506   4      8.0400941575549609      12.235399653669202      19.786520985455113
   507   2      10.097222462756463      14.058230620455966      22.189649151616578
   508   3      10.255167236434504      14.176894764495694      20.303187635915513
   509   3      8.1448536379281666      14.339702038012057      22.221282173824253
   510   3      10.067902911964246      12.183896027906558      22.504730045624516
   511   4      7.8831624080286709      16.159863885170047      11.781541578390998
   512   2      9.9761656521605477      18.093966755793577      14.211193317298205
   513   3      10.100290124766691       18.46739944287625      12.218801773216864
   514   3      8.0855101758443819      18.408345163872642      14.213587033044918
   515   3      10.112702099578399      16.214837019463012      14.051313307001507
   516   4      8.1345835935979274      15.758692076792434      16.407090884068047
   517   1      10.110326151279875      18.251017685975519      18.182326769129652
   518   3      10.196081348159185       18.20812017669412      16.139012442329957
   519   3      8.0569209646565536      18.384885845551171      18.312416525608988
   520   3      10.148878798196163      16.228858548433621      18.399063603021684
   521   4       8.274748936725004      15.985371725293295      19.868234657768234
   522   2      10.163875893661988      18.128500592143411      22.247658875211421
   523   3      10.139505389042375      18.463385353808512      20.318876991614278
   524   3      8.1636621508643898      18.384195858145166      22.324889885609622
   525   3      10.203878999796833       16.21791602462277       22.21798215888996
   526   4      7.9084117363602546       19.87133714199862      12.046548971530125
   527   1      10.058816957871306      22.280428646557656       14.19099902312605
   528   3      10.196340257833457      22.296901108664176      12.156328170875257
   529   3        8.01700318568518       22.32026197570983      14.330153509833332
   530   3      10.204949739630592      20.246810437392689      14.325608340295249
   531   4      8.0078586416885322      20.223187138710777      15.825392913838289
   532   2      9.9790012595479443      22.211608443393295      18.238771066603679
   533   3      10.236547259010104      22.439775736763558      16.313496563226238
   534   3      8.0881793126240975      22.257758287480488      18.324105304537287
   535   3       10.31113027620154      20.329259435053999      18.179517282860864
   536   4      8.0125523314440787      19.893120188935313       20.28944021937011
   537   1       10.10687099081194      22.280195173937507      22.269863303546824
   538   3      10.348217678459704      22.207395303890475       20.21343962474571
   539   3      8.0796745211706522      22.282530812367053      22.477244912369571
   540   3      10.238464168928781      20.252196802891085      22.460104697181119
   541   4       12.20639244099578    -0.29953978180969454    -0.14312205638863931
   542   2      14.167940340073734      1.9348472332797131      1.9687561705905452
   543   3      14.069006149256367      2.0374312247356601    0.059080385788340802
   544   3      12.212534519279229      2.0360991198619534      2.2776681421583533
   545   3      14.205401428634506    0.040426335652483832      2.2476099160775114
   546   4         12.131397716376    -0.12998340068098249      3.7742850901163982
   547   1      14.143847163616758      1.9936558516914575      6.0988663517240127
   548   3      14.305901007285714      2.2193415048833112      4.0428311846187093
   549   3      12.120526628433257      1.9867515882317355       6.010263192276466
   550   3      14.413702081015632   -0.025615453745420957      5.9780648512454517
   551   4      12.142016833486414    -0.35442747840130018      8.2360813000907029
   552   2      14.161258448973239      1.9033090174103575      10.136150155187016
   553   3      14.327972925273912      1.8937586105082649      8.1505795721834602
   554   3      12.192316786080037      2.0730742479330355      10.157390192993089
   555   3      14.366098215431256    0.016967493504145986      10.276372085468804
   556   4      11.950924250140355      3.9296102037889784    -0.17997446540812054
   557   2      14.114480311565126      6.0650881826625485      1.9426691780103735
   558   3      14.275343310845683      6.2360014536227979    0.065742134416601164
   559   3      12.178369562701887      6.2787176490567314      1.9869591124357169
   560   3      14.080084956752257      4.1421792289497876      2.0556384987696892
   561   4      12.208881136165765      3.6931959543653781      3.9856957396718338
   562   2      14.249056869978109       5.950923433370729      6.0602249385581262
   563   3      14.043160546513166      6.0845704442555988      4.0741004909399239
   564   3      12.146615777645669      6.3610927375993267      6.1252851968102817
   565   3      14.072358121203264      4.0788756204518268      6.2587496492683581
   566   4      12.163450723459865      3.9738923987613597       8.387429401048152
   567   1       14.17593423822872      6.0561423035866628      10.076456911194953
   568   3       14.19296910022431      6.3736527035226374      8.0346431326725423
   569   3      12.101223053873481      6.1953990886106238      9.9728262841486934
   570   3       14.07031597637879      4.0366357753032922       9.851149717509351
   571   4      11.974946482857634      7.9363128816419346    -0.20402453641819673
   572   2      14.043620838583916      10.149402900917574       2.029850493415458
   573   3      14.224639945501059      10.005529759021595    0.065955639518952988
   574   3      12.138061374702446      10.203112478257253      2.1565546142874501
   575   3      14.259388566903047      8.1317664676858818      2.2250277057080448
   576   4      12.165988557264773      7.8813685669849356      4.2103052300194603
   577   1      14.116082956818319      10.140011501237838      6.0381465924044804
   578   3      14.248655331091536      10.289305461566279        4.00228724726996
   579   3      12.066001196886718      10.240566720350627       5.929796753432715
   580   3       14.33887402080312      8.1237727208270343      5.9345139798741311
   581   4      12.154918882212918      7.8183682278117779      8.1165541304480762
   582   2      14.180323016571936      10.203268084741767      9.9756681416957438
   583   3      14.175444988632565      9.9144740316081208      8.0919361010940865
   584   3      12.186393008373091       9.987095296344382      10.351850043868742
   585   3      14.241644014194291      8.1193112403361258      10.358006845732525
   586   4      16.288228593408611   -0.034446697215556571    -0.31171345199559397
   587   1      18.190148650003966      2.0292295020881093      2.0770767060236182
   588   3      18.334870436052885       2.073988388681141    0.050019828479636284
   589   3      16.140904496161223      2.2462581468010141      2.0262429823014521
   590   3       18.34820393499119   -0.017010967895456041      2.0933781358763746
   591   4      15.871600629853202   -0.067410155018567203      4.1049381405813419
   592   2      18.100676133576812      2.0109519985465822      6.1043895673461721
   593   3      18.224179899507277       2.256711915610409      4.0954047212109668
   594   3      16.225898837898814      2.1917920382752309      6.1207313502943981
   595   3      18.253096740472248    0.080068036926212532      5.9251597787694799
   596   4      15.890920132720666    -0.10331439068126944      7.9556985051788311
   597   1      18.222948355364576      2.0108438807210671      10.102808139006619
   598   3      18.430397118368845      2.0336202599228583      8.0457215612216029
   599   3      16.179156228006509      2.3148466969297212      10.143841898459067
   600   3      18.130552555158147  -0.0072452746694536907      10.349926266450424
   601   4      16.373520995732878      3.7131402054977167   -0.070047964300163301
   602   2      18.080418490765055      6.1158100640985449       2.063334975678996
   603   3      18.270233858632469      6.2419557368911907    0.063887585479816877
   604   3      16.182000452384337      6.1039899452818824       2.195707915679221
   605   3      18.344137979299923      4.1722785801555489      1.9411761403495005
   606   4      16.102024327310268      3.7328744192499808      3.9786284196326638
   607   1      18.182866444750999       6.095955367995388      6.0545601364236674
   608   3       18.45668693881759      6.0137999892380236      3.9851972868140484
   609   3      16.145564404501364      6.0550692180327665      6.0191156335542484
   610   3      18.526815245888358      4.0251441436992863      6.1354599844820203
   611   4      15.899729852386068      3.8389394778404098      8.2345136081283581
   612   2      18.117140142884971       6.110229895360793      9.9601371832052177
   613   3      18.259472195870579      6.1265567507982377      8.1062965358612296
   614   3      16.240436434653855      5.9336935679066229      10.202100115245921
   615   3      18.511767977512779      4.1247349960982458      10.077387069573723
   616   4       16.02390780268955      8.3966314440316712     -0.3165092597386977
   617   2      18.086805400646597      10.186537350739851       1.981855650521235
   618   3      18.262275634961441      9.9285994432180154    0.080294277786242402
   619   3      16.221235002624656       10.10713446928064      2.0720107428704191
   620   3      18.336154651059442      8.1340220009799342      2.1921372001330428
   621   4      15.913302472673086      8.2100789625455608      4.1784904449005849
   622   2      18.116253968592776      10.122600837514065      6.1216390811999357
   623   3      18.415526713852497       10.25389834324382      4.0144506911281788
   624   3        16.2156027618433      10.270237257908398      6.0356388057239485
   625   3      18.103126058247749       8.172685124257292      5.8136800547242933
   626   4      15.859487179620151      8.0981505880680729      7.8414716692360766
   627   1      18.151353193019283      10.148048241144387      10.053076329278797
   628   3      18.325201078298043      10.053912698779451      8.0441347942118586
   629   3      16.136385010095239      10.138009916384661      10.288738620803768
   630   3      18.113528134639715       8.037792182454206      10.361648445201599
   631   4      19.816536887909866     0.14627886897860373    0.026164522789311393
   632   2      22.194687029786788      2.0010131033441789      2.0899264354528038
   633   3      22.363874225767088      2.1915556114512134    0.042667961987735502
   634   3      20.334372639294212      2.0785717587904191      2.0753934130481078
   635   3      22.457671851010524     0.09592035523391361      2.0011000127550163
   636   4      19.895287095178162    -0.12741881166676211        4.11622650504059
   637   2      22.252510771532549      2.0308293206614154      6.1530395712325126
   638   3      22.507449254683511      2.1000995093907684      4.0167741183556842
   639   3      20.367803760095498      1.9529715328705806      5.9540024540268499
   640   3      22.571304552146639       0.112097652809726      6.0494934809485992
   641   4        20.0362903514972    -0.15707554780982608      8.1440061967617758
   642   2      22.256435171545814      2.0763759988307195      10.217977103177565
   643   3      22.305766643969839      2.0660966780514287      8.0763071429602569
   644   3      20.336720154587663       1.862674089657818      10.220967540559897
   645   3      22.588425340976155    0.094057378511289688      10.106794896025677
   646   4      19.880518449219522      3.8679013634547497    0.025609320641944228
   647   2      22.170573207357485      6.0734991187256862      2.0205844192872529
   648   3      22.533651977690564      6.0862028587690435    0.015195816983459171
   649   3      20.315821635088245      6.1729737127769102      1.9283216658146218
   650   3      22.403329640127861      4.1222925941220536      2.0107171540737143
   651   4      19.858291799103583      4.0439806732112338      4.1179288065032438
   652   2        22.1559219503823      6.0713441056261654       6.037648460544613
   653   3      22.309900646542854       6.146989210852416      4.0023303363959002
   654   3      20.314927165096336      6.2383139971830479      6.0603911688008045
   655   3      22.269381266261206       4.087944473428843       5.935952272272095
   656   4      19.892817895107797      3.9897433348202158       8.074346582096819
   657   2      22.225243470469454      6.1138304906097947      9.9863238742858158
   658   3      22.394670939889078      6.0557678709778555       8.053767129183937
   659   3      20.295624916059875      6.2556311674484704      10.176821201032604
   660   3      22.121482739762417      4.0765756290776043      10.151385194442923
   661   4      19.913472485085034      8.1662494764031646   -0.096456262840000487
   662   2      22.187837442229686       10.12643206113669      2.0828371323954804
   663   3      22.446901955591517      10.079375339282926   -0.037359572243452821
   664   3      20.306832063133747      10.045589402054704      1.9559678119695836
   665   3      22.470056717703503      8.1022949884653883      1.9180403482311017
   666   4      19.914497976589267       8.165065154923095      4.2363401245640668
   667   1      22.197398169230883      10.118765565493337      6.0196976653500549
   668   3      22.414262678595559      10.114150456820434      3.9736111755175174
   669   3      20.219146950070453      9.9286539978773423      6.0952954880220913
   670   3      22.575279750580922      8.0207190201380048      6.0504707709342505
   671   4      20.312046125646781       8.617099376013643      8.1526477388367908
   672   1      22.280774412748471      10.096805442463825       10.14182542299559
   673   3      22.388066134898622      10.032929279922389      8.1006207712808784
   674   3      20.254337790710228      9.9235194714483601      10.186230662317081
   675   3      22.540643946393654      8.0159864619799901      10.142197025604624
   676   4      11.863017015283592    -0.38014580659495206      11.797645639929968
   677   1      14.131106282231711      1.9842963900418602      14.105838520443402
   678   3       14.20686328623305      2.3571837949699725      12.095043921122354
   679   3      12.100387352748749      2.1828862622676581      14.157610364369239
   680   3      14.257132677254505    -0.04371299431092824      14.234129715289003
   681   4      11.984886624775431     -0.1915514132961324      15.915201499654639
   682   2      14.092005190720084      2.0206727024896223      18.119858500480735
   683   3      14.201474180663286      1.9895655527583245      16.243086812372983
   684   3      12.164264971345629      1.9850924092466216      18.387720988815808
   685   3      14.354426254972417    0.059978147260280279      18.373347683787465
   686   4      11.935343538936769       -0.25388393546359      20.393021670785348
   687   2      14.185391892663613      2.0171356701880248      22.170737997576058
   688   3      14.293253273190786      2.1709631017457198        20.3017782655802
   689   3      12.195155058603484      2.1186354328411152       22.27443042483932
   690   3      14.196177890024574    0.095619092972305628       22.30518714100393
   691   4      12.264784853391745      3.7965717800172252      12.025691844704847
   692   2      14.073206333285023      6.0521461234572058      14.005327278717338
   693   3      14.080685477526178      5.8626151496815337      12.147754110460637
   694   3      12.177642132008879      6.0619126749751873      14.381231604951163
   695   3      14.160820968554964      4.1130832232073642      14.449098627662568
   696   4      12.069873937030396      3.9626001038986804      15.890697131021547
   697   2      14.285389922068561      6.0866639101222129      18.155211015477928
   698   3      14.246715491818554      6.2155406506425344      16.242506515563399
   699   3      12.151985813864792      6.2746771143960514      18.170493998490596
   700   3      14.101382411953955      4.0445994760978703      18.170973393214197
   701   4      11.803063188204511      4.0112569781178022      20.338090099554901
   702   2      14.095867105871976      6.0103511284921778      22.202589144902525
   703   3      14.020473818242651      5.9323894899859546      20.308439116880898
   704   3      12.206800208119969      6.0886413570843203      22.543015319885754
   705   3      14.201473227569213       4.071143249188232      22.526099122006709
   706   4      12.262887302513368        8.10377690389031      11.744733176852581
   707   1      14.109361021674287       10.04000650628309      14.103089504662028
   708   3      14.195273861217286      10.319075805988927      12.134772825649648
   709   3       12.06272533498154      10.246884715540324      14.141508818756614
   710   3       14.30263794577869      7.9972302423372303      14.124571685506821
   711   4      12.024949319712276      7.7820928754486278      16.107870707891912
   712   1      14.134916029999172      10.027752298246162        18.2076818341069
   713   3      14.181751160934635      10.103421753831199      16.174656687444653
   714   3      12.073507115082679       10.07656248108624      18.405072656397504
   715   3        14.2148749672204      8.0144614382183104      18.458480585114827
   716   4       12.05210442515674      7.9176947305679333      19.973590545246854
   717   1      14.085102699158826      10.070387658653029      22.305406627579426
   718   3      14.242514106936968      10.246505964101177      20.252745502013141
   719   3      12.074211440994416      10.353591256356621       22.30226823259278
   720   3      14.222159968405656      8.0112063454628188      22.240401217865667
   721   4      16.338340334440886    -0.28454941636240827      11.898325187761214
   722   2      18.116680012287446      1.9564372089584634      14.127556134804305
   723   3      18.217109180396719      2.2996672517257819      12.198560248594077
   724   3      16.222547194548763      2.2082649967219865      14.273168890765385
   725   3      18.125114484212052    0.064623218388524917      14.055813324191188
   726   4      15.995791767008066    -0.15090756555815737      15.874825217864769
   727   1      18.173829666455902      2.0447988241868456      18.130768881427919
   728   3      18.462667439018535      2.0177606048660315      16.119948399543979
   729   3      16.140855385038115      2.1302652782989515      18.335071739974978
   730   3      18.219040121313206   -0.011375354315534937      18.361432567550459
   731   4      16.348745282174765     0.25315979154063323       19.97111999780363
   732   1      18.205222485910319      2.0518464971908164      22.284764697858126
   733   3      18.222157305768178      2.0509263427602824      20.275440629971591
   734   3       16.14127313573395      2.0440683419277215      22.525463678559927
   735   3       18.18659205304774   -0.015279307025473978      22.464751424205406
   736   4      16.131283104056561      3.8456955177975614      11.951722156489989
   737   2      18.115402007024489      6.1076438714743322      14.146083319357404
   738   3      18.350539331232604      5.9099253452169904       12.20551496057695
   739   3      16.208514312364606      5.9303518953910164      14.229849357350629
   740   3      18.407262302949555      4.0638228026879508      14.319005223766343
   741   4      15.961006385798211      3.9371188498041709      15.983405123278215
   742   1      18.156551991906447      6.1217013747116571      18.213632294582816
   743   3       18.39203948895064      6.0781163320816365      16.160855306472889
   744   3       16.15472784526148      5.9310758803847285      18.375399618779777
   745   3      18.347999812172201      4.0691107622732385      18.263579985480852
   746   4      16.459492358211428      3.9237402199098117      19.868959554141306
   747   2      18.103478756796896      6.0752411730899034      22.209939658496122
   748   3      18.371558931546243      6.0224239398917101      20.327919976672948
   749   3      16.197043902754235      6.1188798833396287      22.303793049160781
   750   3      18.228887194050532      4.1313162193205892      22.508871920453291
   751   4      16.095729185453013       8.216276150911499      11.831882209863219
   752   1      18.236961179703219      10.079320683448472      14.177840427442222
   753   3      18.262660855958512      10.246101611231341       12.16073479907358
   754   3      16.200041927768602      10.218172207379133      14.270217300346404
   755   3      18.265982939670042      8.0219576760290341      14.208138595586592
   756   4      15.880644357658458      8.3794869938703584      15.904104281450842
   757   2      18.072993632005581      10.139820041825269      18.276840584215808
   758   3      18.434088642506051      10.095898487770574      16.250907730236644
   759   3      16.204258412535587      10.151347145951611      18.128986635976982
   760   3      18.386439058751158      8.1493350585743176      18.212446218561777
   761   4       15.84908178000509      8.4087694199216347      20.375155181714881
   762   1      18.223370176521353      10.124046385842982      22.279291542630762
   763   3      18.251868044268065      10.050340630561662      20.204985318057965
   764   3      16.187976501986647      9.9895561979749363      22.213845482454701
   765   3      18.392445866348154      8.0291939501486329      22.296999277744202
   766   4      20.000067130307311    -0.16270245704938158      11.878476868532536
   767   2      22.194965124628936      2.0526647227878256      14.199288561400333
   768   3       22.47035269560666      1.9932023319779428       12.18731630259304
   769   3      20.314634580780897      1.9622791243655022      14.080619353217458
   770   3      22.472280972822919    0.018973452040567277      14.229562426221525
   771   4      20.188828105082226      0.4040654280346101      16.437329428271948
   772   1      22.301454233144014       2.053889707974538      18.221937681107267
   773   3      22.237907418928678      1.8927700831318508      16.156077507620164
   774   3      20.287428237095575      1.8806061038584372      18.340937348365074
   775   3      22.544870307565027   -0.020511010530236861      18.245086576658505
   776   4       19.94597700309501     0.35189055382182832      20.056761941345471
   777   2      22.196409405047419      1.9882784573490819      22.284285534439086
   778   3      22.495667324641751      2.0341735634906808      20.370277598299371
   779   3      20.319629673437163       2.084665783507357      22.295957452736339
   780   3      22.445250491994948    0.095460907459063674      22.417273824455314
   781   4      19.923806144923745      4.0300725255348109      11.993750712449115
   782   2      22.216945678812124      6.0396483244289776      14.044665606266541
   783   3      22.324704926466204      6.0726428935141881      12.178529933069685
   784   3      20.333037977041592      6.0727802720107524      14.259419858884442
   785   3      22.373690464894636       4.032223047066771      14.283917368626808
   786   4      19.806009504402262      4.1275540006147571      16.303080673692016
   787   2      22.202531781271365      6.0109936017291474       18.17876096626317
   788   3      22.430247415514895       6.054950282766085      16.291192473826669
   789   3      20.338069947870878       6.164759844880618       18.27771139225618
   790   3      22.316737383560508      4.1137819429862033      18.436006821050938
   791   4      19.948211158802597      3.8487175015334216      19.916789112098996
   792   2      22.167167771684742      6.0778240061172442      22.239653620729126
   793   3      22.344375204601761       6.169048076807556      20.335194497264215
   794   3      20.304519909747807      6.0427974964401354      22.424596320302477
   795   3      22.488155083764969      4.1099160709115878      22.320166478635713
   796   4      19.931755254659539      8.3482454270706636      11.876855807731134
   797   2      22.265527602549327      10.007748359645808      14.057540326094148
   798   3      22.416271455884413      10.055635835914536      12.202399713698906
   799   3        20.3727737652389      10.157032724120388      14.214933883188188
   800   3      22.415744355129203      8.0698914250025737      14.330402039807598
   801   4      19.824548872842367      8.0472626128747429      16.226083803219755
   802   2      22.272396657693072      10.068696274110097      18.122492587500385
   803   3      22.307457078981862      10.216214487767106      16.238384219004544
   804   3      20.355710742271231      10.031250018645848      18.358561269715796
   805   3      22.514165733732227      8.0915649203074924      18.313038923811803
   806   4      19.871009055128077      8.1571171541490859      20.147799963403443
   807   2       22.13788129225663      10.153585950158723      22.228736738707671
   808   3      22.446907033694263      10.016808912693644      20.317990490912099
   809   3      20.287767392799349      10.071852363514207      22.304597381347907
   810   3      22.366544744715274      8.0720830610912628       22.42112750017063
   811   4      12.285778813858029      12.082870790985778    -0.36121332511496312
   812   1      14.146711616557377      14.142971624034548      2.0017759276494043
   813   3      14.322816568578677      14.287763543531261   0.0027694360857512413
   814   3      12.080132429598827      14.408446916463726      1.9905346868585694
   815   3      14.266848354707355       12.09422007877868      1.8780202559934682
   816   4      12.051431663958027      11.912876683526818      4.1473744982273457
   817   1      14.072139929224674      14.208561714156845      6.0695869799359539
   818   3      14.107771644505522      14.236240122319453      4.0411101772342679
   819   3      12.048517837525443      14.236129607751918      6.3387119138827055
   820   3      14.104108671574586      12.173051596288676      6.2160704513363116
   821   4      12.219557046526628      12.146101528786003      7.7195037856964239
   822   1      14.143618867318906       14.11469939516855       10.17183083786583
   823   3      14.261574076246278      14.347333837158587      8.1193710407878772
   824   3      12.066521523046282      14.465556190377816      10.097540929818992
   825   3      13.997936943579639      12.104525948653878      9.9922606987383364
   826   4      12.478972462457694      15.944434372296939    -0.30274393879793698
   827   2       14.28076949395858      18.205110785455187      1.9033176411037789
   828   3      14.222644320630454      18.260806376733406    0.022026681623916022
   829   3      12.129078525964873      18.316804467715013      2.0672219400232819
   830   3      14.138822594117316      16.304817440458372      2.1934046528173359
   831   4       12.36828531747687      15.872428328894854      3.8372115239107312
   832   2      13.946279410576194      18.204886486686725      6.0691906767352908
   833   3      14.115741463708627      18.433002681590828      4.1040653925616342
   834   3      12.122512101476211      18.130085184554996       6.148030332314212
   835   3      14.314091234067424      16.276325457173691      5.9998053709684207
   836   4       12.24618381867513      15.858737741034226      8.1175429468720512
   837   1      14.100119967825306      18.201591661044848      10.141992101764226
   838   3      14.356458154388772      18.145207880834889      8.0455564539179019
   839   3      12.075372462964879      18.090232252751139      10.109280617790843
   840   3        14.2994767486282      16.198608057412471      10.249306122832605
   841   4      12.085511728546273      20.076245183706114    -0.27332169187550104
   842   1      14.159278153105062      22.253368012653112      1.9689697558149901
   843   3      14.083644278451903      22.471160988924549   -0.043121320341343243
   844   3       12.10041194017753      22.376568466663056      2.1911522747397387
   845   3      14.098147375778755      20.228396251615692      2.1612741679713166
   846   4      12.280438330436432      20.218249474559116       3.717168979460177
   847   2      14.286069451823145      22.202458959153279      6.0538243063536932
   848   3      14.151742006386456      22.228527621521305      4.1106480171258752
   849   3       12.11661198944406      22.453593230018836      6.1194621546118269
   850   3      14.044946990092436      20.269543447879226      6.2430843451624369
   851   4      12.274414348307518      20.290830160179656      8.5985989498474691
   852   1      14.195853080125842      22.260761477740893      10.108920395912788
   853   3       14.14720148610159       22.54321344313712      8.0632347473109469
   854   3      12.140624802559598      22.423658954236156      10.007794514836764
   855   3      14.185185372754383      20.239884857946684       9.964923258027973
   856   4       15.77874531133204      12.305290628893658   -0.069387441333980865
   857   2      18.141649645963671      14.300234182299615      2.0165657143597975
   858   3      18.075168915009073       14.27337606954489   0.0098181745376665422
   859   3      16.249778451369583      14.147204563670588      2.1912246034545362
   860   3      18.414702253372159      12.116086208834172       1.962291720808742
   861   4      15.727919692453483      12.316124453372106      4.2275972097567971
   862   1      18.180862147918166      14.185600399404706      6.0455691829190936
   863   3      18.541412551532389      14.110529989863469      3.9834457377690868
   864   3      16.185535249601884       14.06803449857194      5.9406614852385395
   865   3      18.485204712004787       12.13031471908006      6.0994385383317606
   866   4      15.843825955006043      12.529466318395915      7.7552087558608482
   867   2      18.081093811310371      14.153412379283965      10.071144994321378
   868   3      18.256195510450024      14.207401412946062      8.1630469468776177
   869   3      16.229254944296265      14.096276586174239      10.278875333695533
   870   3      18.491188481857645      12.216811078685572      10.085704509756757
   871   4      15.938789308355886      15.913963358583723     -0.2843752425764946
   872   1      18.196538310569807      18.198836841009491       2.004482860680636
   873   3       18.24558995421447      18.420642672442838   -0.061808338031636684
   874   3      16.176660377766545      18.419842364620699      2.1153777505953317
   875   3      18.348424479319725      16.186505629226929       2.155674208092488
   876   4      15.932305964593892       15.81083526388422      4.2424720920986312
   877   2      18.059903168238687      18.241099358877293      6.0432974097394743
   878   3      18.445348566608434      18.298147772432284      4.0824625976790809
   879   3      16.184064685681665      18.410510111825761      5.9499512728293462
   880   3      18.297932732550219      16.253876660598713      5.9748929191990614
   881   4      15.747700377431636      16.129810963560352      8.1705411468576497
   882   1      18.233545014553552      18.196634796383179      10.112537872454004
   883   3      18.250483730626943      18.239309594127533      8.0478637867106926
   884   3      16.219183656342508       18.36620112193625       10.23205706542103
   885   3      18.198323460257157      16.134512106012139       10.34195593556823
   886   4      16.288186161377379      20.033640334482598    -0.17941588812253492
   887   2      18.061662172010404      22.315756389167611      2.0557669211704228
   888   3      18.232639336262249       22.38006990156001    0.072401330649844803
   889   3      16.196869271570755      22.239527959171006       2.158749282639596
   890   3       18.40602186443008      20.345488806764401      2.0176580918805871
   891   4      15.972828556504989        20.1676746705363      3.8232253121626241
   892   1      18.194874168241867      22.248003823450084      6.0698709754817664
   893   3      18.466219869079637       22.25105841298371      4.0143178064872886
   894   3      16.176406163933585       22.21438124390945      6.0625031792445316
   895   3       18.50602981244527      20.217404818881683      6.0722416476001486
   896   4      15.963545879169756      19.883100665429513      8.3743383204365234
   897   2      18.217116956995472      22.188760144051141      9.9968986460670219
   898   3      18.291711783229601      22.460060771712048      8.0989101854755585
   899   3      16.267277071347987       22.22866228501384        10.2138437236852
   900   3      18.463794245293425      20.282603669753769      10.082301398136366
   901   4      20.272475423277513       12.34975503736691     0.15687224796396326
   902   1      22.255944796089565      14.153420755857535       2.059244484157976
   903   3      22.446740644168333      14.181025833129583   -0.025625226225983833
   904   3      20.223814245714664      14.140075010230184      1.6753666315370912
   905   3      22.267884593907915      12.065753536033622      1.8250180287068212
   906   4      19.931384344719984      12.194514724378196      4.1189428570730238
   907   2      22.178192448163738      14.156096626761647      5.9227130586061172
   908   3      22.095812896447253      14.191707528259531      4.0687521338077239
   909   3      20.310226456324415      14.281157382353829      6.3023349413748173
   910   3      22.298608630175835      12.212769960183087      6.1832104794278324
   911   4      19.943970062347169      12.207701845334906      7.9670651717405141
   912   2      22.274823870091193      14.044021621395272      10.084347827388102
   913   3      22.516761435425746      14.248298539251136      8.1767247073017373
   914   3      20.346955184285932      14.394594364784282      10.128442697799366
   915   3      22.238678725860623      12.173512885766547      10.211227698239734
   916   4      20.363057387374258      15.826724796736976     0.00223468496101295
   917   2      22.182867517606415      18.118257290140665      2.0532019287745022
   918   3      22.354905442013902       18.44094752580936     0.02617196565834418
   919   3      20.312017035443063      18.348151628090164      1.9516975532232244
   920   3      22.299352965404793      16.252004573375583      1.8872946742859356
   921   4      19.894027666566632      16.262236934458667      4.0856950839205721
   922   1      22.239715712274393      18.181512267698906      6.0520170472623871
   923   3      22.388509118649822      18.257990339062736      3.9763272368188782
   924   3      20.258248043100746      18.137377611762822      6.2651721099078079
   925   3      22.543896216760462      16.137172368500561      6.1565284532212097
   926   4      19.959966550309151      16.277808092618045      7.8420915233634974
   927   2      22.160250597055533       18.29070592091054      10.098369384346327
   928   3      22.504207139374596      18.235116995651936      8.1738624234272788
   929   3      20.307595484036757      18.062178200336444      10.108225053707409
   930   3      22.601744696614713      16.279401796453381      10.160057897570354
   931   4      19.985879913393831      20.112474842661076     0.13104889461414146
   932   2      22.228221188347682      22.202211136159921      2.0314310515095886
   933   3      22.558369545156165       22.32102713816171     0.11592755018492426
   934   3      20.362226010965784       22.37100980351946      1.9855495285230473
   935   3      22.388012527199916      20.319295006336677       2.084827222193824
   936   4      19.897482471094474      20.182481260657326      4.0312543495177513
   937   2      22.222781888526278      22.213244553429728      6.1225340753805177
   938   3      22.364081144929688       22.49360867684776      4.0677593395498475
   939   3      20.352405120209653       22.50978278732974       6.131443598547766
   940   3      22.290913804570295      20.323531698525613      6.0852286334866736
   941   4      20.027391242236458        19.9552066295145      7.8553752730948441
   942   1      22.241726498477757      22.240532675361322      10.084265456639704
   943   3      22.463061836241735      22.458973599458371      8.0242017744230338
   944   3      20.241429322430527      22.593346869284851      10.066351374143581
   945   3      22.255790061380146       20.21230737992996      10.258562110373255
   946   4      12.242355924081409      11.789992214588949       11.98687029656452
   947   2        14.0671391363871      14.153021050660252      14.107934924479487
   948   3      14.020958342966793      14.163309167438049      12.239098702199891
   949   3       12.13865413443159      14.294705480390196      14.349495941571778
   950   3      14.133062612344292      12.254286178654748      14.390939945631729
   951   4      12.337188248716501      11.700263423727515      16.048224540267885
   952   2      14.211186816943854      13.998278367777628      18.220204749960271
   953   3      14.247218725490942       14.40535854737834      16.212810428600442
   954   3      12.232741744962958      14.428091221831821      18.156809458798659
   955   3      14.050452113957151      12.140750596120366        18.1411897948418
   956   4      12.355584181762824      11.707338351071336      20.178459715824108
   957   1      14.116912828318274       14.14840542202305      22.199188720692579
   958   3      14.172970038037532       14.24707062970942      20.164186780502078
   959   3      12.074719906605674      14.144130262612093      22.505282977004409
   960   3      14.260590857456432       12.14421420165465      22.405515729628735
   961   4       12.22987410768917      16.120388368295934       11.76413701961773
   962   2      14.032678612076152      18.169367872038958      14.177674561548432
   963   3      14.278710555274843      18.349451389508552      12.271795787414073
   964   3      12.154240808247113      18.286960556558419      14.202414022900285
   965   3      14.261849244761907      16.267700619180467      14.184378460746679
   966   4       11.85827371578787      15.987034093302251      16.378948460517702
   967   2      14.087874893931554      18.224820332545789      18.237419969132052
   968   3      14.336942125933021      18.307136480616904      16.220273677506317
   969   3      12.222342896539466      18.237197241316697       18.26898577246018
   970   3      14.354089819913378      16.317141326686365      18.235493814153454
   971   4      11.930093898901275      15.997450582176391      19.934301544158991
   972   1      14.156624327010721      18.219580333935617      22.204371712874561
   973   3      14.388151455016859      18.366236781080278      20.167393868274228
   974   3      12.119725448250783      18.322251328475605      22.393626654051598
   975   3      14.269250743567818      16.214031443809549      22.299828497330374
   976   4      11.613387959648442      20.339516237684403      12.189614508309257
   977   2      14.147895708641878      22.294250432429205      14.021145346195109
   978   3      14.148648804667722      22.202038142563598      12.158079420009855
   979   3      12.205533160599426      22.313902392152443      14.341241741127609
   980   3      14.206216716479746      20.278743231736495      14.368966754726848
   981   4      11.800774162349922      20.241073305236132      16.035351932083152
   982   2      14.091339050459714       22.27969421624659      18.257596607375437
   983   3      14.283354804974957      22.430420019800675      16.311559255618757
   984   3      12.204213370136976      22.461146547517345      18.259238633427927
   985   3      14.221747710145555      20.348331678713908      18.202938151779371
   986   4      11.798820582440683      20.220123816345087      20.296247894698976
   987   2      14.234635879949604      22.178438370241402       22.30332880576297
   988   3      14.216770327023923      22.320071366434746      20.287982708484616
   989   3      12.227230249705899      22.448857883134167      22.283038216409949
   990   3      14.176925133576381      20.296511639746583      22.375764694830625
   991   4      16.220485339743632      11.647074687244094       12.24196117291714
   992   2      18.105589823174256      14.125705890935455      14.177823084323121
   993   3      18.479420859745069      14.125021977498639      12.205303037404729
   994   3       16.20032371212039      14.225441125349718       14.16731080479622
   995   3      18.336663104658175       12.23365565654192      14.317634347085619
   996   4      15.950740548769598      11.769493645877384      16.008445234736069
   997   1      18.147934232684399      14.111659653312921      18.231339544885444
   998   3      18.271222095611435      14.362080133192672      16.132022390062161
   999   3       16.14270219328565      14.256024674316491      18.163966120543947
  1000   3      18.489468977816522      12.075214232094092      18.171786581568199
  1001   4      15.935129935620912      11.837196373281532      20.683054549541765
  1002   2      18.249351714935482      13.997652768089656      22.186688015687153
  1003   3      18.416494760634301       14.16997932364683      20.296667754975456
  1004   3      16.268239905989816      14.320399703292303      22.209419325480219
  1005   3      18.142962877059766      12.145274941635918       22.34432905325697
  1006   4      16.031887663582715      16.365362671557474      11.726196064175173
  1007   2      18.127228689219546      18.193201201861122      14.090314368086039
  1008   3      18.354082597019215       18.37778485734863       12.21078205866076
  1009   3      16.251083204059594      18.371708732634051      14.257822999717146
  1010   3       18.31186516594973      16.258810793018995       14.11335620148505
  1011   4      16.096602860934041      15.922412499968432      16.376888875633085
  1012   2      18.247596013578995      18.114656443265826      18.166348328033468
  1013   3      18.377281482696795      18.322607730785105      16.231057951604328
  1014   3      16.321448602120505      18.514028119803008      18.225906898747532
  1015   3      18.177805071949489      16.260953779737143      18.258413723156917
  1016   4      15.824019545183331      15.985476656930343      20.415214071983364
  1017   2      18.194339342853919      18.103447246671497      22.287678894419134
  1018   3      18.237052534462187      18.499872159121409       20.29637634621875
  1019   3       16.27590359437416      18.403882927936706       22.28675579970194
  1020   3      18.280692582139714      16.252984011722489      22.254944002067027
  1021   4      15.895282804672824      20.083174979560916      11.814775108614489
  1022   1      18.207163805477947       22.28465310681084      14.163244605860481
  1023   3      18.389109505084289      22.240285944160991      12.111591784865055
  1024   3      16.148437711374889      22.262911487688399      14.321373914665896
  1025   3      18.446628152812281      20.208694383055221      14.270769714624002
  1026   4      15.999850188932951       20.25682046151373      15.979987418931014
  1027   2       18.13196422399843      22.293923119950115      18.101418676362837
  1028   3      18.275122549144758      22.322467410544999      16.239980913310816
  1029   3      16.238859303532767      22.299920057811761      18.305727481643107
  1030   3      18.456924317999079      20.368083120924709      18.274576416944974
  1031   4      16.158473286883908      19.988044286636161      20.195369908680615
  1032   2      18.398416947650539      22.280499994989121      22.176956450831735
  1033   3      18.247047016690345      22.325125625941084       20.28682131868138
  1034   3      16.195857778828454      22.393281265590396      22.418184754522194
  1035   3      18.162820054634942      20.360317809788434      22.429278744032867
  1036   4      19.959073960841188      11.828801907733267      11.909459280885175
  1037   2      22.217402063481881      14.020007902837312      14.160112959103941
  1038   3      22.238855230204685      14.399907708305852      12.205411484697125
  1039   3        20.3200017323752      14.289766039159248      14.297704251219239
  1040   3      22.354237796478387      12.148394558496941       14.17861734990319
  1041   4      19.939810083719095      11.937323892172243      16.129308562966983
  1042   1      22.305521805225737      14.096424744634724      18.165555529841562
  1043   3      22.397516120159828      14.315218167506147      16.121559655266751
  1044   3      20.253093813648899      14.281371728952701      18.219838675762674
  1045   3      22.238114782343221      12.067499453701569       18.46626091456217
  1046   4      20.239281991014522      12.355678692481431      19.858385158887536
  1047   1       22.23995016107871      14.112444248075686      22.248927293204726
  1048   3      22.208952105883387      14.293655364233979      20.267454119756202
  1049   3      20.191310407950816       14.18225433099256       22.57019608965016
  1050   3      22.433265394516347      12.057494805351991      22.288458566698203
  1051   4      20.027586084170352       16.03059295161081       11.95428464195906
  1052   2      22.211652848230287      18.134500245767189      14.187727726544193
  1053   3      22.462317596881906       18.26844669704515      12.196413005581725
  1054   3      20.334365386630566      18.295072046747904       14.22317121973634
  1055   3       22.44205773118075      16.262457678340411      14.238378031948722
  1056   4       20.21559032816814      15.772784108025052      16.396396784699736
  1057   1      22.255170048100094      18.242692188044909      18.202221114090726
  1058   3      22.426534260074352      18.344587255028181      16.146874946682377
  1059   3      20.214237182121927      18.293509797254334      18.408687766997197
  1060   3       22.43777527044287      16.221563026756598      18.224430208914583
  1061   4      20.458108178543462      15.853135171965793      19.932960080948927
  1062   2      22.186670729790421      18.234633212114506      22.242781662944598
  1063   3      22.396371441011187      18.312066445426964       20.32892669928934
  1064   3      20.261025362553795      18.439629483969465      22.284658013611093
  1065   3      22.283923369349075      16.314718711199653      22.425951361558788
  1066   4      19.864743067986822      20.330633657248811      12.152517340586183
  1067   2      22.175937487327442      22.297823743425045      14.108858880910104
  1068   3      22.368576322959353      22.374007899067717      12.211288378123628
  1069   3      20.323822588725864      22.306691430867595      14.268343494944277
  1070   3      22.405676850543088       20.33028442955521      14.226413544245288
  1071   4      20.003705406292124      20.225983813945039       16.01720878891047
  1072   2      22.165842627794255      22.320090357028768      18.242742307445919
  1073   3      22.480191464273489      22.326297608630487      16.247760467219635
  1074   3      20.279567937384808      22.458454119020775      18.278155128519735
  1075   3      22.332325992028998      20.352480186771853      18.307194233356007
  1076   4      20.169344164313227      20.033410834287857      20.015173465145615
  1077   1      22.247882551192181      22.290869725707861      22.287286536461338
  1078   3      22.483209370601628      22.347511348902305       20.21730050317511
  1079   3      20.244041348914966      22.298815740793803      22.390510724427504
  1080   3      22.549168358115818      20.246986869824287      22.293954288321832
